! COPPER MOUNTAIN TECHNOLOGIES, R60, 23103002, 24.3.3/3.0
! Date: 25/6/2026 14:44:11
! Data: Format [Calibration Info]
! Frequency		S11: Mag/Ang F1                
# HZ S MA R 50
1.00000000E+06	 9.72262566E-01	-2.48458994E-01
2.00000000E+06	 9.72168778E-01	-5.91588124E-01
3.00000000E+06	 9.72081374E-01	-9.44048509E-01
4.00000000E+06	 9.72104104E-01	-1.29340567E+00
5.00000000E+06	 9.72078748E-01	-1.63608386E+00
6.00000000E+06	 9.72108345E-01	-1.97747457E+00
7.00000000E+06	 9.72267555E-01	-2.32479318E+00
8.00000000E+06	 9.72170977E-01	-2.67224072E+00
9.00000000E+06	 9.72204203E-01	-3.01345178E+00
1.00000000E+07	 9.72052329E-01	-3.36378560E+00
1.10000000E+07	 9.72098013E-01	-3.70188746E+00
1.20000000E+07	 9.72138480E-01	-4.05268587E+00
1.30000000E+07	 9.72036287E-01	-4.40267540E+00
1.40000000E+07	 9.71980282E-01	-4.74699428E+00
1.50000000E+07	 9.72004887E-01	-5.09581562E+00
1.60000000E+07	 9.71945083E-01	-5.44000635E+00
1.70000000E+07	 9.71908153E-01	-5.78563682E+00
1.80000000E+07	 9.71876331E-01	-6.13207706E+00
1.90000000E+07	 9.71879467E-01	-6.47594992E+00
2.00000000E+07	 9.71925620E-01	-6.82225556E+00
2.10000000E+07	 9.71899286E-01	-7.16737498E+00
2.20000000E+07	 9.72026526E-01	-7.51386311E+00
2.30000000E+07	 9.71862964E-01	-7.82921245E+00
2.40000000E+07	 9.72002102E-01	-8.18258512E+00
2.50000000E+07	 9.72091651E-01	-8.53685112E+00
2.60000000E+07	 9.71915772E-01	-8.87163430E+00
2.70000000E+07	 9.71942801E-01	-9.21224973E+00
2.80000000E+07	 9.71931292E-01	-9.55663335E+00
2.90000000E+07	 9.71903302E-01	-9.90448488E+00
3.00000000E+07	 9.71758843E-01	-1.02446751E+01
3.10000000E+07	 9.71911103E-01	-1.05960842E+01
3.20000000E+07	 9.71861446E-01	-1.09255041E+01
3.30000000E+07	 9.71856361E-01	-1.12667450E+01
3.40000000E+07	 9.71809099E-01	-1.16132316E+01
3.50000000E+07	 9.71835406E-01	-1.19476338E+01
3.60000000E+07	 9.71861388E-01	-1.22990910E+01
3.70000000E+07	 9.71988539E-01	-1.26295843E+01
3.80000000E+07	 9.71886593E-01	-1.29666875E+01
3.90000000E+07	 9.71765143E-01	-1.33077577E+01
4.00000000E+07	 9.71857050E-01	-1.36427064E+01
4.10000000E+07	 9.71906796E-01	-1.39840056E+01
4.20000000E+07	 9.71755321E-01	-1.43141749E+01
4.30000000E+07	 9.71726560E-01	-1.46539723E+01
4.40000000E+07	 9.71779702E-01	-1.49916959E+01
4.50000000E+07	 9.71935620E-01	-1.53187175E+01
4.60000000E+07	 9.71759340E-01	-1.56568065E+01
4.70000000E+07	 9.71962921E-01	-1.59792297E+01
4.80000000E+07	 9.72133345E-01	-1.63185182E+01
4.90000000E+07	 9.71922631E-01	-1.66569879E+01
5.00000000E+07	 9.71974462E-01	-1.69856919E+01
5.10000000E+07	 9.71951325E-01	-1.73170124E+01
5.20000000E+07	 9.71943767E-01	-1.76520256E+01
5.30000000E+07	 9.71871045E-01	-1.79828486E+01
5.40000000E+07	 9.71973342E-01	-1.83201626E+01
5.50000000E+07	 9.71893579E-01	-1.86505605E+01
5.60000000E+07	 9.71991769E-01	-1.89838063E+01
5.70000000E+07	 9.71709416E-01	-1.93155260E+01
5.80000000E+07	 9.71831605E-01	-1.96546254E+01
5.90000000E+07	 9.71949445E-01	-1.99791938E+01
6.00000000E+07	 9.71671683E-01	-2.03050769E+01
6.10000000E+07	 9.71785275E-01	-2.06423848E+01
6.20000000E+07	 9.71593681E-01	-2.09706246E+01
6.30000000E+07	 9.71683580E-01	-2.13030504E+01
6.40000000E+07	 9.71621881E-01	-2.16249856E+01
6.50000000E+07	 9.71633783E-01	-2.19583575E+01
6.60000000E+07	 9.71595930E-01	-2.22842417E+01
6.70000000E+07	 9.71462537E-01	-2.26094753E+01
6.80000000E+07	 9.71499322E-01	-2.29346684E+01
6.90000000E+07	 9.71330187E-01	-2.32589143E+01
7.00000000E+07	 9.71429114E-01	-2.35817982E+01
7.10000000E+07	 9.71349677E-01	-2.39169077E+01
7.20000000E+07	 9.71254841E-01	-2.42398608E+01
7.30000000E+07	 9.71209546E-01	-2.45492244E+01
7.40000000E+07	 9.71028600E-01	-2.48782781E+01
7.50000000E+07	 9.71115148E-01	-2.52035880E+01
7.60000000E+07	 9.71055183E-01	-2.55228565E+01
7.70000000E+07	 9.71095157E-01	-2.58452760E+01
7.80000000E+07	 9.71027377E-01	-2.61638374E+01
7.90000000E+07	 9.71046506E-01	-2.64866070E+01
8.00000000E+07	 9.70891003E-01	-2.68069685E+01
8.10000000E+07	 9.70901747E-01	-2.71264289E+01
8.20000000E+07	 9.70727853E-01	-2.74487040E+01
8.30000000E+07	 9.70826723E-01	-2.77725062E+01
8.40000000E+07	 9.70514217E-01	-2.80978340E+01
8.50000000E+07	 9.70531423E-01	-2.84117276E+01
8.60000000E+07	 9.70371455E-01	-2.87327310E+01
8.70000000E+07	 9.70314269E-01	-2.90508736E+01
8.80000000E+07	 9.70257216E-01	-2.93680367E+01
8.90000000E+07	 9.70117333E-01	-2.96894318E+01
9.00000000E+07	 9.69980727E-01	-2.99959029E+01
9.10000000E+07	 9.69793738E-01	-3.03155151E+01
9.20000000E+07	 9.69695107E-01	-3.06386519E+01
9.30000000E+07	 9.69612020E-01	-3.09509025E+01
9.40000000E+07	 9.69444317E-01	-3.12685473E+01
9.50000000E+07	 9.69444999E-01	-3.15870968E+01
9.60000000E+07	 9.69330174E-01	-3.18970696E+01
9.70000000E+07	 9.69113558E-01	-3.22080948E+01
9.80000000E+07	 9.68930982E-01	-3.25239853E+01
9.90000000E+07	 9.68872398E-01	-3.28319450E+01
1.00000000E+08	 9.68791138E-01	-3.31495830E+01
1.01000000E+08	 9.68736425E-01	-3.34565960E+01
1.02000000E+08	 9.68620861E-01	-3.37672791E+01
1.03000000E+08	 9.68501452E-01	-3.40818869E+01
1.04000000E+08	 9.68399978E-01	-3.43973286E+01
1.05000000E+08	 9.68252520E-01	-3.47027240E+01
1.06000000E+08	 9.68041463E-01	-3.50072877E+01
1.07000000E+08	 9.67783196E-01	-3.53153389E+01
1.08000000E+08	 9.67764821E-01	-3.56248522E+01
1.09000000E+08	 9.67582108E-01	-3.59395376E+01
1.10000000E+08	 9.67355547E-01	-3.62451606E+01
1.11000000E+08	 9.67387008E-01	-3.65463259E+01
1.12000000E+08	 9.66960718E-01	-3.68563711E+01
1.13000000E+08	 9.66994739E-01	-3.71583117E+01
1.14000000E+08	 9.66641318E-01	-3.74666558E+01
1.15000000E+08	 9.66437074E-01	-3.77675456E+01
1.16000000E+08	 9.66355327E-01	-3.80751263E+01
1.17000000E+08	 9.66115578E-01	-3.83800274E+01
1.18000000E+08	 9.65787971E-01	-3.86867002E+01
1.19000000E+08	 9.65549029E-01	-3.89856755E+01
1.20000000E+08	 9.65424417E-01	-3.92872051E+01
1.21000000E+08	 9.65090488E-01	-3.95897837E+01
1.22000000E+08	 9.64882815E-01	-3.98831067E+01
1.23000000E+08	 9.64620459E-01	-4.01846675E+01
1.24000000E+08	 9.64465452E-01	-4.04754983E+01
1.25000000E+08	 9.64390998E-01	-4.07782231E+01
1.26000000E+08	 9.64234614E-01	-4.10678026E+01
1.27000000E+08	 9.64064948E-01	-4.13737398E+01
1.28000000E+08	 9.63839702E-01	-4.16642596E+01
1.29000000E+08	 9.63672324E-01	-4.19656337E+01
1.30000000E+08	 9.63375264E-01	-4.22681884E+01
1.31000000E+08	 9.63318816E-01	-4.25605995E+01
1.32000000E+08	 9.62983561E-01	-4.28576233E+01
1.33000000E+08	 9.62749476E-01	-4.31513492E+01
1.34000000E+08	 9.62498956E-01	-4.34563689E+01
1.35000000E+08	 9.62269099E-01	-4.37405044E+01
1.36000000E+08	 9.62096163E-01	-4.40407258E+01
1.37000000E+08	 9.61769284E-01	-4.43341897E+01
1.38000000E+08	 9.61496094E-01	-4.46287693E+01
1.39000000E+08	 9.61276104E-01	-4.49273055E+01
1.40000000E+08	 9.61075741E-01	-4.52145008E+01
1.41000000E+08	 9.60805385E-01	-4.55091232E+01
1.42000000E+08	 9.60414072E-01	-4.58035288E+01
1.43000000E+08	 9.60342396E-01	-4.60976572E+01
1.44000000E+08	 9.59943614E-01	-4.63884365E+01
1.45000000E+08	 9.59697323E-01	-4.66823668E+01
1.46000000E+08	 9.59553725E-01	-4.69680388E+01
1.47000000E+08	 9.59088578E-01	-4.72557522E+01
1.48000000E+08	 9.58850592E-01	-4.75503995E+01
1.49000000E+08	 9.58590464E-01	-4.78369895E+01
1.50000000E+08	 9.58315049E-01	-4.81358373E+01
1.51000000E+08	 9.58018171E-01	-4.84272971E+01
1.52000000E+08	 9.57702047E-01	-4.87160249E+01
1.53000000E+08	 9.57430430E-01	-4.90087878E+01
1.54000000E+08	 9.57126391E-01	-4.92993407E+01
1.55000000E+08	 9.56894862E-01	-4.95867718E+01
1.56000000E+08	 9.56480459E-01	-4.98679149E+01
1.57000000E+08	 9.56247683E-01	-5.01545482E+01
1.58000000E+08	 9.55900680E-01	-5.04437593E+01
1.59000000E+08	 9.55730290E-01	-5.07264470E+01
1.60000000E+08	 9.55526012E-01	-5.10109903E+01
1.61000000E+08	 9.55131890E-01	-5.13022674E+01
1.62000000E+08	 9.54951851E-01	-5.15970205E+01
1.63000000E+08	 9.54622771E-01	-5.18678461E+01
1.64000000E+08	 9.54534075E-01	-5.21478434E+01
1.65000000E+08	 9.54197667E-01	-5.24332018E+01
1.66000000E+08	 9.53894130E-01	-5.27177839E+01
1.67000000E+08	 9.53669468E-01	-5.30029034E+01
1.68000000E+08	 9.53428078E-01	-5.32729713E+01
1.69000000E+08	 9.53195569E-01	-5.35592933E+01
1.70000000E+08	 9.52856138E-01	-5.38404510E+01
1.71000000E+08	 9.52583665E-01	-5.41138235E+01
1.72000000E+08	 9.52326233E-01	-5.44018430E+01
1.73000000E+08	 9.52096430E-01	-5.46785416E+01
1.74000000E+08	 9.51811949E-01	-5.49531081E+01
1.75000000E+08	 9.51465458E-01	-5.52374620E+01
1.76000000E+08	 9.51386916E-01	-5.55186236E+01
1.77000000E+08	 9.51087850E-01	-5.57890918E+01
1.78000000E+08	 9.50867869E-01	-5.60666838E+01
1.79000000E+08	 9.50556205E-01	-5.63551766E+01
1.80000000E+08	 9.50347713E-01	-5.66319331E+01
1.81000000E+08	 9.50103586E-01	-5.69099490E+01
1.82000000E+08	 9.49855976E-01	-5.71884719E+01
1.83000000E+08	 9.49545456E-01	-5.74640713E+01
1.84000000E+08	 9.49272381E-01	-5.77504134E+01
1.85000000E+08	 9.49106150E-01	-5.80237392E+01
1.86000000E+08	 9.48731715E-01	-5.82971050E+01
1.87000000E+08	 9.48499449E-01	-5.85753101E+01
1.88000000E+08	 9.48268425E-01	-5.88499192E+01
1.89000000E+08	 9.47911670E-01	-5.91265130E+01
1.90000000E+08	 9.47798304E-01	-5.94068509E+01
1.91000000E+08	 9.47443700E-01	-5.96858699E+01
1.92000000E+08	 9.47290333E-01	-5.99530255E+01
1.93000000E+08	 9.47009493E-01	-6.02236671E+01
1.94000000E+08	 9.46892008E-01	-6.04999320E+01
1.95000000E+08	 9.46724443E-01	-6.07724121E+01
1.96000000E+08	 9.46580756E-01	-6.10435361E+01
1.97000000E+08	 9.46390765E-01	-6.13167688E+01
1.98000000E+08	 9.46111615E-01	-6.15912851E+01
1.99000000E+08	 9.45906792E-01	-6.18624869E+01
2.00000000E+08	 9.45804768E-01	-6.21393165E+01
2.01000000E+08	 9.45523807E-01	-6.23928900E+01
2.02000000E+08	 9.45325909E-01	-6.26716146E+01
2.03000000E+08	 9.45108283E-01	-6.29397633E+01
2.04000000E+08	 9.44982108E-01	-6.32147855E+01
2.05000000E+08	 9.44687171E-01	-6.34791678E+01
2.06000000E+08	 9.44569973E-01	-6.37599246E+01
2.07000000E+08	 9.44427771E-01	-6.40216497E+01
2.08000000E+08	 9.44302041E-01	-6.42860904E+01
2.09000000E+08	 9.44119517E-01	-6.45549836E+01
2.10000000E+08	 9.43803822E-01	-6.48253904E+01
2.11000000E+08	 9.43758582E-01	-6.50933876E+01
2.12000000E+08	 9.43594202E-01	-6.53576243E+01
2.13000000E+08	 9.43532902E-01	-6.56278180E+01
2.14000000E+08	 9.43371825E-01	-6.58847257E+01
2.15000000E+08	 9.43156992E-01	-6.61554634E+01
2.16000000E+08	 9.42911205E-01	-6.64258446E+01
2.17000000E+08	 9.42967567E-01	-6.66843231E+01
2.18000000E+08	 9.42915725E-01	-6.69461677E+01
2.19000000E+08	 9.42800828E-01	-6.72161247E+01
2.20000000E+08	 9.42712828E-01	-6.74758782E+01
2.21000000E+08	 9.42605015E-01	-6.77362333E+01
2.22000000E+08	 9.42421593E-01	-6.80017576E+01
2.23000000E+08	 9.42311652E-01	-6.82603711E+01
2.24000000E+08	 9.42361420E-01	-6.85153111E+01
2.25000000E+08	 9.42293033E-01	-6.87867407E+01
2.26000000E+08	 9.42092679E-01	-6.90474271E+01
2.27000000E+08	 9.42098176E-01	-6.93015573E+01
2.28000000E+08	 9.42009490E-01	-6.95522917E+01
2.29000000E+08	 9.41966748E-01	-6.98123345E+01
2.30000000E+08	 9.42007180E-01	-7.00727124E+01
2.31000000E+08	 9.41930462E-01	-7.03316304E+01
2.32000000E+08	 9.41837305E-01	-7.05851422E+01
2.33000000E+08	 9.41785464E-01	-7.08409205E+01
2.34000000E+08	 9.41718104E-01	-7.10899471E+01
2.35000000E+08	 9.41816317E-01	-7.13451466E+01
2.36000000E+08	 9.41810954E-01	-7.16027493E+01
2.37000000E+08	 9.41737412E-01	-7.18545649E+01
2.38000000E+08	 9.41633099E-01	-7.21067573E+01
2.39000000E+08	 9.41692550E-01	-7.23584134E+01
2.40000000E+08	 9.41516658E-01	-7.26124629E+01
2.41000000E+08	 9.41693660E-01	-7.28625061E+01
2.42000000E+08	 9.41621134E-01	-7.31174327E+01
2.43000000E+08	 9.41560387E-01	-7.33566896E+01
2.44000000E+08	 9.41647582E-01	-7.36073134E+01
2.45000000E+08	 9.41619732E-01	-7.38554426E+01
2.46000000E+08	 9.41572530E-01	-7.40979831E+01
2.47000000E+08	 9.41676618E-01	-7.43495764E+01
2.48000000E+08	 9.41636451E-01	-7.45880107E+01
2.49000000E+08	 9.41690213E-01	-7.48418585E+01
2.50000000E+08	 9.41686314E-01	-7.50868203E+01
2.51000000E+08	 9.41619784E-01	-7.53319895E+01
2.52000000E+08	 9.41811121E-01	-7.55760771E+01
2.53000000E+08	 9.41884820E-01	-7.58188880E+01
2.54000000E+08	 9.41890900E-01	-7.60609805E+01
2.55000000E+08	 9.41775498E-01	-7.63018237E+01
2.56000000E+08	 9.42002582E-01	-7.65501371E+01
2.57000000E+08	 9.42012712E-01	-7.67888775E+01
2.58000000E+08	 9.42103658E-01	-7.70244914E+01
2.59000000E+08	 9.42228454E-01	-7.72667712E+01
2.60000000E+08	 9.42363017E-01	-7.75106026E+01
2.61000000E+08	 9.42325147E-01	-7.77426568E+01
2.62000000E+08	 9.42404459E-01	-7.79788561E+01
2.63000000E+08	 9.42515021E-01	-7.82173590E+01
2.64000000E+08	 9.42651798E-01	-7.84621703E+01
2.65000000E+08	 9.42708885E-01	-7.86924916E+01
2.66000000E+08	 9.42847829E-01	-7.89240321E+01
2.67000000E+08	 9.42897872E-01	-7.91583168E+01
2.68000000E+08	 9.43030918E-01	-7.93911674E+01
2.69000000E+08	 9.43098665E-01	-7.96289677E+01
2.70000000E+08	 9.43350648E-01	-7.98619347E+01
2.71000000E+08	 9.43417490E-01	-8.00898600E+01
2.72000000E+08	 9.43485362E-01	-8.03163377E+01
2.73000000E+08	 9.43662092E-01	-8.05574892E+01
2.74000000E+08	 9.43862401E-01	-8.07782696E+01
2.75000000E+08	 9.43923614E-01	-8.10065090E+01
2.76000000E+08	 9.44122321E-01	-8.12390418E+01
2.77000000E+08	 9.44160373E-01	-8.14546500E+01
2.78000000E+08	 9.44291102E-01	-8.16828376E+01
2.79000000E+08	 9.44396699E-01	-8.19126774E+01
2.80000000E+08	 9.44760736E-01	-8.21340030E+01
2.81000000E+08	 9.44803841E-01	-8.23597007E+01
2.82000000E+08	 9.44976067E-01	-8.25771841E+01
2.83000000E+08	 9.45048071E-01	-8.28022829E+01
2.84000000E+08	 9.45214192E-01	-8.30220354E+01
2.85000000E+08	 9.45328344E-01	-8.32489020E+01
2.86000000E+08	 9.45573313E-01	-8.34653035E+01
2.87000000E+08	 9.45708596E-01	-8.36886703E+01
2.88000000E+08	 9.45978655E-01	-8.38988672E+01
2.89000000E+08	 9.46112657E-01	-8.41193499E+01
2.90000000E+08	 9.46317696E-01	-8.43394816E+01
2.91000000E+08	 9.46424582E-01	-8.45479213E+01
2.92000000E+08	 9.46537117E-01	-8.47734207E+01
2.93000000E+08	 9.46834482E-01	-8.49802809E+01
2.94000000E+08	 9.47074381E-01	-8.51971294E+01
2.95000000E+08	 9.47239447E-01	-8.54143539E+01
2.96000000E+08	 9.47525677E-01	-8.56284400E+01
2.97000000E+08	 9.47716643E-01	-8.58366821E+01
2.98000000E+08	 9.47930785E-01	-8.60557399E+01
2.99000000E+08	 9.48121098E-01	-8.62580296E+01
3.00000000E+08	 9.48433374E-01	-8.64678926E+01
3.01000000E+08	 9.48722654E-01	-8.66840311E+01
3.02000000E+08	 9.48841707E-01	-8.68783637E+01
3.03000000E+08	 9.49093005E-01	-8.70898876E+01
3.04000000E+08	 9.49310754E-01	-8.72979211E+01
3.05000000E+08	 9.49623929E-01	-8.75076425E+01
3.06000000E+08	 9.49834012E-01	-8.77105920E+01
3.07000000E+08	 9.49967389E-01	-8.79147302E+01
3.08000000E+08	 9.50180070E-01	-8.81145775E+01
3.09000000E+08	 9.50534216E-01	-8.83250868E+01
3.10000000E+08	 9.50673667E-01	-8.85226907E+01
3.11000000E+08	 9.50984848E-01	-8.87183802E+01
3.12000000E+08	 9.51252577E-01	-8.89292599E+01
3.13000000E+08	 9.51412809E-01	-8.91153192E+01
3.14000000E+08	 9.51700852E-01	-8.93193662E+01
3.15000000E+08	 9.52025019E-01	-8.95134764E+01
3.16000000E+08	 9.52216187E-01	-8.97121932E+01
3.17000000E+08	 9.52499932E-01	-8.99150346E+01
3.18000000E+08	 9.52751192E-01	-9.01142387E+01
3.19000000E+08	 9.52866401E-01	-9.02965915E+01
3.20000000E+08	 9.53091018E-01	-9.04893763E+01
3.21000000E+08	 9.53367152E-01	-9.06740223E+01
3.22000000E+08	 9.53644743E-01	-9.08746360E+01
3.23000000E+08	 9.53807169E-01	-9.10690186E+01
3.24000000E+08	 9.54085612E-01	-9.12584428E+01
3.25000000E+08	 9.54271722E-01	-9.14492549E+01
3.26000000E+08	 9.54396951E-01	-9.16382749E+01
3.27000000E+08	 9.54672817E-01	-9.18237817E+01
3.28000000E+08	 9.54924310E-01	-9.20190074E+01
3.29000000E+08	 9.55125247E-01	-9.21989867E+01
3.30000000E+08	 9.55368818E-01	-9.23862138E+01
3.31000000E+08	 9.55614065E-01	-9.25706536E+01
3.32000000E+08	 9.55698550E-01	-9.27654460E+01
3.33000000E+08	 9.56116328E-01	-9.29399258E+01
3.34000000E+08	 9.56262967E-01	-9.31285304E+01
3.35000000E+08	 9.56521097E-01	-9.33057673E+01
3.36000000E+08	 9.56705860E-01	-9.34883046E+01
3.37000000E+08	 9.56955960E-01	-9.36694261E+01
3.38000000E+08	 9.57199123E-01	-9.38546141E+01
3.39000000E+08	 9.57513108E-01	-9.40299638E+01
3.40000000E+08	 9.57604642E-01	-9.42141441E+01
3.41000000E+08	 9.57987954E-01	-9.43896799E+01
3.42000000E+08	 9.58189359E-01	-9.45643114E+01
3.43000000E+08	 9.58324486E-01	-9.47446441E+01
3.44000000E+08	 9.58528187E-01	-9.49219530E+01
3.45000000E+08	 9.58868041E-01	-9.50881802E+01
3.46000000E+08	 9.59142111E-01	-9.52627838E+01
3.47000000E+08	 9.59302444E-01	-9.54429335E+01
3.48000000E+08	 9.59574571E-01	-9.56148642E+01
3.49000000E+08	 9.59733615E-01	-9.57883844E+01
3.50000000E+08	 9.59953926E-01	-9.59601871E+01
3.51000000E+08	 9.60102974E-01	-9.61315951E+01
3.52000000E+08	 9.60415582E-01	-9.62965310E+01
3.53000000E+08	 9.60474722E-01	-9.64600767E+01
3.54000000E+08	 9.60735889E-01	-9.66379090E+01
3.55000000E+08	 9.61025355E-01	-9.68025953E+01
3.56000000E+08	 9.61128161E-01	-9.69636876E+01
3.57000000E+08	 9.61383857E-01	-9.71248990E+01
3.58000000E+08	 9.61476508E-01	-9.72963502E+01
3.59000000E+08	 9.61676215E-01	-9.74567795E+01
3.60000000E+08	 9.61933415E-01	-9.76241253E+01
3.61000000E+08	 9.62105549E-01	-9.77882696E+01
3.62000000E+08	 9.62399474E-01	-9.79497112E+01
3.63000000E+08	 9.62517750E-01	-9.81104817E+01
3.64000000E+08	 9.62595785E-01	-9.82688014E+01
3.65000000E+08	 9.62841987E-01	-9.84353705E+01
3.66000000E+08	 9.62815016E-01	-9.85950591E+01
3.67000000E+08	 9.63190888E-01	-9.87527043E+01
3.68000000E+08	 9.63212285E-01	-9.89099982E+01
3.69000000E+08	 9.63475081E-01	-9.90664346E+01
3.70000000E+08	 9.63652083E-01	-9.92235367E+01
3.71000000E+08	 9.63718838E-01	-9.93854600E+01
3.72000000E+08	 9.63942854E-01	-9.95431942E+01
3.73000000E+08	 9.64153017E-01	-9.96966349E+01
3.74000000E+08	 9.64147455E-01	-9.98467542E+01
3.75000000E+08	 9.64378164E-01	-1.00005967E+02
3.76000000E+08	 9.64479187E-01	-1.00155287E+02
3.77000000E+08	 9.64676004E-01	-1.00305970E+02
3.78000000E+08	 9.64748701E-01	-1.00474560E+02
3.79000000E+08	 9.64847257E-01	-1.00616490E+02
3.80000000E+08	 9.65040268E-01	-1.00765817E+02
3.81000000E+08	 9.65101263E-01	-1.00911025E+02
3.82000000E+08	 9.65186950E-01	-1.01070421E+02
3.83000000E+08	 9.65352678E-01	-1.01223519E+02
3.84000000E+08	 9.65259310E-01	-1.01369603E+02
3.85000000E+08	 9.65350573E-01	-1.01515807E+02
3.86000000E+08	 9.65480358E-01	-1.01664303E+02
3.87000000E+08	 9.65602533E-01	-1.01812230E+02
3.88000000E+08	 9.65664193E-01	-1.01962510E+02
3.89000000E+08	 9.65690097E-01	-1.02110473E+02
3.90000000E+08	 9.65671155E-01	-1.02263072E+02
3.91000000E+08	 9.65706765E-01	-1.02407691E+02
3.92000000E+08	 9.65705027E-01	-1.02558025E+02
3.93000000E+08	 9.65686984E-01	-1.02703537E+02
3.94000000E+08	 9.65724001E-01	-1.02848386E+02
3.95000000E+08	 9.65595743E-01	-1.02999006E+02
3.96000000E+08	 9.65591180E-01	-1.03142936E+02
3.97000000E+08	 9.65493340E-01	-1.03303813E+02
3.98000000E+08	 9.65354294E-01	-1.03447812E+02
3.99000000E+08	 9.65139139E-01	-1.03595964E+02
4.00000000E+08	 9.65077506E-01	-1.03737551E+02
4.01000000E+08	 9.64615191E-01	-1.03879754E+02
4.02000000E+08	 9.64376495E-01	-1.04019319E+02
4.03000000E+08	 9.63785242E-01	-1.04149306E+02
4.04000000E+08	 9.63433052E-01	-1.04288053E+02
4.05000000E+08	 9.63019310E-01	-1.04410506E+02
4.06000000E+08	 9.62550356E-01	-1.04515817E+02
4.07000000E+08	 9.62121778E-01	-1.04612855E+02
4.08000000E+08	 9.62038096E-01	-1.04711244E+02
4.09000000E+08	 9.62157700E-01	-1.04812199E+02
4.10000000E+08	 9.62490746E-01	-1.04897769E+02
4.11000000E+08	 9.62833672E-01	-1.05005465E+02
4.12000000E+08	 9.63500561E-01	-1.05113384E+02
4.13000000E+08	 9.64019576E-01	-1.05248031E+02
4.14000000E+08	 9.64244010E-01	-1.05372729E+02
4.15000000E+08	 9.64519936E-01	-1.05513823E+02
4.16000000E+08	 9.64969506E-01	-1.05657882E+02
4.17000000E+08	 9.65316839E-01	-1.05801277E+02
4.18000000E+08	 9.65412561E-01	-1.05941804E+02
4.19000000E+08	 9.65412585E-01	-1.06080615E+02
4.20000000E+08	 9.65446287E-01	-1.06226697E+02
4.21000000E+08	 9.65640349E-01	-1.06362706E+02
4.22000000E+08	 9.65569920E-01	-1.06505310E+02
4.23000000E+08	 9.65560962E-01	-1.06648319E+02
4.24000000E+08	 9.65551100E-01	-1.06783762E+02
4.25000000E+08	 9.65641242E-01	-1.06914320E+02
4.26000000E+08	 9.65607284E-01	-1.07052459E+02
4.27000000E+08	 9.65529271E-01	-1.07182853E+02
4.28000000E+08	 9.65583653E-01	-1.07321401E+02
4.29000000E+08	 9.65455477E-01	-1.07460569E+02
4.30000000E+08	 9.65597978E-01	-1.07597416E+02
4.31000000E+08	 9.65453281E-01	-1.07729098E+02
4.32000000E+08	 9.65312075E-01	-1.07864239E+02
4.33000000E+08	 9.65206629E-01	-1.07995530E+02
4.34000000E+08	 9.65104247E-01	-1.08126287E+02
4.35000000E+08	 9.65038748E-01	-1.08262271E+02
4.36000000E+08	 9.65053490E-01	-1.08394916E+02
4.37000000E+08	 9.64747996E-01	-1.08534598E+02
4.38000000E+08	 9.64639862E-01	-1.08663814E+02
4.39000000E+08	 9.64652168E-01	-1.08797170E+02
4.40000000E+08	 9.64534687E-01	-1.08922786E+02
4.41000000E+08	 9.64398849E-01	-1.09051343E+02
4.42000000E+08	 9.64353125E-01	-1.09182286E+02
4.43000000E+08	 9.64246727E-01	-1.09316469E+02
4.44000000E+08	 9.64048725E-01	-1.09452536E+02
4.45000000E+08	 9.64016174E-01	-1.09572183E+02
4.46000000E+08	 9.63785123E-01	-1.09705301E+02
4.47000000E+08	 9.63761794E-01	-1.09828898E+02
4.48000000E+08	 9.63606739E-01	-1.09964142E+02
4.49000000E+08	 9.63375555E-01	-1.10090620E+02
4.50000000E+08	 9.63390251E-01	-1.10217525E+02
4.51000000E+08	 9.63225223E-01	-1.10345391E+02
4.52000000E+08	 9.62965340E-01	-1.10473191E+02
4.53000000E+08	 9.62850319E-01	-1.10605109E+02
4.54000000E+08	 9.62722483E-01	-1.10733704E+02
4.55000000E+08	 9.62571476E-01	-1.10873529E+02
4.56000000E+08	 9.62450404E-01	-1.10992704E+02
4.57000000E+08	 9.62278508E-01	-1.11124711E+02
4.58000000E+08	 9.62117139E-01	-1.11246362E+02
4.59000000E+08	 9.62027303E-01	-1.11381988E+02
4.60000000E+08	 9.61851014E-01	-1.11510510E+02
4.61000000E+08	 9.61658181E-01	-1.11631094E+02
4.62000000E+08	 9.61611294E-01	-1.11767963E+02
4.63000000E+08	 9.61397660E-01	-1.11898234E+02
4.64000000E+08	 9.61147322E-01	-1.12026763E+02
4.65000000E+08	 9.61128804E-01	-1.12149197E+02
4.66000000E+08	 9.60767847E-01	-1.12281451E+02
4.67000000E+08	 9.60630189E-01	-1.12413782E+02
4.68000000E+08	 9.60476433E-01	-1.12539165E+02
4.69000000E+08	 9.60286493E-01	-1.12666915E+02
4.70000000E+08	 9.60205606E-01	-1.12798626E+02
4.71000000E+08	 9.60037785E-01	-1.12920507E+02
4.72000000E+08	 9.59780022E-01	-1.13062575E+02
4.73000000E+08	 9.59497257E-01	-1.13184102E+02
4.74000000E+08	 9.59298861E-01	-1.13309856E+02
4.75000000E+08	 9.59110274E-01	-1.13435231E+02
4.76000000E+08	 9.58946787E-01	-1.13563198E+02
4.77000000E+08	 9.58744129E-01	-1.13703501E+02
4.78000000E+08	 9.58661050E-01	-1.13821904E+02
4.79000000E+08	 9.58295345E-01	-1.13953780E+02
4.80000000E+08	 9.58264465E-01	-1.14090749E+02
4.81000000E+08	 9.58010130E-01	-1.14212402E+02
4.82000000E+08	 9.57826672E-01	-1.14340485E+02
4.83000000E+08	 9.57708188E-01	-1.14471888E+02
4.84000000E+08	 9.57446137E-01	-1.14604386E+02
4.85000000E+08	 9.57256146E-01	-1.14735010E+02
4.86000000E+08	 9.57146155E-01	-1.14868896E+02
4.87000000E+08	 9.56900863E-01	-1.14999578E+02
4.88000000E+08	 9.56746848E-01	-1.15132054E+02
4.89000000E+08	 9.56591612E-01	-1.15251886E+02
4.90000000E+08	 9.56406895E-01	-1.15391314E+02
4.91000000E+08	 9.56148125E-01	-1.15529557E+02
4.92000000E+08	 9.55956500E-01	-1.15651058E+02
4.93000000E+08	 9.55833532E-01	-1.15782652E+02
4.94000000E+08	 9.55576783E-01	-1.15913845E+02
4.95000000E+08	 9.55496427E-01	-1.16047201E+02
4.96000000E+08	 9.55277515E-01	-1.16183716E+02
4.97000000E+08	 9.55003177E-01	-1.16314443E+02
4.98000000E+08	 9.54869933E-01	-1.16443347E+02
4.99000000E+08	 9.54679567E-01	-1.16582670E+02
5.00000000E+08	 9.54596916E-01	-1.16710598E+02
5.01000000E+08	 9.54203697E-01	-1.16844837E+02
5.02000000E+08	 9.54065873E-01	-1.16980399E+02
5.03000000E+08	 9.53781398E-01	-1.17104893E+02
5.04000000E+08	 9.53839210E-01	-1.17245051E+02
5.05000000E+08	 9.53483271E-01	-1.17380630E+02
5.06000000E+08	 9.53458007E-01	-1.17516909E+02
5.07000000E+08	 9.53296675E-01	-1.17653945E+02
5.08000000E+08	 9.53164206E-01	-1.17784962E+02
5.09000000E+08	 9.52896736E-01	-1.17925151E+02
5.10000000E+08	 9.52727623E-01	-1.18056613E+02
5.11000000E+08	 9.52571658E-01	-1.18188089E+02
5.12000000E+08	 9.52396983E-01	-1.18324472E+02
5.13000000E+08	 9.52396989E-01	-1.18453253E+02
5.14000000E+08	 9.52109145E-01	-1.18591489E+02
5.15000000E+08	 9.52040180E-01	-1.18730887E+02
5.16000000E+08	 9.51821044E-01	-1.18859400E+02
5.17000000E+08	 9.51709822E-01	-1.19004994E+02
5.18000000E+08	 9.51592013E-01	-1.19137588E+02
5.19000000E+08	 9.51407084E-01	-1.19273660E+02
5.20000000E+08	 9.51402125E-01	-1.19401351E+02
5.21000000E+08	 9.51223155E-01	-1.19534098E+02
5.22000000E+08	 9.50994802E-01	-1.19674617E+02
5.23000000E+08	 9.50845743E-01	-1.19810388E+02
5.24000000E+08	 9.50836634E-01	-1.19943043E+02
5.25000000E+08	 9.50541205E-01	-1.20084926E+02
5.26000000E+08	 9.50515672E-01	-1.20222442E+02
5.27000000E+08	 9.50402090E-01	-1.20362259E+02
5.28000000E+08	 9.50264832E-01	-1.20498106E+02
5.29000000E+08	 9.50124843E-01	-1.20633256E+02
5.30000000E+08	 9.49950176E-01	-1.20771577E+02
5.31000000E+08	 9.49898221E-01	-1.20904683E+02
5.32000000E+08	 9.49737770E-01	-1.21043820E+02
5.33000000E+08	 9.49667992E-01	-1.21178281E+02
5.34000000E+08	 9.49527637E-01	-1.21318326E+02
5.35000000E+08	 9.49436774E-01	-1.21454087E+02
5.36000000E+08	 9.49344199E-01	-1.21597732E+02
5.37000000E+08	 9.49319776E-01	-1.21725706E+02
5.38000000E+08	 9.49147276E-01	-1.21861204E+02
5.39000000E+08	 9.49049645E-01	-1.21999278E+02
5.40000000E+08	 9.48891427E-01	-1.22145010E+02
5.41000000E+08	 9.48840764E-01	-1.22281669E+02
5.42000000E+08	 9.48852524E-01	-1.22418391E+02
5.43000000E+08	 9.48605357E-01	-1.22552994E+02
5.44000000E+08	 9.48605334E-01	-1.22699053E+02
5.45000000E+08	 9.48465895E-01	-1.22840437E+02
5.46000000E+08	 9.48394457E-01	-1.22976879E+02
5.47000000E+08	 9.48452665E-01	-1.23118956E+02
5.48000000E+08	 9.48282431E-01	-1.23251560E+02
5.49000000E+08	 9.48128180E-01	-1.23393753E+02
5.50000000E+08	 9.48184675E-01	-1.23531183E+02
5.51000000E+08	 9.47972925E-01	-1.23670288E+02
5.52000000E+08	 9.47934893E-01	-1.23805609E+02
5.53000000E+08	 9.47786635E-01	-1.23966218E+02
5.54000000E+08	 9.47756125E-01	-1.24093284E+02
5.55000000E+08	 9.47738954E-01	-1.24231176E+02
5.56000000E+08	 9.47624346E-01	-1.24373657E+02
5.57000000E+08	 9.47653991E-01	-1.24511838E+02
5.58000000E+08	 9.47358624E-01	-1.24643099E+02
5.59000000E+08	 9.47440612E-01	-1.24787278E+02
5.60000000E+08	 9.47426720E-01	-1.24935532E+02
5.61000000E+08	 9.47375854E-01	-1.25077319E+02
5.62000000E+08	 9.47347154E-01	-1.25220771E+02
5.63000000E+08	 9.47272787E-01	-1.25350436E+02
5.64000000E+08	 9.47272803E-01	-1.25497984E+02
5.65000000E+08	 9.47217431E-01	-1.25637045E+02
5.66000000E+08	 9.47174069E-01	-1.25781345E+02
5.67000000E+08	 9.47154951E-01	-1.25920579E+02
5.68000000E+08	 9.47121905E-01	-1.26060299E+02
5.69000000E+08	 9.47258516E-01	-1.26203028E+02
5.70000000E+08	 9.47050582E-01	-1.26349289E+02
5.71000000E+08	 9.47120022E-01	-1.26487195E+02
5.72000000E+08	 9.47075610E-01	-1.26632279E+02
5.73000000E+08	 9.47044889E-01	-1.26775669E+02
5.74000000E+08	 9.46968387E-01	-1.26907082E+02
5.75000000E+08	 9.46915266E-01	-1.27056922E+02
5.76000000E+08	 9.47045569E-01	-1.27202740E+02
5.77000000E+08	 9.47005658E-01	-1.27344705E+02
5.78000000E+08	 9.46897762E-01	-1.27483310E+02
5.79000000E+08	 9.46867189E-01	-1.27624343E+02
5.80000000E+08	 9.46815125E-01	-1.27771444E+02
5.81000000E+08	 9.46739297E-01	-1.27916208E+02
5.82000000E+08	 9.46699134E-01	-1.28051568E+02
5.83000000E+08	 9.46598133E-01	-1.28198814E+02
5.84000000E+08	 9.46507491E-01	-1.28339601E+02
5.85000000E+08	 9.46461927E-01	-1.28487716E+02
5.86000000E+08	 9.46500375E-01	-1.28630897E+02
5.87000000E+08	 9.46428476E-01	-1.28775939E+02
5.88000000E+08	 9.46217155E-01	-1.28921972E+02
5.89000000E+08	 9.46173853E-01	-1.29066385E+02
5.90000000E+08	 9.46105135E-01	-1.29219355E+02
5.91000000E+08	 9.46012772E-01	-1.29359034E+02
5.92000000E+08	 9.45933312E-01	-1.29507046E+02
5.93000000E+08	 9.45852853E-01	-1.29650405E+02
5.94000000E+08	 9.45667034E-01	-1.29794534E+02
5.95000000E+08	 9.45569712E-01	-1.29941197E+02
5.96000000E+08	 9.45305771E-01	-1.30093835E+02
5.97000000E+08	 9.45384898E-01	-1.30239413E+02
5.98000000E+08	 9.45251494E-01	-1.30388112E+02
5.99000000E+08	 9.45028026E-01	-1.30532472E+02
6.00000000E+08	 9.44870072E-01	-1.30685840E+02
6.01000000E+08	 9.44787605E-01	-1.30838137E+02
6.02000000E+08	 9.44569756E-01	-1.30983112E+02
6.03000000E+08	 9.44362735E-01	-1.31134922E+02
6.04000000E+08	 9.44114456E-01	-1.31289144E+02
6.05000000E+08	 9.44072473E-01	-1.31437911E+02
6.06000000E+08	 9.43681343E-01	-1.31585246E+02
6.07000000E+08	 9.43437529E-01	-1.31737556E+02
6.08000000E+08	 9.43101969E-01	-1.31892027E+02
6.09000000E+08	 9.42915487E-01	-1.32048523E+02
6.10000000E+08	 9.42585960E-01	-1.32197189E+02
6.11000000E+08	 9.42217286E-01	-1.32355423E+02
6.12000000E+08	 9.41883063E-01	-1.32511841E+02
6.13000000E+08	 9.41542202E-01	-1.32670808E+02
6.14000000E+08	 9.41214040E-01	-1.32827293E+02
6.15000000E+08	 9.40860277E-01	-1.32984322E+02
6.16000000E+08	 9.40539687E-01	-1.33135255E+02
6.17000000E+08	 9.40135663E-01	-1.33290741E+02
6.18000000E+08	 9.39717547E-01	-1.33449298E+02
6.19000000E+08	 9.39270241E-01	-1.33605361E+02
6.20000000E+08	 9.38766262E-01	-1.33767181E+02
6.21000000E+08	 9.38226715E-01	-1.33923051E+02
6.22000000E+08	 9.37630936E-01	-1.34082885E+02
6.23000000E+08	 9.37114870E-01	-1.34243989E+02
6.24000000E+08	 9.36406737E-01	-1.34405857E+02
6.25000000E+08	 9.35777795E-01	-1.34561580E+02
6.26000000E+08	 9.35203730E-01	-1.34720080E+02
6.27000000E+08	 9.34602989E-01	-1.34881316E+02
6.28000000E+08	 9.33894698E-01	-1.35039745E+02
6.29000000E+08	 9.33287885E-01	-1.35214185E+02
6.30000000E+08	 9.32548404E-01	-1.35375736E+02
6.31000000E+08	 9.31844506E-01	-1.35539082E+02
6.32000000E+08	 9.30942021E-01	-1.35709407E+02
6.33000000E+08	 9.30197755E-01	-1.35875832E+02
6.34000000E+08	 9.29419187E-01	-1.36040051E+02
6.35000000E+08	 9.28484971E-01	-1.36205173E+02
6.36000000E+08	 9.27518768E-01	-1.36390752E+02
6.37000000E+08	 9.26518090E-01	-1.36557086E+02
6.38000000E+08	 9.25375408E-01	-1.36733251E+02
6.39000000E+08	 9.24392066E-01	-1.36908837E+02
6.40000000E+08	 9.23149958E-01	-1.37089600E+02
6.41000000E+08	 9.21883819E-01	-1.37259968E+02
6.42000000E+08	 9.20567379E-01	-1.37433799E+02
6.43000000E+08	 9.19312346E-01	-1.37617875E+02
6.44000000E+08	 9.18009031E-01	-1.37791077E+02
6.45000000E+08	 9.16478379E-01	-1.37975739E+02
6.46000000E+08	 9.15046581E-01	-1.38157125E+02
6.47000000E+08	 9.13494908E-01	-1.38339352E+02
6.48000000E+08	 9.11895379E-01	-1.38533103E+02
6.49000000E+08	 9.10121673E-01	-1.38724462E+02
6.50000000E+08	 9.08441529E-01	-1.38916035E+02
6.51000000E+08	 9.06629824E-01	-1.39110340E+02
6.52000000E+08	 9.04637304E-01	-1.39302500E+02
6.53000000E+08	 9.02610398E-01	-1.39498917E+02
6.54000000E+08	 9.00499728E-01	-1.39719241E+02
6.55000000E+08	 8.98312368E-01	-1.39917954E+02
6.56000000E+08	 8.95969129E-01	-1.40128554E+02
6.57000000E+08	 8.93527169E-01	-1.40346280E+02
6.58000000E+08	 8.90808058E-01	-1.40557448E+02
6.59000000E+08	 8.87985563E-01	-1.40784188E+02
6.60000000E+08	 8.84968908E-01	-1.41010442E+02
6.61000000E+08	 8.81746225E-01	-1.41235436E+02
6.62000000E+08	 8.78435990E-01	-1.41461597E+02
6.63000000E+08	 8.74727515E-01	-1.41683651E+02
6.64000000E+08	 8.70943593E-01	-1.41905381E+02
6.65000000E+08	 8.66871986E-01	-1.42130008E+02
6.66000000E+08	 8.62453350E-01	-1.42349332E+02
6.67000000E+08	 8.57846302E-01	-1.42563942E+02
6.68000000E+08	 8.53077769E-01	-1.42768598E+02
6.69000000E+08	 8.48192084E-01	-1.42975610E+02
6.70000000E+08	 8.43002988E-01	-1.43176526E+02
6.71000000E+08	 8.37578142E-01	-1.43374084E+02
6.72000000E+08	 8.31776721E-01	-1.43576905E+02
6.73000000E+08	 8.25745334E-01	-1.43765780E+02
6.74000000E+08	 8.19340922E-01	-1.43944535E+02
6.75000000E+08	 8.12504440E-01	-1.44111691E+02
6.76000000E+08	 8.05294609E-01	-1.44265165E+02
6.77000000E+08	 7.97733765E-01	-1.44395237E+02
6.78000000E+08	 7.89935226E-01	-1.44503677E+02
6.79000000E+08	 7.81631511E-01	-1.44580570E+02
6.80000000E+08	 7.73038186E-01	-1.44640981E+02
6.81000000E+08	 7.64086187E-01	-1.44647210E+02
6.82000000E+08	 7.54889035E-01	-1.44624410E+02
6.83000000E+08	 7.45271722E-01	-1.44549290E+02
6.84000000E+08	 7.35599542E-01	-1.44414182E+02
6.85000000E+08	 7.25650109E-01	-1.44205989E+02
6.86000000E+08	 7.15548338E-01	-1.43938411E+02
6.87000000E+08	 7.05782084E-01	-1.43585385E+02
6.88000000E+08	 6.96252104E-01	-1.43159340E+02
6.89000000E+08	 6.86872244E-01	-1.42654863E+02
6.90000000E+08	 6.77895380E-01	-1.42083277E+02
6.91000000E+08	 6.69309475E-01	-1.41416015E+02
6.92000000E+08	 6.61296848E-01	-1.40664654E+02
6.93000000E+08	 6.53918198E-01	-1.39822775E+02
6.94000000E+08	 6.47637499E-01	-1.38906693E+02
6.95000000E+08	 6.42220808E-01	-1.37922262E+02
6.96000000E+08	 6.37909139E-01	-1.36883965E+02
6.97000000E+08	 6.34778803E-01	-1.35813897E+02
6.98000000E+08	 6.32692469E-01	-1.34702891E+02
6.99000000E+08	 6.31865688E-01	-1.33575114E+02
7.00000000E+08	 6.32184638E-01	-1.32440130E+02
7.01000000E+08	 6.33831369E-01	-1.31307575E+02
7.02000000E+08	 6.36729925E-01	-1.30201098E+02
7.03000000E+08	 6.40922925E-01	-1.29143107E+02
7.04000000E+08	 6.46289602E-01	-1.28151723E+02
7.05000000E+08	 6.52660754E-01	-1.27240825E+02
7.06000000E+08	 6.59729572E-01	-1.26412180E+02
7.07000000E+08	 6.67631509E-01	-1.25668406E+02
7.08000000E+08	 6.75984010E-01	-1.25007423E+02
7.09000000E+08	 6.84571499E-01	-1.24440682E+02
7.10000000E+08	 6.93540696E-01	-1.23953932E+02
7.11000000E+08	 7.02666609E-01	-1.23527480E+02
7.12000000E+08	 7.11906115E-01	-1.23186942E+02
7.13000000E+08	 7.21086613E-01	-1.22891543E+02
7.14000000E+08	 7.30436188E-01	-1.22662371E+02
7.15000000E+08	 7.39538267E-01	-1.22483689E+02
7.16000000E+08	 7.48722460E-01	-1.22359161E+02
7.17000000E+08	 7.57416825E-01	-1.22293888E+02
7.18000000E+08	 7.66128207E-01	-1.22268349E+02
7.19000000E+08	 7.74478785E-01	-1.22266599E+02
7.20000000E+08	 7.82522940E-01	-1.22315393E+02
7.21000000E+08	 7.90285890E-01	-1.22379088E+02
7.22000000E+08	 7.97717392E-01	-1.22468011E+02
7.23000000E+08	 8.04879386E-01	-1.22589622E+02
7.24000000E+08	 8.11842126E-01	-1.22722329E+02
7.25000000E+08	 8.18297564E-01	-1.22882448E+02
7.26000000E+08	 8.24431677E-01	-1.23047576E+02
7.27000000E+08	 8.30275557E-01	-1.23231389E+02
7.28000000E+08	 8.35788166E-01	-1.23419671E+02
7.29000000E+08	 8.40929858E-01	-1.23604260E+02
7.30000000E+08	 8.45966252E-01	-1.23802283E+02
7.31000000E+08	 8.50385375E-01	-1.24002887E+02
7.32000000E+08	 8.54810796E-01	-1.24207952E+02
7.33000000E+08	 8.58673366E-01	-1.24403114E+02
7.34000000E+08	 8.62578680E-01	-1.24616186E+02
7.35000000E+08	 8.66187774E-01	-1.24820017E+02
7.36000000E+08	 8.69494176E-01	-1.25017637E+02
7.37000000E+08	 8.72749917E-01	-1.25222095E+02
7.38000000E+08	 8.75797887E-01	-1.25408700E+02
7.39000000E+08	 8.78665651E-01	-1.25602014E+02
7.40000000E+08	 8.81569511E-01	-1.25789695E+02
7.41000000E+08	 8.84157826E-01	-1.25978691E+02
7.42000000E+08	 8.86734247E-01	-1.26177008E+02
7.43000000E+08	 8.89101795E-01	-1.26363994E+02
7.44000000E+08	 8.91397035E-01	-1.26559083E+02
7.45000000E+08	 8.93522522E-01	-1.26739739E+02
7.46000000E+08	 8.95518654E-01	-1.26932360E+02
7.47000000E+08	 8.97388853E-01	-1.27118139E+02
7.48000000E+08	 8.99092751E-01	-1.27302099E+02
7.49000000E+08	 9.00817558E-01	-1.27475116E+02
7.50000000E+08	 9.02313478E-01	-1.27658090E+02
7.51000000E+08	 9.03587889E-01	-1.27833919E+02
7.52000000E+08	 9.05001489E-01	-1.28001991E+02
7.53000000E+08	 9.06122751E-01	-1.28167504E+02
7.54000000E+08	 9.07337675E-01	-1.28331159E+02
7.55000000E+08	 9.08499494E-01	-1.28485349E+02
7.56000000E+08	 9.09524319E-01	-1.28647864E+02
7.57000000E+08	 9.10655973E-01	-1.28801076E+02
7.58000000E+08	 9.11532441E-01	-1.28958824E+02
7.59000000E+08	 9.12557865E-01	-1.29116629E+02
7.60000000E+08	 9.13229874E-01	-1.29268545E+02
7.61000000E+08	 9.14250530E-01	-1.29416907E+02
7.62000000E+08	 9.14987166E-01	-1.29559906E+02
7.63000000E+08	 9.15596476E-01	-1.29710071E+02
7.64000000E+08	 9.16281225E-01	-1.29861100E+02
7.65000000E+08	 9.16904062E-01	-1.30002082E+02
7.66000000E+08	 9.17575585E-01	-1.30134479E+02
7.67000000E+08	 9.18172743E-01	-1.30282525E+02
7.68000000E+08	 9.18602028E-01	-1.30419764E+02
7.69000000E+08	 9.19133370E-01	-1.30563570E+02
7.70000000E+08	 9.19594267E-01	-1.30699816E+02
7.71000000E+08	 9.20054787E-01	-1.30842805E+02
7.72000000E+08	 9.20480431E-01	-1.30977824E+02
7.73000000E+08	 9.20705935E-01	-1.31108732E+02
7.74000000E+08	 9.20921564E-01	-1.31246580E+02
7.75000000E+08	 9.21102332E-01	-1.31386078E+02
7.76000000E+08	 9.21273405E-01	-1.31515151E+02
7.77000000E+08	 9.21338025E-01	-1.31646339E+02
7.78000000E+08	 9.21499820E-01	-1.31776512E+02
7.79000000E+08	 9.21618838E-01	-1.31892624E+02
7.80000000E+08	 9.21622735E-01	-1.32020875E+02
7.81000000E+08	 9.21630167E-01	-1.32144292E+02
7.82000000E+08	 9.21604330E-01	-1.32269597E+02
7.83000000E+08	 9.21578369E-01	-1.32386127E+02
7.84000000E+08	 9.21454415E-01	-1.32503112E+02
7.85000000E+08	 9.21346555E-01	-1.32627906E+02
7.86000000E+08	 9.21276857E-01	-1.32740474E+02
7.87000000E+08	 9.21089107E-01	-1.32851573E+02
7.88000000E+08	 9.20920759E-01	-1.32959337E+02
7.89000000E+08	 9.20698014E-01	-1.33066461E+02
7.90000000E+08	 9.20586583E-01	-1.33179760E+02
7.91000000E+08	 9.20172722E-01	-1.33274454E+02
7.92000000E+08	 9.20047285E-01	-1.33382027E+02
7.93000000E+08	 9.19770409E-01	-1.33481347E+02
7.94000000E+08	 9.19514906E-01	-1.33574029E+02
7.95000000E+08	 9.19365408E-01	-1.33672066E+02
7.96000000E+08	 9.19049842E-01	-1.33764143E+02
7.97000000E+08	 9.18862573E-01	-1.33865267E+02
7.98000000E+08	 9.18618903E-01	-1.33954181E+02
7.99000000E+08	 9.18366560E-01	-1.34035313E+02
8.00000000E+08	 9.17994242E-01	-1.34123394E+02
8.01000000E+08	 9.17831727E-01	-1.34202565E+02
8.02000000E+08	 9.17594009E-01	-1.34285350E+02
8.03000000E+08	 9.17338425E-01	-1.34361259E+02
8.04000000E+08	 9.17183051E-01	-1.34431158E+02
8.05000000E+08	 9.17067346E-01	-1.34504041E+02
8.06000000E+08	 9.16964847E-01	-1.34578510E+02
8.07000000E+08	 9.16944632E-01	-1.34647441E+02
8.08000000E+08	 9.16921982E-01	-1.34719582E+02
8.09000000E+08	 9.16915251E-01	-1.34795883E+02
8.10000000E+08	 9.17047767E-01	-1.34866856E+02
8.11000000E+08	 9.17169243E-01	-1.34942395E+02
8.12000000E+08	 9.17306557E-01	-1.35019065E+02
8.13000000E+08	 9.17391326E-01	-1.35097167E+02
8.14000000E+08	 9.17463394E-01	-1.35176304E+02
8.15000000E+08	 9.17779203E-01	-1.35254680E+02
8.16000000E+08	 9.17815026E-01	-1.35339988E+02
8.17000000E+08	 9.18072717E-01	-1.35421868E+02
8.18000000E+08	 9.18248842E-01	-1.35512417E+02
8.19000000E+08	 9.18358678E-01	-1.35606932E+02
8.20000000E+08	 9.18583847E-01	-1.35691757E+02
8.21000000E+08	 9.18625743E-01	-1.35783127E+02
8.22000000E+08	 9.18757943E-01	-1.35863938E+02
8.23000000E+08	 9.18939441E-01	-1.35957918E+02
8.24000000E+08	 9.19065290E-01	-1.36047451E+02
8.25000000E+08	 9.19270230E-01	-1.36133020E+02
8.26000000E+08	 9.19513557E-01	-1.36227597E+02
8.27000000E+08	 9.19670858E-01	-1.36321837E+02
8.28000000E+08	 9.19850452E-01	-1.36413833E+02
8.29000000E+08	 9.19997270E-01	-1.36517492E+02
8.30000000E+08	 9.20121774E-01	-1.36614588E+02
8.31000000E+08	 9.20218218E-01	-1.36707587E+02
8.32000000E+08	 9.20380218E-01	-1.36812871E+02
8.33000000E+08	 9.20465526E-01	-1.36906987E+02
8.34000000E+08	 9.20435159E-01	-1.37010296E+02
8.35000000E+08	 9.20616836E-01	-1.37106318E+02
8.36000000E+08	 9.20666480E-01	-1.37218186E+02
8.37000000E+08	 9.20669891E-01	-1.37310258E+02
8.38000000E+08	 9.20722717E-01	-1.37414868E+02
8.39000000E+08	 9.20731700E-01	-1.37520196E+02
8.40000000E+08	 9.20653367E-01	-1.37628312E+02
8.41000000E+08	 9.20850615E-01	-1.37733529E+02
8.42000000E+08	 9.20920501E-01	-1.37832664E+02
8.43000000E+08	 9.20834910E-01	-1.37940233E+02
8.44000000E+08	 9.20857724E-01	-1.38046651E+02
8.45000000E+08	 9.20765393E-01	-1.38154740E+02
8.46000000E+08	 9.20747593E-01	-1.38255829E+02
8.47000000E+08	 9.20559852E-01	-1.38359899E+02
8.48000000E+08	 9.20488632E-01	-1.38463591E+02
8.49000000E+08	 9.20324909E-01	-1.38574337E+02
8.50000000E+08	 9.20329023E-01	-1.38681485E+02
8.51000000E+08	 9.20075079E-01	-1.38783399E+02
8.52000000E+08	 9.19922131E-01	-1.38884160E+02
8.53000000E+08	 9.19713853E-01	-1.38989677E+02
8.54000000E+08	 9.19507947E-01	-1.39097421E+02
8.55000000E+08	 9.19280631E-01	-1.39194260E+02
8.56000000E+08	 9.19003838E-01	-1.39300398E+02
8.57000000E+08	 9.18845105E-01	-1.39400216E+02
8.58000000E+08	 9.18567837E-01	-1.39504996E+02
8.59000000E+08	 9.18336437E-01	-1.39604551E+02
8.60000000E+08	 9.18088614E-01	-1.39699624E+02
8.61000000E+08	 9.17750644E-01	-1.39801062E+02
8.62000000E+08	 9.17388404E-01	-1.39894682E+02
8.63000000E+08	 9.17067038E-01	-1.39998647E+02
8.64000000E+08	 9.16751437E-01	-1.40093170E+02
8.65000000E+08	 9.16270945E-01	-1.40186479E+02
8.66000000E+08	 9.15800525E-01	-1.40286659E+02
8.67000000E+08	 9.15307319E-01	-1.40373348E+02
8.68000000E+08	 9.14800737E-01	-1.40467142E+02
8.69000000E+08	 9.14247855E-01	-1.40558126E+02
8.70000000E+08	 9.13795956E-01	-1.40637242E+02
8.71000000E+08	 9.13063108E-01	-1.40718301E+02
8.72000000E+08	 9.12746654E-01	-1.40796590E+02
8.73000000E+08	 9.12196730E-01	-1.40880098E+02
8.74000000E+08	 9.11522375E-01	-1.40950636E+02
8.75000000E+08	 9.11072095E-01	-1.41017538E+02
8.76000000E+08	 9.10627583E-01	-1.41089723E+02
8.77000000E+08	 9.09996289E-01	-1.41151310E+02
8.78000000E+08	 9.09552862E-01	-1.41214562E+02
8.79000000E+08	 9.08970398E-01	-1.41275016E+02
8.80000000E+08	 9.08626684E-01	-1.41328166E+02
8.81000000E+08	 9.08177207E-01	-1.41375674E+02
8.82000000E+08	 9.07761118E-01	-1.41426416E+02
8.83000000E+08	 9.07512651E-01	-1.41468838E+02
8.84000000E+08	 9.07286711E-01	-1.41512430E+02
8.85000000E+08	 9.07028741E-01	-1.41550220E+02
8.86000000E+08	 9.07059753E-01	-1.41586424E+02
8.87000000E+08	 9.07047596E-01	-1.41627039E+02
8.88000000E+08	 9.06958151E-01	-1.41673121E+02
8.89000000E+08	 9.06989240E-01	-1.41707378E+02
8.90000000E+08	 9.07201767E-01	-1.41742961E+02
8.91000000E+08	 9.07292017E-01	-1.41789806E+02
8.92000000E+08	 9.07711953E-01	-1.41838763E+02
8.93000000E+08	 9.07955575E-01	-1.41874591E+02
8.94000000E+08	 9.08202984E-01	-1.41922453E+02
8.95000000E+08	 9.08578576E-01	-1.41968048E+02
8.96000000E+08	 9.09243659E-01	-1.42021380E+02
8.97000000E+08	 9.09515071E-01	-1.42070916E+02
8.98000000E+08	 9.09908008E-01	-1.42135926E+02
8.99000000E+08	 9.10496897E-01	-1.42188260E+02
9.00000000E+08	 9.11035469E-01	-1.42248711E+02
9.01000000E+08	 9.11451608E-01	-1.42309515E+02
9.02000000E+08	 9.12103168E-01	-1.42366413E+02
9.03000000E+08	 9.12545683E-01	-1.42437095E+02
9.04000000E+08	 9.13121264E-01	-1.42508163E+02
9.05000000E+08	 9.13690137E-01	-1.42584542E+02
9.06000000E+08	 9.14132894E-01	-1.42652201E+02
9.07000000E+08	 9.14632031E-01	-1.42727289E+02
9.08000000E+08	 9.15241741E-01	-1.42808707E+02
9.09000000E+08	 9.15740544E-01	-1.42878898E+02
9.10000000E+08	 9.16018429E-01	-1.42970958E+02
9.11000000E+08	 9.16574951E-01	-1.43057623E+02
9.12000000E+08	 9.16934908E-01	-1.43132432E+02
9.13000000E+08	 9.17313358E-01	-1.43220664E+02
9.14000000E+08	 9.17691435E-01	-1.43296550E+02
9.15000000E+08	 9.18169256E-01	-1.43383134E+02
9.16000000E+08	 9.18628292E-01	-1.43474247E+02
9.17000000E+08	 9.18886232E-01	-1.43558005E+02
9.18000000E+08	 9.19230392E-01	-1.43643373E+02
9.19000000E+08	 9.19463171E-01	-1.43728912E+02
9.20000000E+08	 9.19766214E-01	-1.43806501E+02
9.21000000E+08	 9.20097399E-01	-1.43904157E+02
9.22000000E+08	 9.20400371E-01	-1.43982982E+02
9.23000000E+08	 9.20606153E-01	-1.44067047E+02
9.24000000E+08	 9.20965776E-01	-1.44145119E+02
9.25000000E+08	 9.21090531E-01	-1.44233925E+02
9.26000000E+08	 9.21363959E-01	-1.44318919E+02
9.27000000E+08	 9.21693551E-01	-1.44391133E+02
9.28000000E+08	 9.21966509E-01	-1.44479530E+02
9.29000000E+08	 9.22206672E-01	-1.44563118E+02
9.30000000E+08	 9.22576327E-01	-1.44639896E+02
9.31000000E+08	 9.22775067E-01	-1.44722839E+02
9.32000000E+08	 9.23034447E-01	-1.44809444E+02
9.33000000E+08	 9.23239119E-01	-1.44886051E+02
9.34000000E+08	 9.23422416E-01	-1.44976445E+02
9.35000000E+08	 9.23630936E-01	-1.45063602E+02
9.36000000E+08	 9.23809831E-01	-1.45144956E+02
9.37000000E+08	 9.24086466E-01	-1.45224388E+02
9.38000000E+08	 9.24331566E-01	-1.45308993E+02
9.39000000E+08	 9.24434190E-01	-1.45384581E+02
9.40000000E+08	 9.24611218E-01	-1.45472452E+02
9.41000000E+08	 9.24765504E-01	-1.45554143E+02
9.42000000E+08	 9.25018318E-01	-1.45638900E+02
9.43000000E+08	 9.25200562E-01	-1.45714987E+02
9.44000000E+08	 9.25387916E-01	-1.45795523E+02
9.45000000E+08	 9.25427830E-01	-1.45875860E+02
9.46000000E+08	 9.25553934E-01	-1.45955410E+02
9.47000000E+08	 9.25833764E-01	-1.46032375E+02
9.48000000E+08	 9.25999693E-01	-1.46119688E+02
9.49000000E+08	 9.26208455E-01	-1.46187959E+02
9.50000000E+08	 9.26305612E-01	-1.46276042E+02
9.51000000E+08	 9.26377888E-01	-1.46352357E+02
9.52000000E+08	 9.26549970E-01	-1.46436148E+02
9.53000000E+08	 9.26655171E-01	-1.46509953E+02
9.54000000E+08	 9.26823420E-01	-1.46583480E+02
9.55000000E+08	 9.26971456E-01	-1.46667510E+02
9.56000000E+08	 9.27093633E-01	-1.46744158E+02
9.57000000E+08	 9.27245767E-01	-1.46820563E+02
9.58000000E+08	 9.27407856E-01	-1.46905011E+02
9.59000000E+08	 9.27465411E-01	-1.46975700E+02
9.60000000E+08	 9.27590481E-01	-1.47055034E+02
9.61000000E+08	 9.27796027E-01	-1.47127933E+02
9.62000000E+08	 9.27964053E-01	-1.47206911E+02
9.63000000E+08	 9.28054982E-01	-1.47288627E+02
9.64000000E+08	 9.28189792E-01	-1.47367289E+02
9.65000000E+08	 9.28309649E-01	-1.47441636E+02
9.66000000E+08	 9.28496770E-01	-1.47522106E+02
9.67000000E+08	 9.28542606E-01	-1.47595704E+02
9.68000000E+08	 9.28634593E-01	-1.47675997E+02
9.69000000E+08	 9.28656240E-01	-1.47748811E+02
9.70000000E+08	 9.28731674E-01	-1.47822052E+02
9.71000000E+08	 9.28913014E-01	-1.47907044E+02
9.72000000E+08	 9.28903216E-01	-1.47978245E+02
9.73000000E+08	 9.28980618E-01	-1.48057553E+02
9.74000000E+08	 9.29185993E-01	-1.48132504E+02
9.75000000E+08	 9.29213546E-01	-1.48206649E+02
9.76000000E+08	 9.29240647E-01	-1.48284259E+02
9.77000000E+08	 9.29128313E-01	-1.48367483E+02
9.78000000E+08	 9.29308553E-01	-1.48436331E+02
9.79000000E+08	 9.29225320E-01	-1.48519765E+02
9.80000000E+08	 9.29313829E-01	-1.48594169E+02
9.81000000E+08	 9.29253176E-01	-1.48667550E+02
9.82000000E+08	 9.29398883E-01	-1.48743323E+02
9.83000000E+08	 9.29432305E-01	-1.48818296E+02
9.84000000E+08	 9.29287021E-01	-1.48891809E+02
9.85000000E+08	 9.29365781E-01	-1.48965690E+02
9.86000000E+08	 9.29350752E-01	-1.49044904E+02
9.87000000E+08	 9.29332724E-01	-1.49116342E+02
9.88000000E+08	 9.29363106E-01	-1.49192094E+02
9.89000000E+08	 9.29347152E-01	-1.49266322E+02
9.90000000E+08	 9.29398014E-01	-1.49340008E+02
9.91000000E+08	 9.29383500E-01	-1.49420862E+02
9.92000000E+08	 9.29303487E-01	-1.49488024E+02
9.93000000E+08	 9.29228598E-01	-1.49567554E+02
9.94000000E+08	 9.29263257E-01	-1.49642737E+02
9.95000000E+08	 9.29169502E-01	-1.49713677E+02
9.96000000E+08	 9.29218031E-01	-1.49786324E+02
9.97000000E+08	 9.29191630E-01	-1.49861788E+02
9.98000000E+08	 9.29184176E-01	-1.49931828E+02
9.99000000E+08	 9.29138914E-01	-1.50002535E+02
1.00000000E+09	 9.29087748E-01	-1.50080251E+02
1.00100000E+09	 9.29018245E-01	-1.50153920E+02
1.00200000E+09	 9.29000839E-01	-1.50227049E+02
1.00300000E+09	 9.28887224E-01	-1.50301290E+02
1.00400000E+09	 9.28923131E-01	-1.50374279E+02
1.00500000E+09	 9.28726424E-01	-1.50449605E+02
1.00600000E+09	 9.28687578E-01	-1.50518051E+02
1.00700000E+09	 9.28623418E-01	-1.50586725E+02
1.00800000E+09	 9.28526437E-01	-1.50659786E+02
1.00900000E+09	 9.28405130E-01	-1.50731733E+02
1.01000000E+09	 9.28394454E-01	-1.50810595E+02
1.01100000E+09	 9.28249021E-01	-1.50880905E+02
1.01200000E+09	 9.28098196E-01	-1.50954825E+02
1.01300000E+09	 9.28044812E-01	-1.51024219E+02
1.01400000E+09	 9.27969924E-01	-1.51092800E+02
1.01500000E+09	 9.27738898E-01	-1.51169066E+02
1.01600000E+09	 9.27618616E-01	-1.51241904E+02
1.01700000E+09	 9.27456061E-01	-1.51310528E+02
1.01800000E+09	 9.27325722E-01	-1.51388087E+02
1.01900000E+09	 9.27325529E-01	-1.51462463E+02
1.02000000E+09	 9.27129140E-01	-1.51536264E+02
1.02100000E+09	 9.26979593E-01	-1.51606278E+02
1.02200000E+09	 9.26756871E-01	-1.51677959E+02
1.02300000E+09	 9.26503042E-01	-1.51753551E+02
1.02400000E+09	 9.26493459E-01	-1.51824447E+02
1.02500000E+09	 9.26229669E-01	-1.51898010E+02
1.02600000E+09	 9.26008334E-01	-1.51967195E+02
1.02700000E+09	 9.25921190E-01	-1.52036188E+02
1.02800000E+09	 9.25753436E-01	-1.52113515E+02
1.02900000E+09	 9.25497649E-01	-1.52182143E+02
1.03000000E+09	 9.25323184E-01	-1.52260202E+02
1.03100000E+09	 9.25175736E-01	-1.52324406E+02
1.03200000E+09	 9.24945963E-01	-1.52407326E+02
1.03300000E+09	 9.24816918E-01	-1.52476706E+02
1.03400000E+09	 9.24536527E-01	-1.52550285E+02
1.03500000E+09	 9.24325640E-01	-1.52630159E+02
1.03600000E+09	 9.24073926E-01	-1.52703904E+02
1.03700000E+09	 9.23771016E-01	-1.52782216E+02
1.03800000E+09	 9.23525904E-01	-1.52852417E+02
1.03900000E+09	 9.23273539E-01	-1.52936908E+02
1.04000000E+09	 9.23037058E-01	-1.53014013E+02
1.04100000E+09	 9.22742584E-01	-1.53084484E+02
1.04200000E+09	 9.22408092E-01	-1.53159099E+02
1.04300000E+09	 9.22242510E-01	-1.53240770E+02
1.04400000E+09	 9.21882917E-01	-1.53315846E+02
1.04500000E+09	 9.21598025E-01	-1.53389072E+02
1.04600000E+09	 9.21093117E-01	-1.53471565E+02
1.04700000E+09	 9.20919014E-01	-1.53556381E+02
1.04800000E+09	 9.20537300E-01	-1.53625730E+02
1.04900000E+09	 9.20203242E-01	-1.53709902E+02
1.05000000E+09	 9.19824951E-01	-1.53785472E+02
1.05100000E+09	 9.19580644E-01	-1.53862742E+02
1.05200000E+09	 9.19237088E-01	-1.53950183E+02
1.05300000E+09	 9.18850667E-01	-1.54027212E+02
1.05400000E+09	 9.18384502E-01	-1.54102287E+02
1.05500000E+09	 9.18039366E-01	-1.54181543E+02
1.05600000E+09	 9.17617908E-01	-1.54268452E+02
1.05700000E+09	 9.17172549E-01	-1.54346114E+02
1.05800000E+09	 9.16728168E-01	-1.54435301E+02
1.05900000E+09	 9.16394200E-01	-1.54511632E+02
1.06000000E+09	 9.15834982E-01	-1.54594693E+02
1.06100000E+09	 9.15455580E-01	-1.54683438E+02
1.06200000E+09	 9.15028384E-01	-1.54766038E+02
1.06300000E+09	 9.14406244E-01	-1.54857103E+02
1.06400000E+09	 9.13988399E-01	-1.54933102E+02
1.06500000E+09	 9.13468854E-01	-1.55020004E+02
1.06600000E+09	 9.12976047E-01	-1.55107144E+02
1.06700000E+09	 9.12491829E-01	-1.55179082E+02
1.06800000E+09	 9.11947312E-01	-1.55276448E+02
1.06900000E+09	 9.11424578E-01	-1.55365039E+02
1.07000000E+09	 9.10930712E-01	-1.55442037E+02
1.07100000E+09	 9.10187889E-01	-1.55527147E+02
1.07200000E+09	 9.09720726E-01	-1.55611536E+02
1.07300000E+09	 9.09160368E-01	-1.55703450E+02
1.07400000E+09	 9.08656196E-01	-1.55790075E+02
1.07500000E+09	 9.08079593E-01	-1.55880673E+02
1.07600000E+09	 9.07246674E-01	-1.55968622E+02
1.07700000E+09	 9.06672803E-01	-1.56053146E+02
1.07800000E+09	 9.06124551E-01	-1.56141264E+02
1.07900000E+09	 9.05406092E-01	-1.56235743E+02
1.08000000E+09	 9.04627919E-01	-1.56335101E+02
1.08100000E+09	 9.03965906E-01	-1.56424493E+02
1.08200000E+09	 9.03326818E-01	-1.56517413E+02
1.08300000E+09	 9.02414422E-01	-1.56616616E+02
1.08400000E+09	 9.01730850E-01	-1.56709401E+02
1.08500000E+09	 9.00881203E-01	-1.56802284E+02
1.08600000E+09	 8.99744051E-01	-1.56896356E+02
1.08700000E+09	 8.99160601E-01	-1.56986123E+02
1.08800000E+09	 8.98251866E-01	-1.57078656E+02
1.08900000E+09	 8.97245969E-01	-1.57184559E+02
1.09000000E+09	 8.96401776E-01	-1.57273917E+02
1.09100000E+09	 8.95426895E-01	-1.57372289E+02
1.09200000E+09	 8.94530356E-01	-1.57468742E+02
1.09300000E+09	 8.93556655E-01	-1.57567665E+02
1.09400000E+09	 8.92496727E-01	-1.57653941E+02
1.09500000E+09	 8.91559706E-01	-1.57747334E+02
1.09600000E+09	 8.90569794E-01	-1.57844670E+02
1.09700000E+09	 8.89463402E-01	-1.57949766E+02
1.09800000E+09	 8.88491071E-01	-1.58047580E+02
1.09900000E+09	 8.87311939E-01	-1.58147381E+02
1.10000000E+09	 8.86108331E-01	-1.58239652E+02
1.10100000E+09	 8.84940937E-01	-1.58348324E+02
1.10200000E+09	 8.83699852E-01	-1.58447389E+02
1.10300000E+09	 8.82538568E-01	-1.58544682E+02
1.10400000E+09	 8.81088854E-01	-1.58639505E+02
1.10500000E+09	 8.79841644E-01	-1.58737479E+02
1.10600000E+09	 8.78732243E-01	-1.58840777E+02
1.10700000E+09	 8.77009459E-01	-1.58938899E+02
1.10800000E+09	 8.75537281E-01	-1.59034484E+02
1.10900000E+09	 8.74163440E-01	-1.59128553E+02
1.11000000E+09	 8.72664575E-01	-1.59227827E+02
1.11100000E+09	 8.71202479E-01	-1.59312215E+02
1.11200000E+09	 8.69588260E-01	-1.59399362E+02
1.11300000E+09	 8.68074805E-01	-1.59498597E+02
1.11400000E+09	 8.66479528E-01	-1.59590355E+02
1.11500000E+09	 8.64791689E-01	-1.59670475E+02
1.11600000E+09	 8.63166389E-01	-1.59760356E+02
1.11700000E+09	 8.61396771E-01	-1.59848457E+02
1.11800000E+09	 8.59654461E-01	-1.59928796E+02
1.11900000E+09	 8.58011755E-01	-1.60015001E+02
1.12000000E+09	 8.56193166E-01	-1.60095347E+02
1.12100000E+09	 8.54407292E-01	-1.60174327E+02
1.12200000E+09	 8.52550474E-01	-1.60252075E+02
1.12300000E+09	 8.50719726E-01	-1.60324717E+02
1.12400000E+09	 8.48933747E-01	-1.60403959E+02
1.12500000E+09	 8.46926035E-01	-1.60465653E+02
1.12600000E+09	 8.44988232E-01	-1.60545243E+02
1.12700000E+09	 8.43094484E-01	-1.60606020E+02
1.12800000E+09	 8.41113356E-01	-1.60671919E+02
1.12900000E+09	 8.39085185E-01	-1.60729594E+02
1.13000000E+09	 8.37100261E-01	-1.60793384E+02
1.13100000E+09	 8.35155411E-01	-1.60843660E+02
1.13200000E+09	 8.33147880E-01	-1.60901779E+02
1.13300000E+09	 8.31046991E-01	-1.60951819E+02
1.13400000E+09	 8.29112510E-01	-1.60993503E+02
1.13500000E+09	 8.27076647E-01	-1.61038435E+02
1.13600000E+09	 8.25082982E-01	-1.61076747E+02
1.13700000E+09	 8.22953270E-01	-1.61113736E+02
1.13800000E+09	 8.21006124E-01	-1.61151512E+02
1.13900000E+09	 8.18950614E-01	-1.61184896E+02
1.14000000E+09	 8.16999462E-01	-1.61209946E+02
1.14100000E+09	 8.14973197E-01	-1.61238392E+02
1.14200000E+09	 8.13002546E-01	-1.61266093E+02
1.14300000E+09	 8.10980022E-01	-1.61284638E+02
1.14400000E+09	 8.09022125E-01	-1.61301986E+02
1.14500000E+09	 8.07019526E-01	-1.61314629E+02
1.14600000E+09	 8.05031624E-01	-1.61317013E+02
1.14700000E+09	 8.03204126E-01	-1.61325539E+02
1.14800000E+09	 8.01395751E-01	-1.61339876E+02
1.14900000E+09	 7.99550884E-01	-1.61343314E+02
1.15000000E+09	 7.97782578E-01	-1.61339749E+02
1.15100000E+09	 7.96021423E-01	-1.61342697E+02
1.15200000E+09	 7.94298463E-01	-1.61346890E+02
1.15300000E+09	 7.92630760E-01	-1.61347064E+02
1.15400000E+09	 7.91043253E-01	-1.61343469E+02
1.15500000E+09	 7.89333756E-01	-1.61343217E+02
1.15600000E+09	 7.87744474E-01	-1.61346297E+02
1.15700000E+09	 7.86074623E-01	-1.61357806E+02
1.15800000E+09	 7.84361349E-01	-1.61358769E+02
1.15900000E+09	 7.82667181E-01	-1.61367280E+02
1.16000000E+09	 7.80934061E-01	-1.61364160E+02
1.16100000E+09	 7.79239144E-01	-1.61373057E+02
1.16200000E+09	 7.77515799E-01	-1.61367697E+02
1.16300000E+09	 7.75621094E-01	-1.61367695E+02
1.16400000E+09	 7.73718836E-01	-1.61361924E+02
1.16500000E+09	 7.72020123E-01	-1.61342478E+02
1.16600000E+09	 7.70124862E-01	-1.61329328E+02
1.16700000E+09	 7.68210683E-01	-1.61309714E+02
1.16800000E+09	 7.66379640E-01	-1.61282377E+02
1.16900000E+09	 7.64566854E-01	-1.61263654E+02
1.17000000E+09	 7.62636963E-01	-1.61231472E+02
1.17100000E+09	 7.60854484E-01	-1.61191504E+02
1.17200000E+09	 7.58885854E-01	-1.61154965E+02
1.17300000E+09	 7.57090402E-01	-1.61111695E+02
1.17400000E+09	 7.55261344E-01	-1.61060248E+02
1.17500000E+09	 7.53501496E-01	-1.61012684E+02
1.17600000E+09	 7.51632862E-01	-1.60958571E+02
1.17700000E+09	 7.49779266E-01	-1.60893888E+02
1.17800000E+09	 7.47975612E-01	-1.60834906E+02
1.17900000E+09	 7.46154565E-01	-1.60742245E+02
1.18000000E+09	 7.44380988E-01	-1.60664702E+02
1.18100000E+09	 7.42589104E-01	-1.60571599E+02
1.18200000E+09	 7.40851453E-01	-1.60479007E+02
1.18300000E+09	 7.39150936E-01	-1.60370094E+02
1.18400000E+09	 7.37603922E-01	-1.60259416E+02
1.18500000E+09	 7.36010331E-01	-1.60147979E+02
1.18600000E+09	 7.34697013E-01	-1.60016382E+02
1.18700000E+09	 7.33328830E-01	-1.59885540E+02
1.18800000E+09	 7.32114461E-01	-1.59754966E+02
1.18900000E+09	 7.30905869E-01	-1.59633884E+02
1.19000000E+09	 7.29956612E-01	-1.59491614E+02
1.19100000E+09	 7.28842409E-01	-1.59354091E+02
1.19200000E+09	 7.28060063E-01	-1.59211942E+02
1.19300000E+09	 7.27211569E-01	-1.59072832E+02
1.19400000E+09	 7.26277633E-01	-1.58926814E+02
1.19500000E+09	 7.25749847E-01	-1.58775376E+02
1.19600000E+09	 7.25209495E-01	-1.58631153E+02
1.19700000E+09	 7.24766132E-01	-1.58475007E+02
1.19800000E+09	 7.24269435E-01	-1.58319490E+02
1.19900000E+09	 7.23921464E-01	-1.58167181E+02
1.20000000E+09	 7.23578599E-01	-1.58014043E+02
1.20100000E+09	 7.23554275E-01	-1.57858474E+02
1.20200000E+09	 7.23445834E-01	-1.57698766E+02
1.20300000E+09	 7.23521066E-01	-1.57542909E+02
1.20400000E+09	 7.23652010E-01	-1.57385420E+02
1.20500000E+09	 7.23843926E-01	-1.57233645E+02
1.20600000E+09	 7.24249928E-01	-1.57081277E+02
1.20700000E+09	 7.24499298E-01	-1.56919671E+02
1.20800000E+09	 7.25112358E-01	-1.56773887E+02
1.20900000E+09	 7.25677688E-01	-1.56613955E+02
1.21000000E+09	 7.26438753E-01	-1.56481533E+02
1.21100000E+09	 7.27138121E-01	-1.56330556E+02
1.21200000E+09	 7.27991008E-01	-1.56189464E+02
1.21300000E+09	 7.29044713E-01	-1.56055072E+02
1.21400000E+09	 7.29945067E-01	-1.55919609E+02
1.21500000E+09	 7.31125315E-01	-1.55801473E+02
1.21600000E+09	 7.32181759E-01	-1.55677012E+02
1.21700000E+09	 7.33358595E-01	-1.55558343E+02
1.21800000E+09	 7.34621053E-01	-1.55435058E+02
1.21900000E+09	 7.35981894E-01	-1.55328881E+02
1.22000000E+09	 7.37195699E-01	-1.55226028E+02
1.22100000E+09	 7.38708555E-01	-1.55125273E+02
1.22200000E+09	 7.39933420E-01	-1.55022395E+02
1.22300000E+09	 7.41527342E-01	-1.54930853E+02
1.22400000E+09	 7.43029252E-01	-1.54839995E+02
1.22500000E+09	 7.44619151E-01	-1.54762468E+02
1.22600000E+09	 7.46123448E-01	-1.54670702E+02
1.22700000E+09	 7.47761836E-01	-1.54597176E+02
1.22800000E+09	 7.49459839E-01	-1.54517820E+02
1.22900000E+09	 7.51195236E-01	-1.54451545E+02
1.23000000E+09	 7.52812571E-01	-1.54392030E+02
1.23100000E+09	 7.54651866E-01	-1.54322793E+02
1.23200000E+09	 7.56345075E-01	-1.54260991E+02
1.23300000E+09	 7.58194525E-01	-1.54207382E+02
1.23400000E+09	 7.60140187E-01	-1.54159101E+02
1.23500000E+09	 7.61982854E-01	-1.54110743E+02
1.23600000E+09	 7.63882266E-01	-1.54073631E+02
1.23700000E+09	 7.65731968E-01	-1.54039029E+02
1.23800000E+09	 7.67695998E-01	-1.54005822E+02
1.23900000E+09	 7.69575446E-01	-1.53983746E+02
1.24000000E+09	 7.71464703E-01	-1.53957840E+02
1.24100000E+09	 7.73552599E-01	-1.53932585E+02
1.24200000E+09	 7.75474413E-01	-1.53909605E+02
1.24300000E+09	 7.77545360E-01	-1.53904669E+02
1.24400000E+09	 7.79436071E-01	-1.53898387E+02
1.24500000E+09	 7.81390531E-01	-1.53893644E+02
1.24600000E+09	 7.83461048E-01	-1.53883337E+02
1.24700000E+09	 7.85372036E-01	-1.53900406E+02
1.24800000E+09	 7.87411232E-01	-1.53903203E+02
1.24900000E+09	 7.89314474E-01	-1.53910219E+02
1.25000000E+09	 7.91251295E-01	-1.53924895E+02
1.25100000E+09	 7.93162511E-01	-1.53948651E+02
1.25200000E+09	 7.95093967E-01	-1.53967329E+02
1.25300000E+09	 7.97078538E-01	-1.53995316E+02
1.25400000E+09	 7.98892211E-01	-1.54021153E+02
1.25500000E+09	 8.00783928E-01	-1.54055642E+02
1.25600000E+09	 8.02713901E-01	-1.54087381E+02
1.25700000E+09	 8.04483789E-01	-1.54125400E+02
1.25800000E+09	 8.06300260E-01	-1.54170636E+02
1.25900000E+09	 8.08103452E-01	-1.54208661E+02
1.26000000E+09	 8.09814150E-01	-1.54251744E+02
1.26100000E+09	 8.11512274E-01	-1.54300975E+02
1.26200000E+09	 8.13133295E-01	-1.54348860E+02
1.26300000E+09	 8.14871946E-01	-1.54410342E+02
1.26400000E+09	 8.16521956E-01	-1.54462765E+02
1.26500000E+09	 8.18145694E-01	-1.54516598E+02
1.26600000E+09	 8.19656987E-01	-1.54573402E+02
1.26700000E+09	 8.21184077E-01	-1.54636056E+02
1.26800000E+09	 8.22736631E-01	-1.54694257E+02
1.26900000E+09	 8.24285443E-01	-1.54753702E+02
1.27000000E+09	 8.25692661E-01	-1.54824083E+02
1.27100000E+09	 8.27094085E-01	-1.54886935E+02
1.27200000E+09	 8.28470626E-01	-1.54956687E+02
1.27300000E+09	 8.29948332E-01	-1.55020951E+02
1.27400000E+09	 8.31259661E-01	-1.55094468E+02
1.27500000E+09	 8.32566473E-01	-1.55153250E+02
1.27600000E+09	 8.33917456E-01	-1.55224989E+02
1.27700000E+09	 8.35115514E-01	-1.55294214E+02
1.27800000E+09	 8.36444506E-01	-1.55362304E+02
1.27900000E+09	 8.37610033E-01	-1.55435536E+02
1.28000000E+09	 8.38786094E-01	-1.55509203E+02
1.28100000E+09	 8.40049846E-01	-1.55572938E+02
1.28200000E+09	 8.41148577E-01	-1.55651147E+02
1.28300000E+09	 8.42276091E-01	-1.55725704E+02
1.28400000E+09	 8.43250083E-01	-1.55794015E+02
1.28500000E+09	 8.44397032E-01	-1.55872028E+02
1.28600000E+09	 8.45404558E-01	-1.55944321E+02
1.28700000E+09	 8.46408825E-01	-1.56021921E+02
1.28800000E+09	 8.47360122E-01	-1.56092272E+02
1.28900000E+09	 8.48362073E-01	-1.56163050E+02
1.29000000E+09	 8.49281536E-01	-1.56240237E+02
1.29100000E+09	 8.50014672E-01	-1.56319270E+02
1.29200000E+09	 8.50841228E-01	-1.56393081E+02
1.29300000E+09	 8.51699760E-01	-1.56465961E+02
1.29400000E+09	 8.52583305E-01	-1.56536094E+02
1.29500000E+09	 8.53167549E-01	-1.56602490E+02
1.29600000E+09	 8.53955626E-01	-1.56681373E+02
1.29700000E+09	 8.54849056E-01	-1.56747378E+02
1.29800000E+09	 8.55433387E-01	-1.56815054E+02
1.29900000E+09	 8.56277369E-01	-1.56880187E+02
1.30000000E+09	 8.56665707E-01	-1.56952660E+02
1.30100000E+09	 8.57470856E-01	-1.57019622E+02
1.30200000E+09	 8.58099914E-01	-1.57084319E+02
1.30300000E+09	 8.58760680E-01	-1.57147088E+02
1.30400000E+09	 8.59347831E-01	-1.57214961E+02
1.30500000E+09	 8.59942182E-01	-1.57275992E+02
1.30600000E+09	 8.60329880E-01	-1.57342909E+02
1.30700000E+09	 8.60884627E-01	-1.57404763E+02
1.30800000E+09	 8.61494501E-01	-1.57464574E+02
1.30900000E+09	 8.61905099E-01	-1.57528526E+02
1.31000000E+09	 8.62354682E-01	-1.57588628E+02
1.31100000E+09	 8.62856538E-01	-1.57653349E+02
1.31200000E+09	 8.63245622E-01	-1.57705649E+02
1.31300000E+09	 8.63767669E-01	-1.57764245E+02
1.31400000E+09	 8.63977371E-01	-1.57829543E+02
1.31500000E+09	 8.64479002E-01	-1.57881269E+02
1.31600000E+09	 8.64836767E-01	-1.57946725E+02
1.31700000E+09	 8.65055604E-01	-1.58000017E+02
1.31800000E+09	 8.65420872E-01	-1.58053934E+02
1.31900000E+09	 8.65794643E-01	-1.58108563E+02
1.32000000E+09	 8.66045989E-01	-1.58151693E+02
1.32100000E+09	 8.66330317E-01	-1.58211640E+02
1.32200000E+09	 8.66455178E-01	-1.58264954E+02
1.32300000E+09	 8.66872930E-01	-1.58310938E+02
1.32400000E+09	 8.67018784E-01	-1.58372094E+02
1.32500000E+09	 8.67324611E-01	-1.58402783E+02
1.32600000E+09	 8.67557529E-01	-1.58462057E+02
1.32700000E+09	 8.67761327E-01	-1.58498184E+02
1.32800000E+09	 8.67964714E-01	-1.58549908E+02
1.32900000E+09	 8.67997106E-01	-1.58596756E+02
1.33000000E+09	 8.68200563E-01	-1.58639704E+02
1.33100000E+09	 8.68355356E-01	-1.58676127E+02
1.33200000E+09	 8.68520655E-01	-1.58706576E+02
1.33300000E+09	 8.68473139E-01	-1.58756879E+02
1.33400000E+09	 8.68883088E-01	-1.58793547E+02
1.33500000E+09	 8.68939104E-01	-1.58828600E+02
1.33600000E+09	 8.69107966E-01	-1.58868804E+02
1.33700000E+09	 8.69065521E-01	-1.58901254E+02
1.33800000E+09	 8.69296560E-01	-1.58933276E+02
1.33900000E+09	 8.69460317E-01	-1.58968776E+02
1.34000000E+09	 8.69508572E-01	-1.58998219E+02
1.34100000E+09	 8.69662289E-01	-1.59027307E+02
1.34200000E+09	 8.69759757E-01	-1.59053860E+02
1.34300000E+09	 8.69829319E-01	-1.59079249E+02
1.34400000E+09	 8.69998488E-01	-1.59110040E+02
1.34500000E+09	 8.70191699E-01	-1.59139968E+02
1.34600000E+09	 8.70326902E-01	-1.59175657E+02
1.34700000E+09	 8.70480636E-01	-1.59198859E+02
1.34800000E+09	 8.70778401E-01	-1.59226312E+02
1.34900000E+09	 8.70771050E-01	-1.59247880E+02
1.35000000E+09	 8.71005668E-01	-1.59273513E+02
1.35100000E+09	 8.71183676E-01	-1.59302633E+02
1.35200000E+09	 8.71220798E-01	-1.59320058E+02
1.35300000E+09	 8.71329946E-01	-1.59351775E+02
1.35400000E+09	 8.71546870E-01	-1.59367450E+02
1.35500000E+09	 8.71747246E-01	-1.59392808E+02
1.35600000E+09	 8.72026140E-01	-1.59418998E+02
1.35700000E+09	 8.72141238E-01	-1.59434033E+02
1.35800000E+09	 8.72380352E-01	-1.59456516E+02
1.35900000E+09	 8.72552916E-01	-1.59480228E+02
1.36000000E+09	 8.73031641E-01	-1.59501815E+02
1.36100000E+09	 8.73087431E-01	-1.59522676E+02
1.36200000E+09	 8.73348236E-01	-1.59541811E+02
1.36300000E+09	 8.73551370E-01	-1.59565568E+02
1.36400000E+09	 8.73890523E-01	-1.59588340E+02
1.36500000E+09	 8.74109454E-01	-1.59606772E+02
1.36600000E+09	 8.74454873E-01	-1.59623391E+02
1.36700000E+09	 8.74759782E-01	-1.59650330E+02
1.36800000E+09	 8.75006860E-01	-1.59673863E+02
1.36900000E+09	 8.75374277E-01	-1.59702484E+02
1.37000000E+09	 8.75798174E-01	-1.59723404E+02
1.37100000E+09	 8.75937720E-01	-1.59752856E+02
1.37200000E+09	 8.76242530E-01	-1.59769906E+02
1.37300000E+09	 8.76657331E-01	-1.59797996E+02
1.37400000E+09	 8.76945953E-01	-1.59823751E+02
1.37500000E+09	 8.77282157E-01	-1.59853296E+02
1.37600000E+09	 8.77566794E-01	-1.59877072E+02
1.37700000E+09	 8.77961964E-01	-1.59915528E+02
1.37800000E+09	 8.78299348E-01	-1.59939911E+02
1.37900000E+09	 8.78639838E-01	-1.59972160E+02
1.38000000E+09	 8.79021836E-01	-1.60001250E+02
1.38100000E+09	 8.79350303E-01	-1.60039301E+02
1.38200000E+09	 8.79604137E-01	-1.60065616E+02
1.38300000E+09	 8.79954154E-01	-1.60101028E+02
1.38400000E+09	 8.80311323E-01	-1.60136678E+02
1.38500000E+09	 8.80591834E-01	-1.60167920E+02
1.38600000E+09	 8.80855531E-01	-1.60209021E+02
1.38700000E+09	 8.81183606E-01	-1.60241982E+02
1.38800000E+09	 8.81453471E-01	-1.60276748E+02
1.38900000E+09	 8.81741784E-01	-1.60312740E+02
1.39000000E+09	 8.82020538E-01	-1.60348292E+02
1.39100000E+09	 8.82303646E-01	-1.60386752E+02
1.39200000E+09	 8.82653256E-01	-1.60423040E+02
1.39300000E+09	 8.82991038E-01	-1.60464855E+02
1.39400000E+09	 8.83283404E-01	-1.60507649E+02
1.39500000E+09	 8.83547973E-01	-1.60544458E+02
1.39600000E+09	 8.83908914E-01	-1.60586471E+02
1.39700000E+09	 8.84126748E-01	-1.60626459E+02
1.39800000E+09	 8.84440392E-01	-1.60672237E+02
1.39900000E+09	 8.84780110E-01	-1.60708943E+02
1.40000000E+09	 8.85047328E-01	-1.60760600E+02
1.40100000E+09	 8.85295995E-01	-1.60802706E+02
1.40200000E+09	 8.85515319E-01	-1.60852925E+02
1.40300000E+09	 8.85918268E-01	-1.60902854E+02
1.40400000E+09	 8.86023262E-01	-1.60950405E+02
1.40500000E+09	 8.86325251E-01	-1.61001115E+02
1.40600000E+09	 8.86580890E-01	-1.61050150E+02
1.40700000E+09	 8.86909090E-01	-1.61098525E+02
1.40800000E+09	 8.87009743E-01	-1.61157323E+02
1.40900000E+09	 8.87327464E-01	-1.61208437E+02
1.41000000E+09	 8.87503793E-01	-1.61259097E+02
1.41100000E+09	 8.87629731E-01	-1.61311468E+02
1.41200000E+09	 8.87820379E-01	-1.61370017E+02
1.41300000E+09	 8.88139821E-01	-1.61417240E+02
1.41400000E+09	 8.88240669E-01	-1.61472748E+02
1.41500000E+09	 8.88431554E-01	-1.61528182E+02
1.41600000E+09	 8.88623456E-01	-1.61595675E+02
1.41700000E+09	 8.88708327E-01	-1.61653863E+02
1.41800000E+09	 8.88987248E-01	-1.61706697E+02
1.41900000E+09	 8.88964483E-01	-1.61769077E+02
1.42000000E+09	 8.89179603E-01	-1.61829474E+02
1.42100000E+09	 8.89259513E-01	-1.61890679E+02
1.42200000E+09	 8.89338383E-01	-1.61952345E+02
1.42300000E+09	 8.89511656E-01	-1.62016150E+02
1.42400000E+09	 8.89530561E-01	-1.62078770E+02
1.42500000E+09	 8.89658744E-01	-1.62142773E+02
1.42600000E+09	 8.89765375E-01	-1.62203967E+02
1.42700000E+09	 8.89700116E-01	-1.62275541E+02
1.42800000E+09	 8.89849868E-01	-1.62342345E+02
1.42900000E+09	 8.89905923E-01	-1.62414769E+02
1.43000000E+09	 8.89822941E-01	-1.62473533E+02
1.43100000E+09	 8.89913974E-01	-1.62548929E+02
1.43200000E+09	 8.89769974E-01	-1.62608804E+02
1.43300000E+09	 8.89726456E-01	-1.62677999E+02
1.43400000E+09	 8.89811656E-01	-1.62746381E+02
1.43500000E+09	 8.89839538E-01	-1.62818939E+02
1.43600000E+09	 8.89513961E-01	-1.62890498E+02
1.43700000E+09	 8.89563688E-01	-1.62960215E+02
1.43800000E+09	 8.89417392E-01	-1.63032951E+02
1.43900000E+09	 8.89367094E-01	-1.63099822E+02
1.44000000E+09	 8.89183569E-01	-1.63165109E+02
1.44100000E+09	 8.88994974E-01	-1.63237804E+02
1.44200000E+09	 8.89011383E-01	-1.63301644E+02
1.44300000E+09	 8.88764904E-01	-1.63369007E+02
1.44400000E+09	 8.88834221E-01	-1.63445327E+02
1.44500000E+09	 8.88539757E-01	-1.63506984E+02
1.44600000E+09	 8.88232368E-01	-1.63583814E+02
1.44700000E+09	 8.88135100E-01	-1.63657122E+02
1.44800000E+09	 8.87890540E-01	-1.63723885E+02
1.44900000E+09	 8.87568362E-01	-1.63795152E+02
1.45000000E+09	 8.87378662E-01	-1.63860459E+02
1.45100000E+09	 8.87159074E-01	-1.63927193E+02
1.45200000E+09	 8.86863149E-01	-1.64010611E+02
1.45300000E+09	 8.86528889E-01	-1.64072481E+02
1.45400000E+09	 8.86206103E-01	-1.64141587E+02
1.45500000E+09	 8.85978771E-01	-1.64218320E+02
1.45600000E+09	 8.85586326E-01	-1.64276863E+02
1.45700000E+09	 8.85288291E-01	-1.64344155E+02
1.45800000E+09	 8.85118147E-01	-1.64421339E+02
1.45900000E+09	 8.84729471E-01	-1.64486522E+02
1.46000000E+09	 8.84314773E-01	-1.64556089E+02
1.46100000E+09	 8.83999991E-01	-1.64624976E+02
1.46200000E+09	 8.83579303E-01	-1.64690195E+02
1.46300000E+09	 8.83238305E-01	-1.64760651E+02
1.46400000E+09	 8.82923060E-01	-1.64832368E+02
1.46500000E+09	 8.82400504E-01	-1.64892006E+02
1.46600000E+09	 8.81983801E-01	-1.64962783E+02
1.46700000E+09	 8.81568824E-01	-1.65023751E+02
1.46800000E+09	 8.81188974E-01	-1.65087648E+02
1.46900000E+09	 8.80762898E-01	-1.65153335E+02
1.47000000E+09	 8.80315978E-01	-1.65224537E+02
1.47100000E+09	 8.79847119E-01	-1.65281945E+02
1.47200000E+09	 8.79377546E-01	-1.65345729E+02
1.47300000E+09	 8.78899980E-01	-1.65410395E+02
1.47400000E+09	 8.78394187E-01	-1.65479406E+02
1.47500000E+09	 8.77962758E-01	-1.65534401E+02
1.47600000E+09	 8.77539670E-01	-1.65602065E+02
1.47700000E+09	 8.76954598E-01	-1.65663790E+02
1.47800000E+09	 8.76565188E-01	-1.65723389E+02
1.47900000E+09	 8.76123003E-01	-1.65782989E+02
1.48000000E+09	 8.75590730E-01	-1.65839430E+02
1.48100000E+09	 8.75023166E-01	-1.65897248E+02
1.48200000E+09	 8.74685654E-01	-1.65954000E+02
1.48300000E+09	 8.74129912E-01	-1.66008495E+02
1.48400000E+09	 8.73672155E-01	-1.66066084E+02
1.48500000E+09	 8.73061223E-01	-1.66130946E+02
1.48600000E+09	 8.72517791E-01	-1.66172271E+02
1.48700000E+09	 8.71987903E-01	-1.66231276E+02
1.48800000E+09	 8.71573626E-01	-1.66283020E+02
1.48900000E+09	 8.71021104E-01	-1.66338372E+02
1.49000000E+09	 8.70503525E-01	-1.66383439E+02
1.49100000E+09	 8.69920853E-01	-1.66442453E+02
1.49200000E+09	 8.69375890E-01	-1.66491405E+02
1.49300000E+09	 8.68779719E-01	-1.66540641E+02
1.49400000E+09	 8.68199033E-01	-1.66590230E+02
1.49500000E+09	 8.67699815E-01	-1.66631145E+02
1.49600000E+09	 8.67123261E-01	-1.66674547E+02
1.49700000E+09	 8.66375218E-01	-1.66713483E+02
1.49800000E+09	 8.65895394E-01	-1.66759904E+02
1.49900000E+09	 8.65354751E-01	-1.66797866E+02
1.50000000E+09	 8.64884597E-01	-1.66830200E+02
1.50100000E+09	 8.64361479E-01	-1.66861290E+02
1.50200000E+09	 8.63989640E-01	-1.66896810E+02
1.50300000E+09	 8.63385780E-01	-1.66929663E+02
1.50400000E+09	 8.62997812E-01	-1.66961209E+02
1.50500000E+09	 8.62528525E-01	-1.66988388E+02
1.50600000E+09	 8.62159676E-01	-1.67023978E+02
1.50700000E+09	 8.61753018E-01	-1.67055683E+02
1.50800000E+09	 8.61436694E-01	-1.67083246E+02
1.50900000E+09	 8.61054594E-01	-1.67108680E+02
1.51000000E+09	 8.60811274E-01	-1.67142214E+02
1.51100000E+09	 8.60606087E-01	-1.67172711E+02
1.51200000E+09	 8.60264808E-01	-1.67201461E+02
1.51300000E+09	 8.59965179E-01	-1.67237281E+02
1.51400000E+09	 8.59805058E-01	-1.67270232E+02
1.51500000E+09	 8.59559786E-01	-1.67299451E+02
1.51600000E+09	 8.59420936E-01	-1.67336239E+02
1.51700000E+09	 8.59159004E-01	-1.67367716E+02
1.51800000E+09	 8.58888891E-01	-1.67409565E+02
1.51900000E+09	 8.58770760E-01	-1.67444476E+02
1.52000000E+09	 8.58685434E-01	-1.67481936E+02
1.52100000E+09	 8.58255642E-01	-1.67528084E+02
1.52200000E+09	 8.58168017E-01	-1.67563407E+02
1.52300000E+09	 8.57865080E-01	-1.67603209E+02
1.52400000E+09	 8.57656995E-01	-1.67652638E+02
1.52500000E+09	 8.57550719E-01	-1.67703873E+02
1.52600000E+09	 8.57320654E-01	-1.67738177E+02
1.52700000E+09	 8.56990829E-01	-1.67783991E+02
1.52800000E+09	 8.56699486E-01	-1.67822191E+02
1.52900000E+09	 8.56388393E-01	-1.67878321E+02
1.53000000E+09	 8.56173335E-01	-1.67916373E+02
1.53100000E+09	 8.55879721E-01	-1.67965396E+02
1.53200000E+09	 8.55594755E-01	-1.67998677E+02
1.53300000E+09	 8.55354977E-01	-1.68040462E+02
1.53400000E+09	 8.54880215E-01	-1.68089153E+02
1.53500000E+09	 8.54462794E-01	-1.68132724E+02
1.53600000E+09	 8.54194890E-01	-1.68179534E+02
1.53700000E+09	 8.53919944E-01	-1.68223750E+02
1.53800000E+09	 8.53300523E-01	-1.68261031E+02
1.53900000E+09	 8.52994117E-01	-1.68310017E+02
1.54000000E+09	 8.52545794E-01	-1.68348481E+02
1.54100000E+09	 8.52140756E-01	-1.68388321E+02
1.54200000E+09	 8.51699150E-01	-1.68428015E+02
1.54300000E+09	 8.51119351E-01	-1.68462040E+02
1.54400000E+09	 8.50691343E-01	-1.68501050E+02
1.54500000E+09	 8.50387024E-01	-1.68540370E+02
1.54600000E+09	 8.49859396E-01	-1.68574008E+02
1.54700000E+09	 8.49432527E-01	-1.68611984E+02
1.54800000E+09	 8.48909299E-01	-1.68645315E+02
1.54900000E+09	 8.48382848E-01	-1.68675524E+02
1.55000000E+09	 8.47755438E-01	-1.68706898E+02
1.55100000E+09	 8.47314488E-01	-1.68743100E+02
1.55200000E+09	 8.46833999E-01	-1.68773426E+02
1.55300000E+09	 8.46454738E-01	-1.68810325E+02
1.55400000E+09	 8.45876334E-01	-1.68843503E+02
1.55500000E+09	 8.45269804E-01	-1.68862785E+02
1.55600000E+09	 8.44709796E-01	-1.68897562E+02
1.55700000E+09	 8.44189641E-01	-1.68924641E+02
1.55800000E+09	 8.43734167E-01	-1.68952111E+02
1.55900000E+09	 8.43229546E-01	-1.68979731E+02
1.56000000E+09	 8.42658394E-01	-1.69004002E+02
1.56100000E+09	 8.42189317E-01	-1.69042140E+02
1.56200000E+09	 8.41522517E-01	-1.69059041E+02
1.56300000E+09	 8.41073787E-01	-1.69092072E+02
1.56400000E+09	 8.40393600E-01	-1.69107004E+02
1.56500000E+09	 8.39819509E-01	-1.69124209E+02
1.56600000E+09	 8.39220052E-01	-1.69154483E+02
1.56700000E+09	 8.38506719E-01	-1.69177486E+02
1.56800000E+09	 8.37902642E-01	-1.69190825E+02
1.56900000E+09	 8.37290840E-01	-1.69218166E+02
1.57000000E+09	 8.36709286E-01	-1.69235635E+02
1.57100000E+09	 8.35977612E-01	-1.69260190E+02
1.57200000E+09	 8.35496078E-01	-1.69282888E+02
1.57300000E+09	 8.34640445E-01	-1.69291015E+02
1.57400000E+09	 8.34039097E-01	-1.69296520E+02
1.57500000E+09	 8.33537708E-01	-1.69306737E+02
1.57600000E+09	 8.32772005E-01	-1.69321374E+02
1.57700000E+09	 8.32151015E-01	-1.69341126E+02
1.57800000E+09	 8.31452409E-01	-1.69348662E+02
1.57900000E+09	 8.30816119E-01	-1.69369168E+02
1.58000000E+09	 8.30107853E-01	-1.69385552E+02
1.58100000E+09	 8.29465290E-01	-1.69386066E+02
1.58200000E+09	 8.28665264E-01	-1.69397905E+02
1.58300000E+09	 8.28028795E-01	-1.69407565E+02
1.58400000E+09	 8.27399530E-01	-1.69410318E+02
1.58500000E+09	 8.26580338E-01	-1.69417713E+02
1.58600000E+09	 8.25918371E-01	-1.69421117E+02
1.58700000E+09	 8.25229307E-01	-1.69429197E+02
1.58800000E+09	 8.24496353E-01	-1.69435602E+02
1.58900000E+09	 8.23748425E-01	-1.69438982E+02
1.59000000E+09	 8.23011682E-01	-1.69437656E+02
1.59100000E+09	 8.22114688E-01	-1.69449214E+02
1.59200000E+09	 8.21416705E-01	-1.69452307E+02
1.59300000E+09	 8.20740718E-01	-1.69443174E+02
1.59400000E+09	 8.19821093E-01	-1.69441698E+02
1.59500000E+09	 8.19123420E-01	-1.69428237E+02
1.59600000E+09	 8.18315125E-01	-1.69429754E+02
1.59700000E+09	 8.17496251E-01	-1.69412577E+02
1.59800000E+09	 8.16690227E-01	-1.69402683E+02
1.59900000E+09	 8.15977376E-01	-1.69401873E+02
1.60000000E+09	 8.15164672E-01	-1.69394513E+02
1.60100000E+09	 8.14270950E-01	-1.69376521E+02
1.60200000E+09	 8.13483243E-01	-1.69362987E+02
1.60300000E+09	 8.12620340E-01	-1.69342841E+02
1.60400000E+09	 8.11847727E-01	-1.69330065E+02
1.60500000E+09	 8.10927586E-01	-1.69316354E+02
1.60600000E+09	 8.10208405E-01	-1.69279407E+02
1.60700000E+09	 8.09379826E-01	-1.69259160E+02
1.60800000E+09	 8.08539054E-01	-1.69233737E+02
1.60900000E+09	 8.07684806E-01	-1.69204179E+02
1.61000000E+09	 8.06958145E-01	-1.69174759E+02
1.61100000E+09	 8.06023741E-01	-1.69139449E+02
1.61200000E+09	 8.05273678E-01	-1.69105941E+02
1.61300000E+09	 8.04466985E-01	-1.69069863E+02
1.61400000E+09	 8.03705007E-01	-1.69032576E+02
1.61500000E+09	 8.02809921E-01	-1.68989534E+02
1.61600000E+09	 8.02023845E-01	-1.68950893E+02
1.61700000E+09	 8.01326023E-01	-1.68895715E+02
1.61800000E+09	 8.00465820E-01	-1.68858317E+02
1.61900000E+09	 7.99711192E-01	-1.68799068E+02
1.62000000E+09	 7.98993772E-01	-1.68744520E+02
1.62100000E+09	 7.98200158E-01	-1.68688770E+02
1.62200000E+09	 7.97634993E-01	-1.68639244E+02
1.62300000E+09	 7.96893451E-01	-1.68576993E+02
1.62400000E+09	 7.96303874E-01	-1.68516200E+02
1.62500000E+09	 7.95615843E-01	-1.68454265E+02
1.62600000E+09	 7.95006522E-01	-1.68393082E+02
1.62700000E+09	 7.94343246E-01	-1.68321975E+02
1.62800000E+09	 7.93848794E-01	-1.68256367E+02
1.62900000E+09	 7.93323612E-01	-1.68190874E+02
1.63000000E+09	 7.92881316E-01	-1.68116426E+02
1.63100000E+09	 7.92321851E-01	-1.68047257E+02
1.63200000E+09	 7.91871390E-01	-1.67973150E+02
1.63300000E+09	 7.91476770E-01	-1.67899167E+02
1.63400000E+09	 7.91041700E-01	-1.67832061E+02
1.63500000E+09	 7.90734372E-01	-1.67753348E+02
1.63600000E+09	 7.90396154E-01	-1.67665237E+02
1.63700000E+09	 7.90079413E-01	-1.67595638E+02
1.63800000E+09	 7.89771952E-01	-1.67519354E+02
1.63900000E+09	 7.89678036E-01	-1.67438207E+02
1.64000000E+09	 7.89488383E-01	-1.67367185E+02
1.64100000E+09	 7.89222453E-01	-1.67288136E+02
1.64200000E+09	 7.89093736E-01	-1.67202960E+02
1.64300000E+09	 7.89031546E-01	-1.67113881E+02
1.64400000E+09	 7.89134084E-01	-1.67046032E+02
1.64500000E+09	 7.89017941E-01	-1.66962379E+02
1.64600000E+09	 7.88977435E-01	-1.66888823E+02
1.64700000E+09	 7.88965988E-01	-1.66815516E+02
1.64800000E+09	 7.89154464E-01	-1.66734291E+02
1.64900000E+09	 7.89213522E-01	-1.66661197E+02
1.65000000E+09	 7.89265730E-01	-1.66575673E+02
1.65100000E+09	 7.89423947E-01	-1.66504408E+02
1.65200000E+09	 7.89533090E-01	-1.66435062E+02
1.65300000E+09	 7.89770795E-01	-1.66355407E+02
1.65400000E+09	 7.89893727E-01	-1.66279591E+02
1.65500000E+09	 7.90128604E-01	-1.66210628E+02
1.65600000E+09	 7.90440208E-01	-1.66137277E+02
1.65700000E+09	 7.90887416E-01	-1.66062899E+02
1.65800000E+09	 7.91272289E-01	-1.65993946E+02
1.65900000E+09	 7.91747647E-01	-1.65943020E+02
1.66000000E+09	 7.92101608E-01	-1.65863527E+02
1.66100000E+09	 7.92583962E-01	-1.65799013E+02
1.66200000E+09	 7.92999910E-01	-1.65742847E+02
1.66300000E+09	 7.93516828E-01	-1.65680192E+02
1.66400000E+09	 7.93973825E-01	-1.65613380E+02
1.66500000E+09	 7.94548505E-01	-1.65559180E+02
1.66600000E+09	 7.95129871E-01	-1.65508825E+02
1.66700000E+09	 7.95667393E-01	-1.65458394E+02
1.66800000E+09	 7.96240876E-01	-1.65410368E+02
1.66900000E+09	 7.96850874E-01	-1.65350044E+02
1.67000000E+09	 7.97468665E-01	-1.65304357E+02
1.67100000E+09	 7.98112032E-01	-1.65262066E+02
1.67200000E+09	 7.98817992E-01	-1.65218483E+02
1.67300000E+09	 7.99401985E-01	-1.65166405E+02
1.67400000E+09	 8.00121857E-01	-1.65120529E+02
1.67500000E+09	 8.00848002E-01	-1.65093307E+02
1.67600000E+09	 8.01637906E-01	-1.65052499E+02
1.67700000E+09	 8.02302866E-01	-1.65023625E+02
1.67800000E+09	 8.02934984E-01	-1.64990611E+02
1.67900000E+09	 8.03550383E-01	-1.64968405E+02
1.68000000E+09	 8.04216053E-01	-1.64941360E+02
1.68100000E+09	 8.05109928E-01	-1.64918497E+02
1.68200000E+09	 8.05712791E-01	-1.64892325E+02
1.68300000E+09	 8.06367999E-01	-1.64869864E+02
1.68400000E+09	 8.07235546E-01	-1.64848839E+02
1.68500000E+09	 8.07891239E-01	-1.64835633E+02
1.68600000E+09	 8.08646739E-01	-1.64812323E+02
1.68700000E+09	 8.09311808E-01	-1.64799741E+02
1.68800000E+09	 8.09950047E-01	-1.64782640E+02
1.68900000E+09	 8.10662957E-01	-1.64776428E+02
1.69000000E+09	 8.11439952E-01	-1.64760780E+02
1.69100000E+09	 8.12016937E-01	-1.64753403E+02
1.69200000E+09	 8.12630560E-01	-1.64745792E+02
1.69300000E+09	 8.13450114E-01	-1.64755421E+02
1.69400000E+09	 8.14057995E-01	-1.64746132E+02
1.69500000E+09	 8.14593129E-01	-1.64739789E+02
1.69600000E+09	 8.15245417E-01	-1.64736082E+02
1.69700000E+09	 8.15903162E-01	-1.64745169E+02
1.69800000E+09	 8.16503713E-01	-1.64745935E+02
1.69900000E+09	 8.17088706E-01	-1.64753909E+02
1.70000000E+09	 8.17656277E-01	-1.64748210E+02
1.70100000E+09	 8.18261349E-01	-1.64757804E+02
1.70200000E+09	 8.18758909E-01	-1.64764423E+02
1.70300000E+09	 8.19276284E-01	-1.64775746E+02
1.70400000E+09	 8.19748632E-01	-1.64778405E+02
1.70500000E+09	 8.20219976E-01	-1.64785743E+02
1.70600000E+09	 8.20782910E-01	-1.64778163E+02
1.70700000E+09	 8.21344277E-01	-1.64789693E+02
1.70800000E+09	 8.21818836E-01	-1.64792770E+02
1.70900000E+09	 8.22273658E-01	-1.64794241E+02
1.71000000E+09	 8.22801317E-01	-1.64812901E+02
1.71100000E+09	 8.23125830E-01	-1.64825848E+02
1.71200000E+09	 8.23683841E-01	-1.64831320E+02
1.71300000E+09	 8.24124929E-01	-1.64839464E+02
1.71400000E+09	 8.24487403E-01	-1.64856535E+02
1.71500000E+09	 8.25067253E-01	-1.64858433E+02
1.71600000E+09	 8.25425845E-01	-1.64869159E+02
1.71700000E+09	 8.25990664E-01	-1.64878855E+02
1.71800000E+09	 8.26476531E-01	-1.64893817E+02
1.71900000E+09	 8.26892024E-01	-1.64908706E+02
1.72000000E+09	 8.27385328E-01	-1.64924469E+02
1.72100000E+09	 8.27915665E-01	-1.64928396E+02
1.72200000E+09	 8.28345577E-01	-1.64961125E+02
1.72300000E+09	 8.28919694E-01	-1.64969958E+02
1.72400000E+09	 8.29371289E-01	-1.64992249E+02
1.72500000E+09	 8.29809063E-01	-1.65017864E+02
1.72600000E+09	 8.30379299E-01	-1.65038699E+02
1.72700000E+09	 8.30812548E-01	-1.65067728E+02
1.72800000E+09	 8.31309026E-01	-1.65089831E+02
1.72900000E+09	 8.31875991E-01	-1.65115370E+02
1.73000000E+09	 8.32199263E-01	-1.65141183E+02
1.73100000E+09	 8.32541437E-01	-1.65173648E+02
1.73200000E+09	 8.33005282E-01	-1.65199167E+02
1.73300000E+09	 8.33444857E-01	-1.65226122E+02
1.73400000E+09	 8.33859745E-01	-1.65255422E+02
1.73500000E+09	 8.34379926E-01	-1.65285995E+02
1.73600000E+09	 8.34682608E-01	-1.65311651E+02
1.73700000E+09	 8.35107505E-01	-1.65351857E+02
1.73800000E+09	 8.35474701E-01	-1.65381103E+02
1.73900000E+09	 8.35800642E-01	-1.65417221E+02
1.74000000E+09	 8.36269175E-01	-1.65448174E+02
1.74100000E+09	 8.36569653E-01	-1.65484261E+02
1.74200000E+09	 8.36930581E-01	-1.65510914E+02
1.74300000E+09	 8.37291493E-01	-1.65552986E+02
1.74400000E+09	 8.37616749E-01	-1.65582716E+02
1.74500000E+09	 8.37869945E-01	-1.65621520E+02
1.74600000E+09	 8.38094849E-01	-1.65658472E+02
1.74700000E+09	 8.38463697E-01	-1.65693515E+02
1.74800000E+09	 8.38917766E-01	-1.65731399E+02
1.74900000E+09	 8.39001134E-01	-1.65768188E+02
1.75000000E+09	 8.39183051E-01	-1.65805199E+02
1.75100000E+09	 8.39590601E-01	-1.65845870E+02
1.75200000E+09	 8.39811327E-01	-1.65878536E+02
1.75300000E+09	 8.40164765E-01	-1.65915964E+02
1.75400000E+09	 8.40189236E-01	-1.65955457E+02
1.75500000E+09	 8.40604595E-01	-1.65996273E+02
1.75600000E+09	 8.40871198E-01	-1.66044176E+02
1.75700000E+09	 8.41077278E-01	-1.66080018E+02
1.75800000E+09	 8.41278004E-01	-1.66121622E+02
1.75900000E+09	 8.41392221E-01	-1.66172557E+02
1.76000000E+09	 8.41621625E-01	-1.66208458E+02
1.76100000E+09	 8.41828619E-01	-1.66252681E+02
1.76200000E+09	 8.42020532E-01	-1.66299145E+02
1.76300000E+09	 8.42105880E-01	-1.66332935E+02
1.76400000E+09	 8.42200719E-01	-1.66379293E+02
1.76500000E+09	 8.42639316E-01	-1.66424181E+02
1.76600000E+09	 8.42715137E-01	-1.66468531E+02
1.76700000E+09	 8.42780226E-01	-1.66515655E+02
1.76800000E+09	 8.42849228E-01	-1.66553898E+02
1.76900000E+09	 8.43027949E-01	-1.66597473E+02
1.77000000E+09	 8.43073884E-01	-1.66645170E+02
1.77100000E+09	 8.43253607E-01	-1.66682655E+02
1.77200000E+09	 8.43499526E-01	-1.66744939E+02
1.77300000E+09	 8.43577337E-01	-1.66777813E+02
1.77400000E+09	 8.43667837E-01	-1.66820346E+02
1.77500000E+09	 8.43982737E-01	-1.66872529E+02
1.77600000E+09	 8.43888503E-01	-1.66923942E+02
1.77700000E+09	 8.43895454E-01	-1.66973775E+02
1.77800000E+09	 8.44039669E-01	-1.67021701E+02
1.77900000E+09	 8.44078298E-01	-1.67062489E+02
1.78000000E+09	 8.44105766E-01	-1.67114398E+02
1.78100000E+09	 8.44086990E-01	-1.67163189E+02
1.78200000E+09	 8.44119900E-01	-1.67202906E+02
1.78300000E+09	 8.44100441E-01	-1.67257329E+02
1.78400000E+09	 8.44124651E-01	-1.67297425E+02
1.78500000E+09	 8.44080461E-01	-1.67358988E+02
1.78600000E+09	 8.44305938E-01	-1.67412669E+02
1.78700000E+09	 8.44187805E-01	-1.67462378E+02
1.78800000E+09	 8.44014767E-01	-1.67504666E+02
1.78900000E+09	 8.44157953E-01	-1.67550181E+02
1.79000000E+09	 8.44129268E-01	-1.67608348E+02
1.79100000E+09	 8.44005965E-01	-1.67656482E+02
1.79200000E+09	 8.44053482E-01	-1.67695914E+02
1.79300000E+09	 8.43908002E-01	-1.67745785E+02
1.79400000E+09	 8.43758265E-01	-1.67795718E+02
1.79500000E+09	 8.43791381E-01	-1.67839405E+02
1.79600000E+09	 8.43748402E-01	-1.67887990E+02
1.79700000E+09	 8.43520721E-01	-1.67941879E+02
1.79800000E+09	 8.43479278E-01	-1.67984541E+02
1.79900000E+09	 8.43371558E-01	-1.68038841E+02
1.80000000E+09	 8.43336125E-01	-1.68089574E+02
1.80100000E+09	 8.43217826E-01	-1.68133433E+02
1.80200000E+09	 8.43140434E-01	-1.68181857E+02
1.80300000E+09	 8.43103592E-01	-1.68226421E+02
1.80400000E+09	 8.42829922E-01	-1.68273037E+02
1.80500000E+09	 8.42674113E-01	-1.68325882E+02
1.80600000E+09	 8.42601468E-01	-1.68371069E+02
1.80700000E+09	 8.42517446E-01	-1.68422862E+02
1.80800000E+09	 8.42331682E-01	-1.68456279E+02
1.80900000E+09	 8.42279868E-01	-1.68505031E+02
1.81000000E+09	 8.41963350E-01	-1.68553772E+02
1.81100000E+09	 8.41903211E-01	-1.68609773E+02
1.81200000E+09	 8.41731213E-01	-1.68637801E+02
1.81300000E+09	 8.41581445E-01	-1.68688125E+02
1.81400000E+09	 8.41484759E-01	-1.68737075E+02
1.81500000E+09	 8.41218196E-01	-1.68777357E+02
1.81600000E+09	 8.41161883E-01	-1.68827011E+02
1.81700000E+09	 8.41040627E-01	-1.68865918E+02
1.81800000E+09	 8.40756516E-01	-1.68908247E+02
1.81900000E+09	 8.40483165E-01	-1.68958572E+02
1.82000000E+09	 8.40443976E-01	-1.68996473E+02
1.82100000E+09	 8.40211184E-01	-1.69046618E+02
1.82200000E+09	 8.40038569E-01	-1.69085881E+02
1.82300000E+09	 8.39697971E-01	-1.69129132E+02
1.82400000E+09	 8.39568582E-01	-1.69169815E+02
1.82500000E+09	 8.39358012E-01	-1.69214646E+02
1.82600000E+09	 8.39052768E-01	-1.69251239E+02
1.82700000E+09	 8.38851565E-01	-1.69288911E+02
1.82800000E+09	 8.38620681E-01	-1.69336495E+02
1.82900000E+09	 8.38332777E-01	-1.69371567E+02
1.83000000E+09	 8.38089315E-01	-1.69409598E+02
1.83100000E+09	 8.37994907E-01	-1.69451747E+02
1.83200000E+09	 8.37624248E-01	-1.69489950E+02
1.83300000E+09	 8.37389062E-01	-1.69525726E+02
1.83400000E+09	 8.37184097E-01	-1.69571927E+02
1.83500000E+09	 8.36961655E-01	-1.69609107E+02
1.83600000E+09	 8.36728156E-01	-1.69637307E+02
1.83700000E+09	 8.36491190E-01	-1.69677894E+02
1.83800000E+09	 8.36208986E-01	-1.69724281E+02
1.83900000E+09	 8.36036682E-01	-1.69755634E+02
1.84000000E+09	 8.35728685E-01	-1.69797224E+02
1.84100000E+09	 8.35575922E-01	-1.69830199E+02
1.84200000E+09	 8.35162845E-01	-1.69859122E+02
1.84300000E+09	 8.35033880E-01	-1.69891780E+02
1.84400000E+09	 8.34835944E-01	-1.69933589E+02
1.84500000E+09	 8.34493130E-01	-1.69961136E+02
1.84600000E+09	 8.34283747E-01	-1.70001582E+02
1.84700000E+09	 8.33970945E-01	-1.70035953E+02
1.84800000E+09	 8.33793834E-01	-1.70073569E+02
1.84900000E+09	 8.33502945E-01	-1.70104166E+02
1.85000000E+09	 8.33268176E-01	-1.70124002E+02
1.85100000E+09	 8.33033579E-01	-1.70170417E+02
1.85200000E+09	 8.32618449E-01	-1.70201117E+02
1.85300000E+09	 8.32445159E-01	-1.70223019E+02
1.85400000E+09	 8.32180677E-01	-1.70253602E+02
1.85500000E+09	 8.31849639E-01	-1.70281252E+02
1.85600000E+09	 8.31841321E-01	-1.70310393E+02
1.85700000E+09	 8.31440664E-01	-1.70339729E+02
1.85800000E+09	 8.31100278E-01	-1.70368700E+02
1.85900000E+09	 8.30952853E-01	-1.70400483E+02
1.86000000E+09	 8.30547793E-01	-1.70420930E+02
1.86100000E+09	 8.30487383E-01	-1.70451316E+02
1.86200000E+09	 8.30338478E-01	-1.70475743E+02
1.86300000E+09	 8.30147382E-01	-1.70507253E+02
1.86400000E+09	 8.29615700E-01	-1.70518892E+02
1.86500000E+09	 8.29627529E-01	-1.70562669E+02
1.86600000E+09	 8.29388601E-01	-1.70571742E+02
1.86700000E+09	 8.29100914E-01	-1.70606145E+02
1.86800000E+09	 8.28768422E-01	-1.70629168E+02
1.86900000E+09	 8.28656679E-01	-1.70653780E+02
1.87000000E+09	 8.28326220E-01	-1.70668926E+02
1.87100000E+09	 8.28210757E-01	-1.70691766E+02
1.87200000E+09	 8.27843417E-01	-1.70728284E+02
1.87300000E+09	 8.27624853E-01	-1.70737443E+02
1.87400000E+09	 8.27561448E-01	-1.70755055E+02
1.87500000E+09	 8.27213313E-01	-1.70779773E+02
1.87600000E+09	 8.26972871E-01	-1.70793356E+02
1.87700000E+09	 8.26852582E-01	-1.70818717E+02
1.87800000E+09	 8.26610148E-01	-1.70845701E+02
1.87900000E+09	 8.26337866E-01	-1.70863714E+02
1.88000000E+09	 8.25951476E-01	-1.70870760E+02
1.88100000E+09	 8.25834995E-01	-1.70891253E+02
1.88200000E+09	 8.25561632E-01	-1.70907776E+02
1.88300000E+09	 8.25381100E-01	-1.70920208E+02
1.88400000E+09	 8.25096353E-01	-1.70953818E+02
1.88500000E+09	 8.25014103E-01	-1.70954333E+02
1.88600000E+09	 8.24896529E-01	-1.70978369E+02
1.88700000E+09	 8.24542492E-01	-1.70993893E+02
1.88800000E+09	 8.24512683E-01	-1.71004684E+02
1.88900000E+09	 8.24285601E-01	-1.71024919E+02
1.89000000E+09	 8.24086362E-01	-1.71048659E+02
1.89100000E+09	 8.23919890E-01	-1.71053089E+02
1.89200000E+09	 8.23782717E-01	-1.71066824E+02
1.89300000E+09	 8.23494529E-01	-1.71072784E+02
1.89400000E+09	 8.23473797E-01	-1.71088058E+02
1.89500000E+09	 8.23236581E-01	-1.71105613E+02
1.89600000E+09	 8.23084663E-01	-1.71113974E+02
1.89700000E+09	 8.22762274E-01	-1.71121882E+02
1.89800000E+09	 8.22696846E-01	-1.71136409E+02
1.89900000E+09	 8.22494188E-01	-1.71147142E+02
1.90000000E+09	 8.22409199E-01	-1.71154276E+02
1.90100000E+09	 8.22272550E-01	-1.71161530E+02
1.90200000E+09	 8.22239233E-01	-1.71179124E+02
1.90300000E+09	 8.22076467E-01	-1.71189455E+02
1.90400000E+09	 8.21965729E-01	-1.71195874E+02
1.90500000E+09	 8.21850568E-01	-1.71209790E+02
1.90600000E+09	 8.21644338E-01	-1.71215186E+02
1.90700000E+09	 8.21537361E-01	-1.71226143E+02
1.90800000E+09	 8.21486562E-01	-1.71237112E+02
1.90900000E+09	 8.21341056E-01	-1.71239633E+02
1.91000000E+09	 8.21231289E-01	-1.71242107E+02
1.91100000E+09	 8.21177462E-01	-1.71269081E+02
1.91200000E+09	 8.21309795E-01	-1.71274404E+02
1.91300000E+09	 8.20976253E-01	-1.71274004E+02
1.91400000E+09	 8.21040110E-01	-1.71288535E+02
1.91500000E+09	 8.21024138E-01	-1.71307210E+02
1.91600000E+09	 8.20884750E-01	-1.71308056E+02
1.91700000E+09	 8.20593078E-01	-1.71312368E+02
1.91800000E+09	 8.20797882E-01	-1.71337138E+02
1.91900000E+09	 8.20700826E-01	-1.71332043E+02
1.92000000E+09	 8.20682628E-01	-1.71347796E+02
1.92100000E+09	 8.20713379E-01	-1.71359397E+02
1.92200000E+09	 8.20604529E-01	-1.71362998E+02
1.92300000E+09	 8.20487879E-01	-1.71378356E+02
1.92400000E+09	 8.20430501E-01	-1.71381967E+02
1.92500000E+09	 8.20441159E-01	-1.71388296E+02
1.92600000E+09	 8.20350255E-01	-1.71408313E+02
1.92700000E+09	 8.20361399E-01	-1.71417331E+02
1.92800000E+09	 8.20300140E-01	-1.71422931E+02
1.92900000E+09	 8.20204929E-01	-1.71441108E+02
1.93000000E+09	 8.20213344E-01	-1.71449009E+02
1.93100000E+09	 8.20158496E-01	-1.71447477E+02
1.93200000E+09	 8.20173183E-01	-1.71467499E+02
1.93300000E+09	 8.20089459E-01	-1.71481887E+02
1.93400000E+09	 8.20013574E-01	-1.71493549E+02
1.93500000E+09	 8.20029368E-01	-1.71506832E+02
1.93600000E+09	 8.20003963E-01	-1.71520655E+02
1.93700000E+09	 8.19830780E-01	-1.71531997E+02
1.93800000E+09	 8.19815460E-01	-1.71543293E+02
1.93900000E+09	 8.19757908E-01	-1.71552552E+02
1.94000000E+09	 8.19789260E-01	-1.71572089E+02
1.94100000E+09	 8.19705578E-01	-1.71586418E+02
1.94200000E+09	 8.19635022E-01	-1.71592343E+02
1.94300000E+09	 8.19537626E-01	-1.71607856E+02
1.94400000E+09	 8.19436968E-01	-1.71616386E+02
1.94500000E+09	 8.19470062E-01	-1.71631896E+02
1.94600000E+09	 8.19367551E-01	-1.71644550E+02
1.94700000E+09	 8.19283114E-01	-1.71653745E+02
1.94800000E+09	 8.19124301E-01	-1.71661903E+02
1.94900000E+09	 8.19106597E-01	-1.71679547E+02
1.95000000E+09	 8.19057987E-01	-1.71686406E+02
1.95100000E+09	 8.18816434E-01	-1.71695829E+02
1.95200000E+09	 8.18863681E-01	-1.71708569E+02
1.95300000E+09	 8.18822159E-01	-1.71719107E+02
1.95400000E+09	 8.18642523E-01	-1.71732140E+02
1.95500000E+09	 8.18666081E-01	-1.71751182E+02
1.95600000E+09	 8.18582479E-01	-1.71758357E+02
1.95700000E+09	 8.18429245E-01	-1.71772966E+02
1.95800000E+09	 8.18418749E-01	-1.71777231E+02
1.95900000E+09	 8.18280146E-01	-1.71794327E+02
1.96000000E+09	 8.18124035E-01	-1.71807009E+02
1.96100000E+09	 8.18051028E-01	-1.71812074E+02
1.96200000E+09	 8.17942277E-01	-1.71825876E+02
1.96300000E+09	 8.17912073E-01	-1.71840047E+02
1.96400000E+09	 8.17823358E-01	-1.71858382E+02
1.96500000E+09	 8.17727324E-01	-1.71871256E+02
1.96600000E+09	 8.17539576E-01	-1.71878332E+02
1.96700000E+09	 8.17493535E-01	-1.71897843E+02
1.96800000E+09	 8.17273983E-01	-1.71905089E+02
1.96900000E+09	 8.17110948E-01	-1.71916424E+02
1.97000000E+09	 8.16901153E-01	-1.71930965E+02
1.97100000E+09	 8.16991284E-01	-1.71955305E+02
1.97200000E+09	 8.16736983E-01	-1.71954306E+02
1.97300000E+09	 8.16614698E-01	-1.71979205E+02
1.97400000E+09	 8.16361263E-01	-1.71983457E+02
1.97500000E+09	 8.16302626E-01	-1.71996880E+02
1.97600000E+09	 8.16105508E-01	-1.72018375E+02
1.97700000E+09	 8.15768175E-01	-1.72028539E+02
1.97800000E+09	 8.15719801E-01	-1.72039499E+02
1.97900000E+09	 8.15504747E-01	-1.72054091E+02
1.98000000E+09	 8.15470092E-01	-1.72074133E+02
1.98100000E+09	 8.15170208E-01	-1.72080334E+02
1.98200000E+09	 8.14940645E-01	-1.72098584E+02
1.98300000E+09	 8.14808673E-01	-1.72115845E+02
1.98400000E+09	 8.14520114E-01	-1.72130156E+02
1.98500000E+09	 8.14459208E-01	-1.72147732E+02
1.98600000E+09	 8.14144648E-01	-1.72162909E+02
1.98700000E+09	 8.13908253E-01	-1.72174798E+02
1.98800000E+09	 8.13677705E-01	-1.72194172E+02
1.98900000E+09	 8.13431019E-01	-1.72209663E+02
1.99000000E+09	 8.13256921E-01	-1.72222276E+02
1.99100000E+09	 8.13014763E-01	-1.72247218E+02
1.99200000E+09	 8.12821171E-01	-1.72256952E+02
1.99300000E+09	 8.12488774E-01	-1.72270670E+02
1.99400000E+09	 8.12160546E-01	-1.72283830E+02
1.99500000E+09	 8.11852898E-01	-1.72297829E+02
1.99600000E+09	 8.11720979E-01	-1.72316109E+02
1.99700000E+09	 8.11433286E-01	-1.72342978E+02
1.99800000E+09	 8.11041413E-01	-1.72348897E+02
1.99900000E+09	 8.10898012E-01	-1.72364318E+02
2.00000000E+09	 8.10375645E-01	-1.72375227E+02
