! COPPER MOUNTAIN TECHNOLOGIES, R60, 23103002, 24.3.3/3.0
! Date: 25/6/2026 14:38:12
! Data: Format [Calibration Info]
! Frequency		S11: Mag/Ang F1                
# HZ S MA R 50
1.00000000E+06	 9.99737037E-01	-6.30282345E-02
2.00000000E+06	 9.99775068E-01	-1.52895577E-01
3.00000000E+06	 9.99700199E-01	-2.39817157E-01
4.00000000E+06	 9.99817774E-01	-3.33759472E-01
5.00000000E+06	 9.99728463E-01	-4.26937674E-01
6.00000000E+06	 9.99770525E-01	-5.10419304E-01
7.00000000E+06	 9.99780982E-01	-6.08575050E-01
8.00000000E+06	 9.99747845E-01	-6.97830613E-01
9.00000000E+06	 9.99642636E-01	-7.87486486E-01
1.00000000E+07	 9.99510137E-01	-8.82364464E-01
1.10000000E+07	 9.99608117E-01	-9.64278523E-01
1.20000000E+07	 9.99611018E-01	-1.05558677E+00
1.30000000E+07	 9.99425421E-01	-1.15230815E+00
1.40000000E+07	 9.99383319E-01	-1.25066262E+00
1.50000000E+07	 9.99329955E-01	-1.34362321E+00
1.60000000E+07	 9.99354237E-01	-1.42604143E+00
1.70000000E+07	 9.99164402E-01	-1.52759075E+00
1.80000000E+07	 9.99040459E-01	-1.60901984E+00
1.90000000E+07	 9.98897716E-01	-1.70143777E+00
2.00000000E+07	 9.98853007E-01	-1.79349891E+00
2.10000000E+07	 9.98797702E-01	-1.88362982E+00
2.20000000E+07	 9.98815929E-01	-1.97877821E+00
2.30000000E+07	 9.98586506E-01	-2.05833790E+00
2.40000000E+07	 9.98441141E-01	-2.15606454E+00
2.50000000E+07	 9.98453292E-01	-2.24864814E+00
2.60000000E+07	 9.98247868E-01	-2.33483384E+00
2.70000000E+07	 9.98078576E-01	-2.42137972E+00
2.80000000E+07	 9.98174832E-01	-2.50555535E+00
2.90000000E+07	 9.97859858E-01	-2.59891919E+00
3.00000000E+07	 9.97608960E-01	-2.69683229E+00
3.10000000E+07	 9.97629050E-01	-2.79747218E+00
3.20000000E+07	 9.97362858E-01	-2.88071297E+00
3.30000000E+07	 9.97315061E-01	-2.96374489E+00
3.40000000E+07	 9.97205301E-01	-3.05158909E+00
3.50000000E+07	 9.96917194E-01	-3.13627453E+00
3.60000000E+07	 9.96727762E-01	-3.24628280E+00
3.70000000E+07	 9.96774404E-01	-3.32630830E+00
3.80000000E+07	 9.96399625E-01	-3.40629849E+00
3.90000000E+07	 9.96285368E-01	-3.49854446E+00
4.00000000E+07	 9.96029462E-01	-3.59276746E+00
4.10000000E+07	 9.95944012E-01	-3.68837100E+00
4.20000000E+07	 9.95535599E-01	-3.77255422E+00
4.30000000E+07	 9.95459123E-01	-3.86677280E+00
4.40000000E+07	 9.95233983E-01	-3.94908191E+00
4.50000000E+07	 9.95024149E-01	-4.03226180E+00
4.60000000E+07	 9.94845320E-01	-4.12677488E+00
4.70000000E+07	 9.94602603E-01	-4.20523031E+00
4.80000000E+07	 9.94477726E-01	-4.29824204E+00
4.90000000E+07	 9.94070226E-01	-4.39406489E+00
5.00000000E+07	 9.94023600E-01	-4.47428650E+00
5.10000000E+07	 9.93766767E-01	-4.56452641E+00
5.20000000E+07	 9.93544566E-01	-4.64786372E+00
5.30000000E+07	 9.93243473E-01	-4.73721442E+00
5.40000000E+07	 9.93033885E-01	-4.83290844E+00
5.50000000E+07	 9.92685399E-01	-4.90734594E+00
5.60000000E+07	 9.92419721E-01	-4.99942367E+00
5.70000000E+07	 9.92039647E-01	-5.09186361E+00
5.80000000E+07	 9.92067770E-01	-5.17664522E+00
5.90000000E+07	 9.91788360E-01	-5.26577665E+00
6.00000000E+07	 9.91453659E-01	-5.35387292E+00
6.10000000E+07	 9.91192319E-01	-5.43694167E+00
6.20000000E+07	 9.90753131E-01	-5.52655916E+00
6.30000000E+07	 9.90468422E-01	-5.61420172E+00
6.40000000E+07	 9.90123927E-01	-5.69119269E+00
6.50000000E+07	 9.89923507E-01	-5.78727110E+00
6.60000000E+07	 9.89663765E-01	-5.87527894E+00
6.70000000E+07	 9.89203116E-01	-5.95212412E+00
6.80000000E+07	 9.88937549E-01	-6.03989157E+00
6.90000000E+07	 9.88586599E-01	-6.12226070E+00
7.00000000E+07	 9.88261091E-01	-6.20611218E+00
7.10000000E+07	 9.87970614E-01	-6.30255548E+00
7.20000000E+07	 9.87467636E-01	-6.38506888E+00
7.30000000E+07	 9.87244434E-01	-6.45753158E+00
7.40000000E+07	 9.86754187E-01	-6.54834703E+00
7.50000000E+07	 9.86509731E-01	-6.62972514E+00
7.60000000E+07	 9.86179562E-01	-6.71364982E+00
7.70000000E+07	 9.85944822E-01	-6.79629366E+00
7.80000000E+07	 9.85723564E-01	-6.88449563E+00
7.90000000E+07	 9.85307983E-01	-6.96506815E+00
8.00000000E+07	 9.84882927E-01	-7.05128243E+00
8.10000000E+07	 9.84592189E-01	-7.13504403E+00
8.20000000E+07	 9.84127022E-01	-7.22523753E+00
8.30000000E+07	 9.83968643E-01	-7.29551782E+00
8.40000000E+07	 9.83353616E-01	-7.38953795E+00
8.50000000E+07	 9.82876017E-01	-7.46832891E+00
8.60000000E+07	 9.82617222E-01	-7.55641663E+00
8.70000000E+07	 9.82228523E-01	-7.62950400E+00
8.80000000E+07	 9.81786494E-01	-7.71974976E+00
8.90000000E+07	 9.81376350E-01	-7.79943062E+00
9.00000000E+07	 9.80857779E-01	-7.87683628E+00
9.10000000E+07	 9.80521637E-01	-7.96221484E+00
9.20000000E+07	 9.80175132E-01	-8.04526467E+00
9.30000000E+07	 9.79559668E-01	-8.12690202E+00
9.40000000E+07	 9.79273036E-01	-8.21365708E+00
9.50000000E+07	 9.78789415E-01	-8.29274359E+00
9.60000000E+07	 9.78400461E-01	-8.37098358E+00
9.70000000E+07	 9.77809641E-01	-8.45776022E+00
9.80000000E+07	 9.77355754E-01	-8.54249858E+00
9.90000000E+07	 9.76966424E-01	-8.61890429E+00
1.00000000E+08	 9.76513438E-01	-8.70358580E+00
1.01000000E+08	 9.76103051E-01	-8.77887052E+00
1.02000000E+08	 9.75577532E-01	-8.86004481E+00
1.03000000E+08	 9.75097570E-01	-8.94286617E+00
1.04000000E+08	 9.74703993E-01	-9.03004735E+00
1.05000000E+08	 9.74217141E-01	-9.10211686E+00
1.06000000E+08	 9.73728364E-01	-9.18646051E+00
1.07000000E+08	 9.73190422E-01	-9.26483322E+00
1.08000000E+08	 9.72755949E-01	-9.34650819E+00
1.09000000E+08	 9.72241798E-01	-9.42497260E+00
1.10000000E+08	 9.71697064E-01	-9.51024562E+00
1.11000000E+08	 9.71256672E-01	-9.58246338E+00
1.12000000E+08	 9.70641294E-01	-9.66635647E+00
1.13000000E+08	 9.70193415E-01	-9.74585241E+00
1.14000000E+08	 9.69590527E-01	-9.82484832E+00
1.15000000E+08	 9.69186742E-01	-9.90179013E+00
1.16000000E+08	 9.68680342E-01	-9.98876129E+00
1.17000000E+08	 9.68005463E-01	-1.00690536E+01
1.18000000E+08	 9.67448625E-01	-1.01468396E+01
1.19000000E+08	 9.66930629E-01	-1.02160149E+01
1.20000000E+08	 9.66393393E-01	-1.02994626E+01
1.21000000E+08	 9.65776806E-01	-1.03727896E+01
1.22000000E+08	 9.65142835E-01	-1.04514744E+01
1.23000000E+08	 9.64537876E-01	-1.05254837E+01
1.24000000E+08	 9.64060853E-01	-1.05905338E+01
1.25000000E+08	 9.63657548E-01	-1.06757960E+01
1.26000000E+08	 9.63039874E-01	-1.07503090E+01
1.27000000E+08	 9.62532047E-01	-1.08258936E+01
1.28000000E+08	 9.61899496E-01	-1.08980577E+01
1.29000000E+08	 9.61374145E-01	-1.09775458E+01
1.30000000E+08	 9.60787757E-01	-1.10581650E+01
1.31000000E+08	 9.60323676E-01	-1.11297884E+01
1.32000000E+08	 9.59736608E-01	-1.12036180E+01
1.33000000E+08	 9.59070914E-01	-1.12826612E+01
1.34000000E+08	 9.58555419E-01	-1.13645800E+01
1.35000000E+08	 9.57990666E-01	-1.14328425E+01
1.36000000E+08	 9.57327978E-01	-1.15085228E+01
1.37000000E+08	 9.56670570E-01	-1.15818883E+01
1.38000000E+08	 9.56127418E-01	-1.16574569E+01
1.39000000E+08	 9.55518183E-01	-1.17317297E+01
1.40000000E+08	 9.55038936E-01	-1.18084998E+01
1.41000000E+08	 9.54238648E-01	-1.18812383E+01
1.42000000E+08	 9.53533941E-01	-1.19629203E+01
1.43000000E+08	 9.53128045E-01	-1.20296669E+01
1.44000000E+08	 9.52409356E-01	-1.21100458E+01
1.45000000E+08	 9.51765401E-01	-1.21863992E+01
1.46000000E+08	 9.51176065E-01	-1.22513230E+01
1.47000000E+08	 9.50389029E-01	-1.23238981E+01
1.48000000E+08	 9.49848582E-01	-1.24013891E+01
1.49000000E+08	 9.49225893E-01	-1.24740244E+01
1.50000000E+08	 9.48588955E-01	-1.25501357E+01
1.51000000E+08	 9.47919542E-01	-1.26263581E+01
1.52000000E+08	 9.47226887E-01	-1.26909956E+01
1.53000000E+08	 9.46591727E-01	-1.27694280E+01
1.54000000E+08	 9.46058351E-01	-1.28406440E+01
1.55000000E+08	 9.45427112E-01	-1.29183123E+01
1.56000000E+08	 9.44680856E-01	-1.29863609E+01
1.57000000E+08	 9.43924546E-01	-1.30592821E+01
1.58000000E+08	 9.43357958E-01	-1.31360790E+01
1.59000000E+08	 9.42628044E-01	-1.32092908E+01
1.60000000E+08	 9.41921673E-01	-1.32797110E+01
1.61000000E+08	 9.41130960E-01	-1.33586542E+01
1.62000000E+08	 9.40583644E-01	-1.34334670E+01
1.63000000E+08	 9.39785755E-01	-1.34976529E+01
1.64000000E+08	 9.39139027E-01	-1.35631472E+01
1.65000000E+08	 9.38484762E-01	-1.36363786E+01
1.66000000E+08	 9.37803287E-01	-1.37116174E+01
1.67000000E+08	 9.37285811E-01	-1.37828607E+01
1.68000000E+08	 9.36386057E-01	-1.38503796E+01
1.69000000E+08	 9.35736278E-01	-1.39121882E+01
1.70000000E+08	 9.35043313E-01	-1.39931205E+01
1.71000000E+08	 9.34292841E-01	-1.40497094E+01
1.72000000E+08	 9.33568711E-01	-1.41284219E+01
1.73000000E+08	 9.32888988E-01	-1.41916599E+01
1.74000000E+08	 9.32286115E-01	-1.42671026E+01
1.75000000E+08	 9.31549623E-01	-1.43327120E+01
1.76000000E+08	 9.30828658E-01	-1.43962915E+01
1.77000000E+08	 9.30111141E-01	-1.44672499E+01
1.78000000E+08	 9.29539651E-01	-1.45349198E+01
1.79000000E+08	 9.28815406E-01	-1.46060222E+01
1.80000000E+08	 9.28114741E-01	-1.46805282E+01
1.81000000E+08	 9.27393963E-01	-1.47407134E+01
1.82000000E+08	 9.26687324E-01	-1.48104953E+01
1.83000000E+08	 9.26062571E-01	-1.48839962E+01
1.84000000E+08	 9.25388178E-01	-1.49536317E+01
1.85000000E+08	 9.24809302E-01	-1.50201220E+01
1.86000000E+08	 9.23987456E-01	-1.50828610E+01
1.87000000E+08	 9.23295739E-01	-1.51566813E+01
1.88000000E+08	 9.22473849E-01	-1.52259274E+01
1.89000000E+08	 9.21691245E-01	-1.52964968E+01
1.90000000E+08	 9.21172226E-01	-1.53725867E+01
1.91000000E+08	 9.20311665E-01	-1.54363901E+01
1.92000000E+08	 9.19662329E-01	-1.55003850E+01
1.93000000E+08	 9.18815045E-01	-1.55715180E+01
1.94000000E+08	 9.18179580E-01	-1.56423127E+01
1.95000000E+08	 9.17449578E-01	-1.57067321E+01
1.96000000E+08	 9.16832786E-01	-1.57691509E+01
1.97000000E+08	 9.16031831E-01	-1.58416862E+01
1.98000000E+08	 9.15371771E-01	-1.59144442E+01
1.99000000E+08	 9.14618354E-01	-1.59777043E+01
2.00000000E+08	 9.13934817E-01	-1.60446585E+01
2.01000000E+08	 9.13194046E-01	-1.61081998E+01
2.02000000E+08	 9.12406503E-01	-1.61801348E+01
2.03000000E+08	 9.11751052E-01	-1.62452486E+01
2.04000000E+08	 9.11009765E-01	-1.63109379E+01
2.05000000E+08	 9.10213200E-01	-1.63827448E+01
2.06000000E+08	 9.09574803E-01	-1.64463660E+01
2.07000000E+08	 9.08948583E-01	-1.65144189E+01
2.08000000E+08	 9.08073468E-01	-1.65770780E+01
2.09000000E+08	 9.07350057E-01	-1.66389681E+01
2.10000000E+08	 9.06512590E-01	-1.67124686E+01
2.11000000E+08	 9.05785418E-01	-1.67743818E+01
2.12000000E+08	 9.05111208E-01	-1.68363287E+01
2.13000000E+08	 9.04380310E-01	-1.69065768E+01
2.14000000E+08	 9.03560660E-01	-1.69721573E+01
2.15000000E+08	 9.02803933E-01	-1.70365031E+01
2.16000000E+08	 9.02148427E-01	-1.71052834E+01
2.17000000E+08	 9.01401818E-01	-1.71705853E+01
2.18000000E+08	 9.00704709E-01	-1.72306680E+01
2.19000000E+08	 8.99944007E-01	-1.72982822E+01
2.20000000E+08	 8.99128808E-01	-1.73679082E+01
2.21000000E+08	 8.98517377E-01	-1.74281985E+01
2.22000000E+08	 8.97679560E-01	-1.74990156E+01
2.23000000E+08	 8.96935528E-01	-1.75586840E+01
2.24000000E+08	 8.96301344E-01	-1.76199688E+01
2.25000000E+08	 8.95497607E-01	-1.76919230E+01
2.26000000E+08	 8.94771052E-01	-1.77566371E+01
2.27000000E+08	 8.94027079E-01	-1.78235254E+01
2.28000000E+08	 8.93244327E-01	-1.78807266E+01
2.29000000E+08	 8.92488443E-01	-1.79419122E+01
2.30000000E+08	 8.91823217E-01	-1.80038802E+01
2.31000000E+08	 8.91179903E-01	-1.80779424E+01
2.32000000E+08	 8.90458896E-01	-1.81392390E+01
2.33000000E+08	 8.89684960E-01	-1.81986104E+01
2.34000000E+08	 8.88980282E-01	-1.82629798E+01
2.35000000E+08	 8.88180341E-01	-1.83299674E+01
2.36000000E+08	 8.87637047E-01	-1.83965888E+01
2.37000000E+08	 8.86830712E-01	-1.84592056E+01
2.38000000E+08	 8.86115407E-01	-1.85205640E+01
2.39000000E+08	 8.85395620E-01	-1.85799236E+01
2.40000000E+08	 8.84614446E-01	-1.86434929E+01
2.41000000E+08	 8.83996740E-01	-1.87038438E+01
2.42000000E+08	 8.83257703E-01	-1.87736539E+01
2.43000000E+08	 8.82482099E-01	-1.88327710E+01
2.44000000E+08	 8.81844709E-01	-1.88925685E+01
2.45000000E+08	 8.81079089E-01	-1.89555430E+01
2.46000000E+08	 8.80388908E-01	-1.90200137E+01
2.47000000E+08	 8.79590630E-01	-1.90790243E+01
2.48000000E+08	 8.78964118E-01	-1.91354491E+01
2.49000000E+08	 8.78249985E-01	-1.92013891E+01
2.50000000E+08	 8.77661610E-01	-1.92621544E+01
2.51000000E+08	 8.76830547E-01	-1.93274524E+01
2.52000000E+08	 8.76140060E-01	-1.93813672E+01
2.53000000E+08	 8.75395517E-01	-1.94477655E+01
2.54000000E+08	 8.74774790E-01	-1.95044316E+01
2.55000000E+08	 8.73971352E-01	-1.95665850E+01
2.56000000E+08	 8.73423616E-01	-1.96267022E+01
2.57000000E+08	 8.72756728E-01	-1.96815108E+01
2.58000000E+08	 8.72070457E-01	-1.97481339E+01
2.59000000E+08	 8.71346950E-01	-1.98065033E+01
2.60000000E+08	 8.70790329E-01	-1.98694746E+01
2.61000000E+08	 8.69941688E-01	-1.99279739E+01
2.62000000E+08	 8.69279705E-01	-1.99913753E+01
2.63000000E+08	 8.68575520E-01	-2.00450315E+01
2.64000000E+08	 8.68010173E-01	-2.01076128E+01
2.65000000E+08	 8.67304334E-01	-2.01639799E+01
2.66000000E+08	 8.66617757E-01	-2.02234817E+01
2.67000000E+08	 8.65951674E-01	-2.02797500E+01
2.68000000E+08	 8.65223922E-01	-2.03400340E+01
2.69000000E+08	 8.64596190E-01	-2.03930000E+01
2.70000000E+08	 8.63941030E-01	-2.04548400E+01
2.71000000E+08	 8.63309581E-01	-2.05043536E+01
2.72000000E+08	 8.62640032E-01	-2.05595824E+01
2.73000000E+08	 8.62044604E-01	-2.06282798E+01
2.74000000E+08	 8.61330228E-01	-2.06817761E+01
2.75000000E+08	 8.60628796E-01	-2.07366005E+01
2.76000000E+08	 8.59992394E-01	-2.07989026E+01
2.77000000E+08	 8.59288567E-01	-2.08458170E+01
2.78000000E+08	 8.58663357E-01	-2.09073123E+01
2.79000000E+08	 8.57964578E-01	-2.09678654E+01
2.80000000E+08	 8.57324935E-01	-2.10249782E+01
2.81000000E+08	 8.56624241E-01	-2.10847562E+01
2.82000000E+08	 8.55975813E-01	-2.11344722E+01
2.83000000E+08	 8.55265176E-01	-2.11936520E+01
2.84000000E+08	 8.54628691E-01	-2.12405322E+01
2.85000000E+08	 8.53937765E-01	-2.13081364E+01
2.86000000E+08	 8.53213260E-01	-2.13601961E+01
2.87000000E+08	 8.52668573E-01	-2.14190277E+01
2.88000000E+08	 8.52006519E-01	-2.14734701E+01
2.89000000E+08	 8.51300369E-01	-2.15276779E+01
2.90000000E+08	 8.50703463E-01	-2.15765907E+01
2.91000000E+08	 8.50016230E-01	-2.16305621E+01
2.92000000E+08	 8.49372037E-01	-2.16892003E+01
2.93000000E+08	 8.48700994E-01	-2.17393335E+01
2.94000000E+08	 8.48085212E-01	-2.17896239E+01
2.95000000E+08	 8.47466479E-01	-2.18460345E+01
2.96000000E+08	 8.46857866E-01	-2.18973604E+01
2.97000000E+08	 8.46304347E-01	-2.19520560E+01
2.98000000E+08	 8.45681206E-01	-2.20037976E+01
2.99000000E+08	 8.45084836E-01	-2.20534918E+01
3.00000000E+08	 8.44419570E-01	-2.21076482E+01
3.01000000E+08	 8.43861812E-01	-2.21650004E+01
3.02000000E+08	 8.43243260E-01	-2.22103621E+01
3.03000000E+08	 8.42699424E-01	-2.22618682E+01
3.04000000E+08	 8.42014403E-01	-2.23196867E+01
3.05000000E+08	 8.41455714E-01	-2.23702524E+01
3.06000000E+08	 8.40852094E-01	-2.24194461E+01
3.07000000E+08	 8.40092831E-01	-2.24724393E+01
3.08000000E+08	 8.39546182E-01	-2.25165694E+01
3.09000000E+08	 8.38968676E-01	-2.25758387E+01
3.10000000E+08	 8.38384104E-01	-2.26242322E+01
3.11000000E+08	 8.37685919E-01	-2.26710641E+01
3.12000000E+08	 8.37241674E-01	-2.27254897E+01
3.13000000E+08	 8.36529533E-01	-2.27681445E+01
3.14000000E+08	 8.36071332E-01	-2.28263389E+01
3.15000000E+08	 8.35443614E-01	-2.28675064E+01
3.16000000E+08	 8.34798272E-01	-2.29097495E+01
3.17000000E+08	 8.34291330E-01	-2.29658364E+01
3.18000000E+08	 8.33720981E-01	-2.30155783E+01
3.19000000E+08	 8.33047497E-01	-2.30578374E+01
3.20000000E+08	 8.32512358E-01	-2.31062108E+01
3.21000000E+08	 8.31911612E-01	-2.31438789E+01
3.22000000E+08	 8.31367805E-01	-2.32072078E+01
3.23000000E+08	 8.30782167E-01	-2.32466145E+01
3.24000000E+08	 8.30234075E-01	-2.32884078E+01
3.25000000E+08	 8.29724275E-01	-2.33396542E+01
3.26000000E+08	 8.29002847E-01	-2.33862083E+01
3.27000000E+08	 8.28524859E-01	-2.34333142E+01
3.28000000E+08	 8.28004313E-01	-2.34766629E+01
3.29000000E+08	 8.27471585E-01	-2.35237535E+01
3.30000000E+08	 8.26943170E-01	-2.35611239E+01
3.31000000E+08	 8.26351583E-01	-2.36153436E+01
3.32000000E+08	 8.25793562E-01	-2.36606804E+01
3.33000000E+08	 8.25247465E-01	-2.37009372E+01
3.34000000E+08	 8.24684230E-01	-2.37438990E+01
3.35000000E+08	 8.24130307E-01	-2.37854902E+01
3.36000000E+08	 8.23596975E-01	-2.38321454E+01
3.37000000E+08	 8.23066001E-01	-2.38733713E+01
3.38000000E+08	 8.22490247E-01	-2.39240510E+01
3.39000000E+08	 8.22019162E-01	-2.39547180E+01
3.40000000E+08	 8.21370638E-01	-2.40014702E+01
3.41000000E+08	 8.20911545E-01	-2.40437035E+01
3.42000000E+08	 8.20281381E-01	-2.40885469E+01
3.43000000E+08	 8.19823174E-01	-2.41315570E+01
3.44000000E+08	 8.19213324E-01	-2.41730595E+01
3.45000000E+08	 8.18695066E-01	-2.42110817E+01
3.46000000E+08	 8.18106655E-01	-2.42509501E+01
3.47000000E+08	 8.17635236E-01	-2.42988157E+01
3.48000000E+08	 8.17169450E-01	-2.43407101E+01
3.49000000E+08	 8.16603183E-01	-2.43757619E+01
3.50000000E+08	 8.16102843E-01	-2.44196494E+01
3.51000000E+08	 8.15518892E-01	-2.44586396E+01
3.52000000E+08	 8.14867524E-01	-2.44947467E+01
3.53000000E+08	 8.14299171E-01	-2.45408206E+01
3.54000000E+08	 8.13740310E-01	-2.45730020E+01
3.55000000E+08	 8.13308520E-01	-2.46212208E+01
3.56000000E+08	 8.12797409E-01	-2.46542497E+01
3.57000000E+08	 8.12161723E-01	-2.46883443E+01
3.58000000E+08	 8.11714049E-01	-2.47344068E+01
3.59000000E+08	 8.11077065E-01	-2.47720496E+01
3.60000000E+08	 8.10544967E-01	-2.48051572E+01
3.61000000E+08	 8.10006389E-01	-2.48470374E+01
3.62000000E+08	 8.09513514E-01	-2.48873605E+01
3.63000000E+08	 8.08997796E-01	-2.49190283E+01
3.64000000E+08	 8.08458727E-01	-2.49614628E+01
3.65000000E+08	 8.07932855E-01	-2.49954983E+01
3.66000000E+08	 8.07422524E-01	-2.50325669E+01
3.67000000E+08	 8.06871282E-01	-2.50653526E+01
3.68000000E+08	 8.06347526E-01	-2.50998050E+01
3.69000000E+08	 8.05827263E-01	-2.51361712E+01
3.70000000E+08	 8.05327302E-01	-2.51727529E+01
3.71000000E+08	 8.04785965E-01	-2.52042479E+01
3.72000000E+08	 8.04334930E-01	-2.52347089E+01
3.73000000E+08	 8.03775289E-01	-2.52767638E+01
3.74000000E+08	 8.03288868E-01	-2.53033952E+01
3.75000000E+08	 8.02801210E-01	-2.53450125E+01
3.76000000E+08	 8.02350011E-01	-2.53779552E+01
3.77000000E+08	 8.01802377E-01	-2.54057613E+01
3.78000000E+08	 8.01359103E-01	-2.54380249E+01
3.79000000E+08	 8.00786057E-01	-2.54665026E+01
3.80000000E+08	 8.00336910E-01	-2.55003121E+01
3.81000000E+08	 7.99743705E-01	-2.55345287E+01
3.82000000E+08	 7.99364283E-01	-2.55674570E+01
3.83000000E+08	 7.98750651E-01	-2.56016719E+01
3.84000000E+08	 7.98270215E-01	-2.56290894E+01
3.85000000E+08	 7.97770166E-01	-2.56528869E+01
3.86000000E+08	 7.97246665E-01	-2.56900263E+01
3.87000000E+08	 7.96862144E-01	-2.57205705E+01
3.88000000E+08	 7.96220605E-01	-2.57467373E+01
3.89000000E+08	 7.95694984E-01	-2.57805466E+01
3.90000000E+08	 7.95207768E-01	-2.58186411E+01
3.91000000E+08	 7.94698455E-01	-2.58387453E+01
3.92000000E+08	 7.94077837E-01	-2.58784503E+01
3.93000000E+08	 7.93666192E-01	-2.59032988E+01
3.94000000E+08	 7.93172961E-01	-2.59226585E+01
3.95000000E+08	 7.92727082E-01	-2.59544563E+01
3.96000000E+08	 7.92119953E-01	-2.59897145E+01
3.97000000E+08	 7.91665956E-01	-2.60201159E+01
3.98000000E+08	 7.91168656E-01	-2.60468424E+01
3.99000000E+08	 7.90576027E-01	-2.60759401E+01
4.00000000E+08	 7.90167472E-01	-2.61048824E+01
4.01000000E+08	 7.89534289E-01	-2.61302388E+01
4.02000000E+08	 7.89029644E-01	-2.61573749E+01
4.03000000E+08	 7.88467585E-01	-2.61903481E+01
4.04000000E+08	 7.88037183E-01	-2.62134056E+01
4.05000000E+08	 7.87564411E-01	-2.62404808E+01
4.06000000E+08	 7.86930846E-01	-2.62682690E+01
4.07000000E+08	 7.86383382E-01	-2.62929748E+01
4.08000000E+08	 7.85890973E-01	-2.63196527E+01
4.09000000E+08	 7.85328575E-01	-2.63414755E+01
4.10000000E+08	 7.84850594E-01	-2.63725714E+01
4.11000000E+08	 7.84363551E-01	-2.64006840E+01
4.12000000E+08	 7.83864753E-01	-2.64265228E+01
4.13000000E+08	 7.83407481E-01	-2.64549639E+01
4.14000000E+08	 7.82776948E-01	-2.64723294E+01
4.15000000E+08	 7.82187057E-01	-2.65018755E+01
4.16000000E+08	 7.81735245E-01	-2.65255315E+01
4.17000000E+08	 7.81299639E-01	-2.65525395E+01
4.18000000E+08	 7.80694167E-01	-2.65732197E+01
4.19000000E+08	 7.80185462E-01	-2.66042891E+01
4.20000000E+08	 7.79644442E-01	-2.66277053E+01
4.21000000E+08	 7.79108595E-01	-2.66449312E+01
4.22000000E+08	 7.78554926E-01	-2.66685832E+01
4.23000000E+08	 7.78057445E-01	-2.67071878E+01
4.24000000E+08	 7.77472812E-01	-2.67244182E+01
4.25000000E+08	 7.76992087E-01	-2.67509777E+01
4.26000000E+08	 7.76414148E-01	-2.67770536E+01
4.27000000E+08	 7.75949832E-01	-2.67951429E+01
4.28000000E+08	 7.75369875E-01	-2.68148874E+01
4.29000000E+08	 7.74799176E-01	-2.68442659E+01
4.30000000E+08	 7.74412198E-01	-2.68610369E+01
4.31000000E+08	 7.73776733E-01	-2.68845197E+01
4.32000000E+08	 7.73262207E-01	-2.69042396E+01
4.33000000E+08	 7.72710241E-01	-2.69333518E+01
4.34000000E+08	 7.72116662E-01	-2.69517181E+01
4.35000000E+08	 7.71531456E-01	-2.69722811E+01
4.36000000E+08	 7.71009907E-01	-2.70053116E+01
4.37000000E+08	 7.70514830E-01	-2.70195721E+01
4.38000000E+08	 7.69924094E-01	-2.70448897E+01
4.39000000E+08	 7.69432469E-01	-2.70677306E+01
4.40000000E+08	 7.68926982E-01	-2.70897158E+01
4.41000000E+08	 7.68310159E-01	-2.71112798E+01
4.42000000E+08	 7.67721176E-01	-2.71344770E+01
4.43000000E+08	 7.67286602E-01	-2.71535978E+01
4.44000000E+08	 7.66704594E-01	-2.71793458E+01
4.45000000E+08	 7.66131591E-01	-2.71993603E+01
4.46000000E+08	 7.65572917E-01	-2.72255952E+01
4.47000000E+08	 7.65117799E-01	-2.72410368E+01
4.48000000E+08	 7.64557233E-01	-2.72674901E+01
4.49000000E+08	 7.63941011E-01	-2.72891400E+01
4.50000000E+08	 7.63419077E-01	-2.73139366E+01
4.51000000E+08	 7.62763030E-01	-2.73264717E+01
4.52000000E+08	 7.62158879E-01	-2.73516005E+01
4.53000000E+08	 7.61749856E-01	-2.73770865E+01
4.54000000E+08	 7.61147090E-01	-2.73991800E+01
4.55000000E+08	 7.60636909E-01	-2.74180895E+01
4.56000000E+08	 7.60068633E-01	-2.74355709E+01
4.57000000E+08	 7.59516068E-01	-2.74680653E+01
4.58000000E+08	 7.58955967E-01	-2.74855962E+01
4.59000000E+08	 7.58451631E-01	-2.75025544E+01
4.60000000E+08	 7.57891098E-01	-2.75326164E+01
4.61000000E+08	 7.57306730E-01	-2.75501440E+01
4.62000000E+08	 7.56720503E-01	-2.75702842E+01
4.63000000E+08	 7.56184184E-01	-2.75933320E+01
4.64000000E+08	 7.55609235E-01	-2.76095701E+01
4.65000000E+08	 7.55097078E-01	-2.76264884E+01
4.66000000E+08	 7.54513298E-01	-2.76522754E+01
4.67000000E+08	 7.53924129E-01	-2.76727931E+01
4.68000000E+08	 7.53392954E-01	-2.76965903E+01
4.69000000E+08	 7.52774999E-01	-2.77204816E+01
4.70000000E+08	 7.52334382E-01	-2.77373039E+01
4.71000000E+08	 7.51671863E-01	-2.77506335E+01
4.72000000E+08	 7.51150840E-01	-2.77743346E+01
4.73000000E+08	 7.50565290E-01	-2.78003246E+01
4.74000000E+08	 7.49985044E-01	-2.78245776E+01
4.75000000E+08	 7.49352750E-01	-2.78385252E+01
4.76000000E+08	 7.48827126E-01	-2.78579890E+01
4.77000000E+08	 7.48263944E-01	-2.78831390E+01
4.78000000E+08	 7.47776357E-01	-2.78978837E+01
4.79000000E+08	 7.47063204E-01	-2.79235261E+01
4.80000000E+08	 7.46589737E-01	-2.79457332E+01
4.81000000E+08	 7.45997592E-01	-2.79709203E+01
4.82000000E+08	 7.45411633E-01	-2.79875616E+01
4.83000000E+08	 7.44868958E-01	-2.80052870E+01
4.84000000E+08	 7.44324846E-01	-2.80350172E+01
4.85000000E+08	 7.43710640E-01	-2.80575701E+01
4.86000000E+08	 7.43138024E-01	-2.80800922E+01
4.87000000E+08	 7.42602881E-01	-2.80932954E+01
4.88000000E+08	 7.42077082E-01	-2.81152153E+01
4.89000000E+08	 7.41509440E-01	-2.81378839E+01
4.90000000E+08	 7.40952489E-01	-2.81660160E+01
4.91000000E+08	 7.40347187E-01	-2.81827110E+01
4.92000000E+08	 7.39806486E-01	-2.82107459E+01
4.93000000E+08	 7.39223868E-01	-2.82257418E+01
4.94000000E+08	 7.38630734E-01	-2.82547106E+01
4.95000000E+08	 7.38104164E-01	-2.82734265E+01
4.96000000E+08	 7.37488145E-01	-2.82960485E+01
4.97000000E+08	 7.36970794E-01	-2.83266081E+01
4.98000000E+08	 7.36463413E-01	-2.83457968E+01
4.99000000E+08	 7.35837437E-01	-2.83656801E+01
5.00000000E+08	 7.35311860E-01	-2.83841437E+01
5.01000000E+08	 7.34768864E-01	-2.84115672E+01
5.02000000E+08	 7.34172961E-01	-2.84358780E+01
5.03000000E+08	 7.33579288E-01	-2.84577205E+01
5.04000000E+08	 7.33132833E-01	-2.84865438E+01
5.05000000E+08	 7.32522669E-01	-2.85050618E+01
5.06000000E+08	 7.31943126E-01	-2.85296227E+01
5.07000000E+08	 7.31470822E-01	-2.85538720E+01
5.08000000E+08	 7.30907076E-01	-2.85785341E+01
5.09000000E+08	 7.30335697E-01	-2.85984313E+01
5.10000000E+08	 7.29836438E-01	-2.86231921E+01
5.11000000E+08	 7.29330223E-01	-2.86509649E+01
5.12000000E+08	 7.28722966E-01	-2.86663260E+01
5.13000000E+08	 7.28188678E-01	-2.86896857E+01
5.14000000E+08	 7.27722600E-01	-2.87121118E+01
5.15000000E+08	 7.27163923E-01	-2.87467075E+01
5.16000000E+08	 7.26590251E-01	-2.87645745E+01
5.17000000E+08	 7.26092079E-01	-2.87921220E+01
5.18000000E+08	 7.25497687E-01	-2.88254980E+01
5.19000000E+08	 7.25043099E-01	-2.88424405E+01
5.20000000E+08	 7.24444218E-01	-2.88651057E+01
5.21000000E+08	 7.23993678E-01	-2.88891289E+01
5.22000000E+08	 7.23401157E-01	-2.89190420E+01
5.23000000E+08	 7.22867166E-01	-2.89427214E+01
5.24000000E+08	 7.22363103E-01	-2.89719262E+01
5.25000000E+08	 7.21768032E-01	-2.89972278E+01
5.26000000E+08	 7.21250792E-01	-2.90209855E+01
5.27000000E+08	 7.20765495E-01	-2.90397563E+01
5.28000000E+08	 7.20174540E-01	-2.90718946E+01
5.29000000E+08	 7.19711057E-01	-2.91024322E+01
5.30000000E+08	 7.19225896E-01	-2.91222346E+01
5.31000000E+08	 7.18717619E-01	-2.91501646E+01
5.32000000E+08	 7.18195886E-01	-2.91746903E+01
5.33000000E+08	 7.17754399E-01	-2.92047234E+01
5.34000000E+08	 7.17109596E-01	-2.92275498E+01
5.35000000E+08	 7.16753110E-01	-2.92538018E+01
5.36000000E+08	 7.16298779E-01	-2.92814943E+01
5.37000000E+08	 7.15699960E-01	-2.93085390E+01
5.38000000E+08	 7.15139679E-01	-2.93302861E+01
5.39000000E+08	 7.14628375E-01	-2.93603213E+01
5.40000000E+08	 7.14158918E-01	-2.93873907E+01
5.41000000E+08	 7.13672404E-01	-2.94104866E+01
5.42000000E+08	 7.13110087E-01	-2.94425110E+01
5.43000000E+08	 7.12643460E-01	-2.94762763E+01
5.44000000E+08	 7.12211097E-01	-2.95038307E+01
5.45000000E+08	 7.11618839E-01	-2.95328715E+01
5.46000000E+08	 7.11204198E-01	-2.95637800E+01
5.47000000E+08	 7.10732431E-01	-2.95837949E+01
5.48000000E+08	 7.10212897E-01	-2.96102739E+01
5.49000000E+08	 7.09801579E-01	-2.96380241E+01
5.50000000E+08	 7.09304290E-01	-2.96648884E+01
5.51000000E+08	 7.08789613E-01	-2.97001263E+01
5.52000000E+08	 7.08270902E-01	-2.97182724E+01
5.53000000E+08	 7.07855778E-01	-2.97626692E+01
5.54000000E+08	 7.07405166E-01	-2.97880343E+01
5.55000000E+08	 7.06939748E-01	-2.98130705E+01
5.56000000E+08	 7.06498076E-01	-2.98371611E+01
5.57000000E+08	 7.06027711E-01	-2.98637745E+01
5.58000000E+08	 7.05562141E-01	-2.98960933E+01
5.59000000E+08	 7.05204929E-01	-2.99180904E+01
5.60000000E+08	 7.04719893E-01	-2.99508417E+01
5.61000000E+08	 7.04314231E-01	-2.99824239E+01
5.62000000E+08	 7.03854481E-01	-3.00088995E+01
5.63000000E+08	 7.03409041E-01	-3.00406154E+01
5.64000000E+08	 7.02984672E-01	-3.00708685E+01
5.65000000E+08	 7.02576534E-01	-3.00933521E+01
5.66000000E+08	 7.02165197E-01	-3.01262734E+01
5.67000000E+08	 7.01751114E-01	-3.01545086E+01
5.68000000E+08	 7.01310582E-01	-3.01867338E+01
5.69000000E+08	 7.01008810E-01	-3.02106583E+01
5.70000000E+08	 7.00501181E-01	-3.02428485E+01
5.71000000E+08	 7.00135813E-01	-3.02619392E+01
5.72000000E+08	 6.99716484E-01	-3.02957766E+01
5.73000000E+08	 6.99324878E-01	-3.03208048E+01
5.74000000E+08	 6.98873578E-01	-3.03474837E+01
5.75000000E+08	 6.98523891E-01	-3.03821993E+01
5.76000000E+08	 6.98109596E-01	-3.04057293E+01
5.77000000E+08	 6.97773893E-01	-3.04424399E+01
5.78000000E+08	 6.97434544E-01	-3.04652615E+01
5.79000000E+08	 6.97016993E-01	-3.04989517E+01
5.80000000E+08	 6.96650592E-01	-3.05254323E+01
5.81000000E+08	 6.96261044E-01	-3.05526261E+01
5.82000000E+08	 6.95881881E-01	-3.05859510E+01
5.83000000E+08	 6.95461942E-01	-3.06082082E+01
5.84000000E+08	 6.95090079E-01	-3.06367206E+01
5.85000000E+08	 6.94888230E-01	-3.06728321E+01
5.86000000E+08	 6.94486218E-01	-3.06938060E+01
5.87000000E+08	 6.94138687E-01	-3.07187954E+01
5.88000000E+08	 6.93745834E-01	-3.07472042E+01
5.89000000E+08	 6.93415418E-01	-3.07759859E+01
5.90000000E+08	 6.93077973E-01	-3.08070685E+01
5.91000000E+08	 6.92674762E-01	-3.08302420E+01
5.92000000E+08	 6.92300627E-01	-3.08568741E+01
5.93000000E+08	 6.92095745E-01	-3.08850737E+01
5.94000000E+08	 6.91621476E-01	-3.09105806E+01
5.95000000E+08	 6.91430989E-01	-3.09333621E+01
5.96000000E+08	 6.90996113E-01	-3.09729259E+01
5.97000000E+08	 6.90769535E-01	-3.09997271E+01
5.98000000E+08	 6.90524620E-01	-3.10308240E+01
5.99000000E+08	 6.90135239E-01	-3.10532200E+01
6.00000000E+08	 6.89785108E-01	-3.10835470E+01
6.01000000E+08	 6.89587251E-01	-3.11074537E+01
6.02000000E+08	 6.89261523E-01	-3.11336123E+01
6.03000000E+08	 6.88967471E-01	-3.11643153E+01
6.04000000E+08	 6.88630313E-01	-3.11943784E+01
6.05000000E+08	 6.88347227E-01	-3.12125958E+01
6.06000000E+08	 6.87987423E-01	-3.12369387E+01
6.07000000E+08	 6.87757782E-01	-3.12667198E+01
6.08000000E+08	 6.87391032E-01	-3.12951419E+01
6.09000000E+08	 6.87215992E-01	-3.13227398E+01
6.10000000E+08	 6.86830245E-01	-3.13531254E+01
6.11000000E+08	 6.86535244E-01	-3.13720527E+01
6.12000000E+08	 6.86292994E-01	-3.14086730E+01
6.13000000E+08	 6.86038313E-01	-3.14323491E+01
6.14000000E+08	 6.85775937E-01	-3.14613583E+01
6.15000000E+08	 6.85576583E-01	-3.14768562E+01
6.16000000E+08	 6.85252704E-01	-3.15079753E+01
6.17000000E+08	 6.85066343E-01	-3.15258534E+01
6.18000000E+08	 6.84879532E-01	-3.15524517E+01
6.19000000E+08	 6.84587285E-01	-3.15753205E+01
6.20000000E+08	 6.84339186E-01	-3.16035214E+01
6.21000000E+08	 6.84152053E-01	-3.16235928E+01
6.22000000E+08	 6.83896870E-01	-3.16494885E+01
6.23000000E+08	 6.83688171E-01	-3.16750070E+01
6.24000000E+08	 6.83370673E-01	-3.16956559E+01
6.25000000E+08	 6.83199401E-01	-3.17205218E+01
6.26000000E+08	 6.82999783E-01	-3.17420949E+01
6.27000000E+08	 6.82756518E-01	-3.17615428E+01
6.28000000E+08	 6.82546131E-01	-3.17793214E+01
6.29000000E+08	 6.82281550E-01	-3.18122862E+01
6.30000000E+08	 6.82028529E-01	-3.18319680E+01
6.31000000E+08	 6.81940712E-01	-3.18531599E+01
6.32000000E+08	 6.81595112E-01	-3.18693433E+01
6.33000000E+08	 6.81366883E-01	-3.18984984E+01
6.34000000E+08	 6.81205756E-01	-3.19135651E+01
6.35000000E+08	 6.80988245E-01	-3.19367547E+01
6.36000000E+08	 6.80854936E-01	-3.19642721E+01
6.37000000E+08	 6.80620119E-01	-3.19843306E+01
6.38000000E+08	 6.80417367E-01	-3.20046286E+01
6.39000000E+08	 6.80227126E-01	-3.20196602E+01
6.40000000E+08	 6.80055988E-01	-3.20385216E+01
6.41000000E+08	 6.79909842E-01	-3.20540759E+01
6.42000000E+08	 6.79710027E-01	-3.20767170E+01
6.43000000E+08	 6.79498201E-01	-3.20971701E+01
6.44000000E+08	 6.79392966E-01	-3.21081201E+01
6.45000000E+08	 6.79185854E-01	-3.21262242E+01
6.46000000E+08	 6.79037308E-01	-3.21470018E+01
6.47000000E+08	 6.78813811E-01	-3.21559848E+01
6.48000000E+08	 6.78562988E-01	-3.21828205E+01
6.49000000E+08	 6.78488943E-01	-3.21985423E+01
6.50000000E+08	 6.78281043E-01	-3.22140468E+01
6.51000000E+08	 6.78062574E-01	-3.22286374E+01
6.52000000E+08	 6.77849524E-01	-3.22428587E+01
6.53000000E+08	 6.77722721E-01	-3.22623496E+01
6.54000000E+08	 6.77586013E-01	-3.22837593E+01
6.55000000E+08	 6.77304798E-01	-3.22910702E+01
6.56000000E+08	 6.77235226E-01	-3.23114212E+01
6.57000000E+08	 6.77009121E-01	-3.23243254E+01
6.58000000E+08	 6.76896533E-01	-3.23394547E+01
6.59000000E+08	 6.76749160E-01	-3.23535924E+01
6.60000000E+08	 6.76549307E-01	-3.23698687E+01
6.61000000E+08	 6.76375079E-01	-3.23884605E+01
6.62000000E+08	 6.76182410E-01	-3.24011939E+01
6.63000000E+08	 6.76040937E-01	-3.24116516E+01
6.64000000E+08	 6.75885671E-01	-3.24308066E+01
6.65000000E+08	 6.75725241E-01	-3.24419844E+01
6.66000000E+08	 6.75508388E-01	-3.24493221E+01
6.67000000E+08	 6.75398985E-01	-3.24601854E+01
6.68000000E+08	 6.75196294E-01	-3.24757331E+01
6.69000000E+08	 6.75139757E-01	-3.24872649E+01
6.70000000E+08	 6.74965095E-01	-3.24987533E+01
6.71000000E+08	 6.74777141E-01	-3.25011880E+01
6.72000000E+08	 6.74583797E-01	-3.25222448E+01
6.73000000E+08	 6.74427668E-01	-3.25303275E+01
6.74000000E+08	 6.74340060E-01	-3.25401410E+01
6.75000000E+08	 6.74208829E-01	-3.25523046E+01
6.76000000E+08	 6.74026590E-01	-3.25599114E+01
6.77000000E+08	 6.73808873E-01	-3.25710637E+01
6.78000000E+08	 6.73716820E-01	-3.25755419E+01
6.79000000E+08	 6.73633143E-01	-3.25825506E+01
6.80000000E+08	 6.73369778E-01	-3.25925989E+01
6.81000000E+08	 6.73228453E-01	-3.25984148E+01
6.82000000E+08	 6.73034945E-01	-3.26100504E+01
6.83000000E+08	 6.72869922E-01	-3.26195812E+01
6.84000000E+08	 6.72747017E-01	-3.26278995E+01
6.85000000E+08	 6.72574909E-01	-3.26273631E+01
6.86000000E+08	 6.72349336E-01	-3.26357902E+01
6.87000000E+08	 6.72274520E-01	-3.26417910E+01
6.88000000E+08	 6.72144249E-01	-3.26510859E+01
6.89000000E+08	 6.71921657E-01	-3.26548216E+01
6.90000000E+08	 6.71722916E-01	-3.26636834E+01
6.91000000E+08	 6.71599865E-01	-3.26685170E+01
6.92000000E+08	 6.71513657E-01	-3.26653062E+01
6.93000000E+08	 6.71234835E-01	-3.26805390E+01
6.94000000E+08	 6.71094761E-01	-3.26786490E+01
6.95000000E+08	 6.70995199E-01	-3.26868835E+01
6.96000000E+08	 6.70756145E-01	-3.26912023E+01
6.97000000E+08	 6.70578534E-01	-3.26992240E+01
6.98000000E+08	 6.70374064E-01	-3.26950450E+01
6.99000000E+08	 6.70260631E-01	-3.26940255E+01
7.00000000E+08	 6.70054989E-01	-3.27053540E+01
7.01000000E+08	 6.69921409E-01	-3.27043060E+01
7.02000000E+08	 6.69743774E-01	-3.27067139E+01
7.03000000E+08	 6.69587468E-01	-3.27050656E+01
7.04000000E+08	 6.69427364E-01	-3.27147853E+01
7.05000000E+08	 6.69232591E-01	-3.27066919E+01
7.06000000E+08	 6.69081584E-01	-3.27095550E+01
7.07000000E+08	 6.68825710E-01	-3.27155420E+01
7.08000000E+08	 6.68657770E-01	-3.27095933E+01
7.09000000E+08	 6.68513376E-01	-3.27102058E+01
7.10000000E+08	 6.68277485E-01	-3.27058127E+01
7.11000000E+08	 6.68107429E-01	-3.27110320E+01
7.12000000E+08	 6.67927684E-01	-3.27112282E+01
7.13000000E+08	 6.67573523E-01	-3.27135964E+01
7.14000000E+08	 6.67424315E-01	-3.27113724E+01
7.15000000E+08	 6.67254126E-01	-3.27038123E+01
7.16000000E+08	 6.67076378E-01	-3.27085543E+01
7.17000000E+08	 6.66850787E-01	-3.27101207E+01
7.18000000E+08	 6.66620611E-01	-3.27101796E+01
7.19000000E+08	 6.66442855E-01	-3.27019898E+01
7.20000000E+08	 6.66327596E-01	-3.27057973E+01
7.21000000E+08	 6.65988599E-01	-3.27059038E+01
7.22000000E+08	 6.65654939E-01	-3.26987266E+01
7.23000000E+08	 6.65511096E-01	-3.27056538E+01
7.24000000E+08	 6.65329798E-01	-3.27061437E+01
7.25000000E+08	 6.65155643E-01	-3.27035303E+01
7.26000000E+08	 6.64887065E-01	-3.27004043E+01
7.27000000E+08	 6.64601192E-01	-3.26983110E+01
7.28000000E+08	 6.64410751E-01	-3.26954422E+01
7.29000000E+08	 6.64203013E-01	-3.26925643E+01
7.30000000E+08	 6.63921262E-01	-3.26922457E+01
7.31000000E+08	 6.63618289E-01	-3.26909094E+01
7.32000000E+08	 6.63395938E-01	-3.26847741E+01
7.33000000E+08	 6.63086359E-01	-3.26721741E+01
7.34000000E+08	 6.62928661E-01	-3.26756214E+01
7.35000000E+08	 6.62651375E-01	-3.26687365E+01
7.36000000E+08	 6.62405320E-01	-3.26621758E+01
7.37000000E+08	 6.62143793E-01	-3.26624283E+01
7.38000000E+08	 6.61900555E-01	-3.26587049E+01
7.39000000E+08	 6.61616278E-01	-3.26563558E+01
7.40000000E+08	 6.61364829E-01	-3.26448105E+01
7.41000000E+08	 6.61126498E-01	-3.26453804E+01
7.42000000E+08	 6.60840877E-01	-3.26410008E+01
7.43000000E+08	 6.60554749E-01	-3.26381569E+01
7.44000000E+08	 6.60273197E-01	-3.26392392E+01
7.45000000E+08	 6.60035332E-01	-3.26349907E+01
7.46000000E+08	 6.59800680E-01	-3.26335805E+01
7.47000000E+08	 6.59568469E-01	-3.26255712E+01
7.48000000E+08	 6.59239433E-01	-3.26201645E+01
7.49000000E+08	 6.59012949E-01	-3.26248941E+01
7.50000000E+08	 6.58781206E-01	-3.26122384E+01
7.51000000E+08	 6.58438692E-01	-3.26144261E+01
7.52000000E+08	 6.58232898E-01	-3.26094510E+01
7.53000000E+08	 6.57919319E-01	-3.26048501E+01
7.54000000E+08	 6.57621106E-01	-3.25942535E+01
7.55000000E+08	 6.57371232E-01	-3.25974706E+01
7.56000000E+08	 6.57007396E-01	-3.25908293E+01
7.57000000E+08	 6.56742365E-01	-3.25844679E+01
7.58000000E+08	 6.56457155E-01	-3.25810634E+01
7.59000000E+08	 6.56129402E-01	-3.25764759E+01
7.60000000E+08	 6.55788934E-01	-3.25678694E+01
7.61000000E+08	 6.55568960E-01	-3.25673406E+01
7.62000000E+08	 6.55181435E-01	-3.25623088E+01
7.63000000E+08	 6.54962249E-01	-3.25535822E+01
7.64000000E+08	 6.54627471E-01	-3.25576178E+01
7.65000000E+08	 6.54287047E-01	-3.25497734E+01
7.66000000E+08	 6.53983687E-01	-3.25404293E+01
7.67000000E+08	 6.53682448E-01	-3.25411215E+01
7.68000000E+08	 6.53321734E-01	-3.25342399E+01
7.69000000E+08	 6.53013261E-01	-3.25381516E+01
7.70000000E+08	 6.52677597E-01	-3.25288219E+01
7.71000000E+08	 6.52436077E-01	-3.25265441E+01
7.72000000E+08	 6.52062087E-01	-3.25198112E+01
7.73000000E+08	 6.51683440E-01	-3.25169559E+01
7.74000000E+08	 6.51409958E-01	-3.25182052E+01
7.75000000E+08	 6.51020378E-01	-3.25088560E+01
7.76000000E+08	 6.50749489E-01	-3.25168821E+01
7.77000000E+08	 6.50369459E-01	-3.25146373E+01
7.78000000E+08	 6.50037037E-01	-3.25023557E+01
7.79000000E+08	 6.49670604E-01	-3.24950070E+01
7.80000000E+08	 6.49408000E-01	-3.24992774E+01
7.81000000E+08	 6.49102382E-01	-3.24972832E+01
7.82000000E+08	 6.48707565E-01	-3.24907780E+01
7.83000000E+08	 6.48386393E-01	-3.24903297E+01
7.84000000E+08	 6.48060600E-01	-3.24825837E+01
7.85000000E+08	 6.47635400E-01	-3.24890673E+01
7.86000000E+08	 6.47366455E-01	-3.24808859E+01
7.87000000E+08	 6.47001664E-01	-3.24851357E+01
7.88000000E+08	 6.46717067E-01	-3.24731583E+01
7.89000000E+08	 6.46305392E-01	-3.24764916E+01
7.90000000E+08	 6.45999514E-01	-3.24751644E+01
7.91000000E+08	 6.45572837E-01	-3.24701693E+01
7.92000000E+08	 6.45229349E-01	-3.24748053E+01
7.93000000E+08	 6.44912705E-01	-3.24704562E+01
7.94000000E+08	 6.44522096E-01	-3.24644704E+01
7.95000000E+08	 6.44162696E-01	-3.24742933E+01
7.96000000E+08	 6.43783441E-01	-3.24728566E+01
7.97000000E+08	 6.43398622E-01	-3.24765137E+01
7.98000000E+08	 6.43036416E-01	-3.24739766E+01
7.99000000E+08	 6.42746279E-01	-3.24705532E+01
8.00000000E+08	 6.42358827E-01	-3.24704335E+01
8.01000000E+08	 6.41928891E-01	-3.24679879E+01
8.02000000E+08	 6.41604408E-01	-3.24719422E+01
8.03000000E+08	 6.41257166E-01	-3.24654431E+01
8.04000000E+08	 6.40857162E-01	-3.24714149E+01
8.05000000E+08	 6.40465835E-01	-3.24706929E+01
8.06000000E+08	 6.40095223E-01	-3.24711750E+01
8.07000000E+08	 6.39650602E-01	-3.24691054E+01
8.08000000E+08	 6.39233647E-01	-3.24699320E+01
8.09000000E+08	 6.38900861E-01	-3.24695370E+01
8.10000000E+08	 6.38573308E-01	-3.24779824E+01
8.11000000E+08	 6.38082509E-01	-3.24785384E+01
8.12000000E+08	 6.37760622E-01	-3.24840268E+01
8.13000000E+08	 6.37346338E-01	-3.24831563E+01
8.14000000E+08	 6.36930174E-01	-3.24847625E+01
8.15000000E+08	 6.36576678E-01	-3.24898900E+01
8.16000000E+08	 6.36157845E-01	-3.24930236E+01
8.17000000E+08	 6.35773514E-01	-3.24860304E+01
8.18000000E+08	 6.35375991E-01	-3.24968880E+01
8.19000000E+08	 6.34970949E-01	-3.25031875E+01
8.20000000E+08	 6.34622551E-01	-3.24996350E+01
8.21000000E+08	 6.34235930E-01	-3.25069401E+01
8.22000000E+08	 6.33846376E-01	-3.25086683E+01
8.23000000E+08	 6.33427362E-01	-3.25112678E+01
8.24000000E+08	 6.33054660E-01	-3.25116459E+01
8.25000000E+08	 6.32585685E-01	-3.25216858E+01
8.26000000E+08	 6.32185836E-01	-3.25245359E+01
8.27000000E+08	 6.31840161E-01	-3.25366358E+01
8.28000000E+08	 6.31459387E-01	-3.25361872E+01
8.29000000E+08	 6.31032283E-01	-3.25459580E+01
8.30000000E+08	 6.30636818E-01	-3.25542263E+01
8.31000000E+08	 6.30252904E-01	-3.25641733E+01
8.32000000E+08	 6.29885001E-01	-3.25675592E+01
8.33000000E+08	 6.29541217E-01	-3.25694841E+01
8.34000000E+08	 6.29135503E-01	-3.25811849E+01
8.35000000E+08	 6.28801341E-01	-3.25799981E+01
8.36000000E+08	 6.28339295E-01	-3.25967405E+01
8.37000000E+08	 6.27922080E-01	-3.25933914E+01
8.38000000E+08	 6.27576363E-01	-3.26103891E+01
8.39000000E+08	 6.27151214E-01	-3.26173435E+01
8.40000000E+08	 6.26798403E-01	-3.26254281E+01
8.41000000E+08	 6.26455811E-01	-3.26356555E+01
8.42000000E+08	 6.26062971E-01	-3.26429532E+01
8.43000000E+08	 6.25611588E-01	-3.26496441E+01
8.44000000E+08	 6.25320533E-01	-3.26500442E+01
8.45000000E+08	 6.24896788E-01	-3.26704513E+01
8.46000000E+08	 6.24515968E-01	-3.26726392E+01
8.47000000E+08	 6.24181168E-01	-3.26908310E+01
8.48000000E+08	 6.23713868E-01	-3.26954884E+01
8.49000000E+08	 6.23310952E-01	-3.27031076E+01
8.50000000E+08	 6.22993388E-01	-3.27132542E+01
8.51000000E+08	 6.22633032E-01	-3.27260291E+01
8.52000000E+08	 6.22287095E-01	-3.27400165E+01
8.53000000E+08	 6.21842921E-01	-3.27469818E+01
8.54000000E+08	 6.21508075E-01	-3.27573830E+01
8.55000000E+08	 6.21128465E-01	-3.27702523E+01
8.56000000E+08	 6.20715259E-01	-3.27782992E+01
8.57000000E+08	 6.20437381E-01	-3.27823630E+01
8.58000000E+08	 6.20017250E-01	-3.28051186E+01
8.59000000E+08	 6.19701350E-01	-3.28167876E+01
8.60000000E+08	 6.19317928E-01	-3.28314444E+01
8.61000000E+08	 6.18997570E-01	-3.28357246E+01
8.62000000E+08	 6.18517119E-01	-3.28503911E+01
8.63000000E+08	 6.18274771E-01	-3.28688591E+01
8.64000000E+08	 6.17958011E-01	-3.28697467E+01
8.65000000E+08	 6.17422116E-01	-3.28854302E+01
8.66000000E+08	 6.17095214E-01	-3.29010094E+01
8.67000000E+08	 6.16711713E-01	-3.29118354E+01
8.68000000E+08	 6.16372710E-01	-3.29264126E+01
8.69000000E+08	 6.16093939E-01	-3.29474356E+01
8.70000000E+08	 6.15628008E-01	-3.29558122E+01
8.71000000E+08	 6.15244340E-01	-3.29782306E+01
8.72000000E+08	 6.14898305E-01	-3.29878462E+01
8.73000000E+08	 6.14516465E-01	-3.30053925E+01
8.74000000E+08	 6.14236369E-01	-3.30210404E+01
8.75000000E+08	 6.13883300E-01	-3.30346940E+01
8.76000000E+08	 6.13483825E-01	-3.30495283E+01
8.77000000E+08	 6.13258267E-01	-3.30699699E+01
8.78000000E+08	 6.12844436E-01	-3.30823238E+01
8.79000000E+08	 6.12510032E-01	-3.31016908E+01
8.80000000E+08	 6.12112573E-01	-3.31170659E+01
8.81000000E+08	 6.11779943E-01	-3.31247113E+01
8.82000000E+08	 6.11424954E-01	-3.31445857E+01
8.83000000E+08	 6.11115139E-01	-3.31668528E+01
8.84000000E+08	 6.10790803E-01	-3.31832782E+01
8.85000000E+08	 6.10427579E-01	-3.31979237E+01
8.86000000E+08	 6.10157980E-01	-3.32134879E+01
8.87000000E+08	 6.09838733E-01	-3.32308922E+01
8.88000000E+08	 6.09510714E-01	-3.32480855E+01
8.89000000E+08	 6.09163598E-01	-3.32663614E+01
8.90000000E+08	 6.08857844E-01	-3.32829408E+01
8.91000000E+08	 6.08565085E-01	-3.32989661E+01
8.92000000E+08	 6.08295782E-01	-3.33236139E+01
8.93000000E+08	 6.07943580E-01	-3.33334917E+01
8.94000000E+08	 6.07573796E-01	-3.33557256E+01
8.95000000E+08	 6.07301080E-01	-3.33702372E+01
8.96000000E+08	 6.07021161E-01	-3.33881285E+01
8.97000000E+08	 6.06671675E-01	-3.34067155E+01
8.98000000E+08	 6.06385411E-01	-3.34299428E+01
8.99000000E+08	 6.06057609E-01	-3.34405787E+01
9.00000000E+08	 6.05833840E-01	-3.34575697E+01
9.01000000E+08	 6.05444134E-01	-3.34787791E+01
9.02000000E+08	 6.05257121E-01	-3.34901082E+01
9.03000000E+08	 6.04903476E-01	-3.35139603E+01
9.04000000E+08	 6.04649150E-01	-3.35308145E+01
9.05000000E+08	 6.04340072E-01	-3.35484697E+01
9.06000000E+08	 6.04051109E-01	-3.35570899E+01
9.07000000E+08	 6.03699122E-01	-3.35816847E+01
9.08000000E+08	 6.03477450E-01	-3.35958275E+01
9.09000000E+08	 6.03245987E-01	-3.36169245E+01
9.10000000E+08	 6.02926496E-01	-3.36353678E+01
9.11000000E+08	 6.02644203E-01	-3.36540463E+01
9.12000000E+08	 6.02357337E-01	-3.36743257E+01
9.13000000E+08	 6.02105197E-01	-3.36941187E+01
9.14000000E+08	 6.01820987E-01	-3.37063834E+01
9.15000000E+08	 6.01609408E-01	-3.37322311E+01
9.16000000E+08	 6.01261573E-01	-3.37513117E+01
9.17000000E+08	 6.01055023E-01	-3.37642662E+01
9.18000000E+08	 6.00784416E-01	-3.37862175E+01
9.19000000E+08	 6.00547052E-01	-3.38059631E+01
9.20000000E+08	 6.00169004E-01	-3.38196066E+01
9.21000000E+08	 6.00029310E-01	-3.38491376E+01
9.22000000E+08	 5.99718328E-01	-3.38635512E+01
9.23000000E+08	 5.99454984E-01	-3.38747961E+01
9.24000000E+08	 5.99294137E-01	-3.38945426E+01
9.25000000E+08	 5.98984138E-01	-3.39158509E+01
9.26000000E+08	 5.98838312E-01	-3.39379920E+01
9.27000000E+08	 5.98586458E-01	-3.39532486E+01
9.28000000E+08	 5.98375432E-01	-3.39676923E+01
9.29000000E+08	 5.98096705E-01	-3.39915265E+01
9.30000000E+08	 5.97950985E-01	-3.40059160E+01
9.31000000E+08	 5.97727931E-01	-3.40251341E+01
9.32000000E+08	 5.97441856E-01	-3.40401098E+01
9.33000000E+08	 5.97181709E-01	-3.40627448E+01
9.34000000E+08	 5.97007582E-01	-3.40817951E+01
9.35000000E+08	 5.96831384E-01	-3.41019042E+01
9.36000000E+08	 5.96618109E-01	-3.41142824E+01
9.37000000E+08	 5.96302829E-01	-3.41310183E+01
9.38000000E+08	 5.96136914E-01	-3.41560626E+01
9.39000000E+08	 5.95935694E-01	-3.41631261E+01
9.40000000E+08	 5.95678400E-01	-3.41865980E+01
9.41000000E+08	 5.95456863E-01	-3.42061597E+01
9.42000000E+08	 5.95256736E-01	-3.42162221E+01
9.43000000E+08	 5.95119164E-01	-3.42388829E+01
9.44000000E+08	 5.94858999E-01	-3.42499302E+01
9.45000000E+08	 5.94649655E-01	-3.42642506E+01
9.46000000E+08	 5.94427358E-01	-3.42762001E+01
9.47000000E+08	 5.94141929E-01	-3.42959041E+01
9.48000000E+08	 5.93995924E-01	-3.43121293E+01
9.49000000E+08	 5.93782036E-01	-3.43267228E+01
9.50000000E+08	 5.93562213E-01	-3.43400126E+01
9.51000000E+08	 5.93398100E-01	-3.43662143E+01
9.52000000E+08	 5.93221585E-01	-3.43797929E+01
9.53000000E+08	 5.93041646E-01	-3.44043846E+01
9.54000000E+08	 5.92765056E-01	-3.44141785E+01
9.55000000E+08	 5.92561567E-01	-3.44319606E+01
9.56000000E+08	 5.92389171E-01	-3.44468252E+01
9.57000000E+08	 5.92186629E-01	-3.44704317E+01
9.58000000E+08	 5.92025489E-01	-3.44831272E+01
9.59000000E+08	 5.91858778E-01	-3.45012646E+01
9.60000000E+08	 5.91653137E-01	-3.45185056E+01
9.61000000E+08	 5.91528357E-01	-3.45357440E+01
9.62000000E+08	 5.91316726E-01	-3.45518155E+01
9.63000000E+08	 5.91176449E-01	-3.45709365E+01
9.64000000E+08	 5.91050607E-01	-3.45909521E+01
9.65000000E+08	 5.90810949E-01	-3.45985227E+01
9.66000000E+08	 5.90676647E-01	-3.46156199E+01
9.67000000E+08	 5.90595641E-01	-3.46280571E+01
9.68000000E+08	 5.90391723E-01	-3.46460077E+01
9.69000000E+08	 5.90299353E-01	-3.46672959E+01
9.70000000E+08	 5.90088917E-01	-3.46796197E+01
9.71000000E+08	 5.89941276E-01	-3.46951621E+01
9.72000000E+08	 5.89665357E-01	-3.47009921E+01
9.73000000E+08	 5.89536959E-01	-3.47148351E+01
9.74000000E+08	 5.89475163E-01	-3.47276302E+01
9.75000000E+08	 5.89280463E-01	-3.47374458E+01
9.76000000E+08	 5.89156793E-01	-3.47576140E+01
9.77000000E+08	 5.88963729E-01	-3.47714235E+01
9.78000000E+08	 5.88798531E-01	-3.47871422E+01
9.79000000E+08	 5.88618890E-01	-3.47910341E+01
9.80000000E+08	 5.88417052E-01	-3.48063981E+01
9.81000000E+08	 5.88317507E-01	-3.48195665E+01
9.82000000E+08	 5.88120703E-01	-3.48315867E+01
9.83000000E+08	 5.88034929E-01	-3.48476149E+01
9.84000000E+08	 5.87896526E-01	-3.48593579E+01
9.85000000E+08	 5.87703182E-01	-3.48755066E+01
9.86000000E+08	 5.87554500E-01	-3.48796937E+01
9.87000000E+08	 5.87380956E-01	-3.48950303E+01
9.88000000E+08	 5.87185574E-01	-3.49043462E+01
9.89000000E+08	 5.87070546E-01	-3.49194078E+01
9.90000000E+08	 5.86983876E-01	-3.49356409E+01
9.91000000E+08	 5.86736736E-01	-3.49454474E+01
9.92000000E+08	 5.86671340E-01	-3.49591891E+01
9.93000000E+08	 5.86461841E-01	-3.49657146E+01
9.94000000E+08	 5.86322711E-01	-3.49748314E+01
9.95000000E+08	 5.86195076E-01	-3.49839874E+01
9.96000000E+08	 5.86001783E-01	-3.50023422E+01
9.97000000E+08	 5.85916549E-01	-3.50089163E+01
9.98000000E+08	 5.85789709E-01	-3.50203263E+01
9.99000000E+08	 5.85570527E-01	-3.50232484E+01
1.00000000E+09	 5.85541305E-01	-3.50407139E+01
1.00100000E+09	 5.85291289E-01	-3.50514758E+01
1.00200000E+09	 5.85211114E-01	-3.50648901E+01
1.00300000E+09	 5.85086142E-01	-3.50730896E+01
1.00400000E+09	 5.84901304E-01	-3.50771744E+01
1.00500000E+09	 5.84762977E-01	-3.50931856E+01
1.00600000E+09	 5.84666585E-01	-3.50993973E+01
1.00700000E+09	 5.84470289E-01	-3.51047987E+01
1.00800000E+09	 5.84417507E-01	-3.51193227E+01
1.00900000E+09	 5.84159194E-01	-3.51202876E+01
1.01000000E+09	 5.84122679E-01	-3.51301419E+01
1.01100000E+09	 5.83963744E-01	-3.51366998E+01
1.01200000E+09	 5.83865387E-01	-3.51509312E+01
1.01300000E+09	 5.83650876E-01	-3.51518460E+01
1.01400000E+09	 5.83594440E-01	-3.51599048E+01
1.01500000E+09	 5.83364971E-01	-3.51694735E+01
1.01600000E+09	 5.83238302E-01	-3.51743625E+01
1.01700000E+09	 5.83109685E-01	-3.51832063E+01
1.01800000E+09	 5.82895540E-01	-3.51956707E+01
1.01900000E+09	 5.82828843E-01	-3.51995009E+01
1.02000000E+09	 5.82614000E-01	-3.52021037E+01
1.02100000E+09	 5.82520227E-01	-3.52134102E+01
1.02200000E+09	 5.82323676E-01	-3.52201310E+01
1.02300000E+09	 5.82170789E-01	-3.52228416E+01
1.02400000E+09	 5.81996190E-01	-3.52251826E+01
1.02500000E+09	 5.81814891E-01	-3.52364603E+01
1.02600000E+09	 5.81684757E-01	-3.52397669E+01
1.02700000E+09	 5.81542603E-01	-3.52482086E+01
1.02800000E+09	 5.81393876E-01	-3.52463838E+01
1.02900000E+09	 5.81217535E-01	-3.52488742E+01
1.03000000E+09	 5.81123148E-01	-3.52606306E+01
1.03100000E+09	 5.80965125E-01	-3.52624458E+01
1.03200000E+09	 5.80674398E-01	-3.52661851E+01
1.03300000E+09	 5.80578876E-01	-3.52739848E+01
1.03400000E+09	 5.80445202E-01	-3.52756934E+01
1.03500000E+09	 5.80337777E-01	-3.52791226E+01
1.03600000E+09	 5.80097684E-01	-3.52880570E+01
1.03700000E+09	 5.79966852E-01	-3.52880047E+01
1.03800000E+09	 5.79750977E-01	-3.52880155E+01
1.03900000E+09	 5.79544411E-01	-3.52993495E+01
1.04000000E+09	 5.79429251E-01	-3.53013159E+01
1.04100000E+09	 5.79203823E-01	-3.53031816E+01
1.04200000E+09	 5.79032352E-01	-3.53132030E+01
1.04300000E+09	 5.78928562E-01	-3.53099684E+01
1.04400000E+09	 5.78795189E-01	-3.53177185E+01
1.04500000E+09	 5.78606578E-01	-3.53153188E+01
1.04600000E+09	 5.78316865E-01	-3.53151832E+01
1.04700000E+09	 5.78191234E-01	-3.53272126E+01
1.04800000E+09	 5.77998798E-01	-3.53275603E+01
1.04900000E+09	 5.77839609E-01	-3.53295385E+01
1.05000000E+09	 5.77643890E-01	-3.53296097E+01
1.05100000E+09	 5.77403322E-01	-3.53361843E+01
1.05200000E+09	 5.77267818E-01	-3.53357039E+01
1.05300000E+09	 5.77042712E-01	-3.53351130E+01
1.05400000E+09	 5.76887938E-01	-3.53365550E+01
1.05500000E+09	 5.76654890E-01	-3.53429251E+01
1.05600000E+09	 5.76484190E-01	-3.53404707E+01
1.05700000E+09	 5.76282137E-01	-3.53464541E+01
1.05800000E+09	 5.76075227E-01	-3.53431871E+01
1.05900000E+09	 5.75903716E-01	-3.53405674E+01
1.06000000E+09	 5.75649220E-01	-3.53510467E+01
1.06100000E+09	 5.75503054E-01	-3.53465174E+01
1.06200000E+09	 5.75304660E-01	-3.53469477E+01
1.06300000E+09	 5.75017541E-01	-3.53546056E+01
1.06400000E+09	 5.74874879E-01	-3.53526856E+01
1.06500000E+09	 5.74649523E-01	-3.53523283E+01
1.06600000E+09	 5.74433760E-01	-3.53512697E+01
1.06700000E+09	 5.74209597E-01	-3.53501267E+01
1.06800000E+09	 5.74015099E-01	-3.53579407E+01
1.06900000E+09	 5.73826702E-01	-3.53546787E+01
1.07000000E+09	 5.73574730E-01	-3.53659673E+01
1.07100000E+09	 5.73368844E-01	-3.53574853E+01
1.07200000E+09	 5.73133359E-01	-3.53575036E+01
1.07300000E+09	 5.72932852E-01	-3.53573382E+01
1.07400000E+09	 5.72732120E-01	-3.53535862E+01
1.07500000E+09	 5.72467331E-01	-3.53634517E+01
1.07600000E+09	 5.72300539E-01	-3.53602694E+01
1.07700000E+09	 5.72041439E-01	-3.53584655E+01
1.07800000E+09	 5.71767214E-01	-3.53608720E+01
1.07900000E+09	 5.71618876E-01	-3.53640723E+01
1.08000000E+09	 5.71331584E-01	-3.53648347E+01
1.08100000E+09	 5.71084172E-01	-3.53651043E+01
1.08200000E+09	 5.70894081E-01	-3.53610774E+01
1.08300000E+09	 5.70632057E-01	-3.53651266E+01
1.08400000E+09	 5.70449438E-01	-3.53686672E+01
1.08500000E+09	 5.70079959E-01	-3.53685294E+01
1.08600000E+09	 5.69877320E-01	-3.53714979E+01
1.08700000E+09	 5.69563621E-01	-3.53663737E+01
1.08800000E+09	 5.69293712E-01	-3.53714321E+01
1.08900000E+09	 5.69135284E-01	-3.53737716E+01
1.09000000E+09	 5.68763510E-01	-3.53754996E+01
1.09100000E+09	 5.68478705E-01	-3.53721248E+01
1.09200000E+09	 5.68268802E-01	-3.53652910E+01
1.09300000E+09	 5.67984177E-01	-3.53806210E+01
1.09400000E+09	 5.67740173E-01	-3.53761138E+01
1.09500000E+09	 5.67394374E-01	-3.53721022E+01
1.09600000E+09	 5.67156037E-01	-3.53816029E+01
1.09700000E+09	 5.66867574E-01	-3.53824598E+01
1.09800000E+09	 5.66623980E-01	-3.53791830E+01
1.09900000E+09	 5.66227172E-01	-3.53867341E+01
1.10000000E+09	 5.66011783E-01	-3.53900300E+01
1.10100000E+09	 5.65709402E-01	-3.53939301E+01
1.10200000E+09	 5.65446865E-01	-3.53877533E+01
1.10300000E+09	 5.65167925E-01	-3.53902725E+01
1.10400000E+09	 5.64850038E-01	-3.53951061E+01
1.10500000E+09	 5.64545672E-01	-3.53971807E+01
1.10600000E+09	 5.64396034E-01	-3.54028103E+01
1.10700000E+09	 5.63917151E-01	-3.54035969E+01
1.10800000E+09	 5.63628251E-01	-3.54052097E+01
1.10900000E+09	 5.63331871E-01	-3.54070540E+01
1.11000000E+09	 5.63036896E-01	-3.54164403E+01
1.11100000E+09	 5.62777735E-01	-3.54192609E+01
1.11200000E+09	 5.62511559E-01	-3.54149486E+01
1.11300000E+09	 5.62157402E-01	-3.54208955E+01
1.11400000E+09	 5.61910279E-01	-3.54250072E+01
1.11500000E+09	 5.61529451E-01	-3.54282026E+01
1.11600000E+09	 5.61219949E-01	-3.54271612E+01
1.11700000E+09	 5.60981134E-01	-3.54413288E+01
1.11800000E+09	 5.60632169E-01	-3.54440203E+01
1.11900000E+09	 5.60355298E-01	-3.54471645E+01
1.12000000E+09	 5.59961564E-01	-3.54551780E+01
1.12100000E+09	 5.59680474E-01	-3.54582413E+01
1.12200000E+09	 5.59391014E-01	-3.54580114E+01
1.12300000E+09	 5.59019011E-01	-3.54606262E+01
1.12400000E+09	 5.58748500E-01	-3.54672935E+01
1.12500000E+09	 5.58428532E-01	-3.54737961E+01
1.12600000E+09	 5.58017888E-01	-3.54825307E+01
1.12700000E+09	 5.57777760E-01	-3.54856015E+01
1.12800000E+09	 5.57458948E-01	-3.54800297E+01
1.12900000E+09	 5.57026040E-01	-3.54954609E+01
1.13000000E+09	 5.56711825E-01	-3.54992526E+01
1.13100000E+09	 5.56358353E-01	-3.55062099E+01
1.13200000E+09	 5.56041875E-01	-3.55092714E+01
1.13300000E+09	 5.55703674E-01	-3.55175193E+01
1.13400000E+09	 5.55421317E-01	-3.55268282E+01
1.13500000E+09	 5.55029869E-01	-3.55301142E+01
1.13600000E+09	 5.54705768E-01	-3.55416990E+01
1.13700000E+09	 5.54272057E-01	-3.55453889E+01
1.13800000E+09	 5.53970624E-01	-3.55472590E+01
1.13900000E+09	 5.53651818E-01	-3.55612402E+01
1.14000000E+09	 5.53249283E-01	-3.55664194E+01
1.14100000E+09	 5.52919517E-01	-3.55734625E+01
1.14200000E+09	 5.52557496E-01	-3.55858059E+01
1.14300000E+09	 5.52181613E-01	-3.55968163E+01
1.14400000E+09	 5.51842835E-01	-3.56064695E+01
1.14500000E+09	 5.51504098E-01	-3.56121025E+01
1.14600000E+09	 5.51111097E-01	-3.56230344E+01
1.14700000E+09	 5.50771079E-01	-3.56342288E+01
1.14800000E+09	 5.50372870E-01	-3.56451460E+01
1.14900000E+09	 5.50068474E-01	-3.56567043E+01
1.15000000E+09	 5.49762124E-01	-3.56689419E+01
1.15100000E+09	 5.49342271E-01	-3.56797140E+01
1.15200000E+09	 5.48990484E-01	-3.56894130E+01
1.15300000E+09	 5.48623820E-01	-3.57061158E+01
1.15400000E+09	 5.48358278E-01	-3.57225674E+01
1.15500000E+09	 5.47939052E-01	-3.57283854E+01
1.15600000E+09	 5.47635470E-01	-3.57364245E+01
1.15700000E+09	 5.47254854E-01	-3.57524811E+01
1.15800000E+09	 5.46912159E-01	-3.57559230E+01
1.15900000E+09	 5.46573538E-01	-3.57734013E+01
1.16000000E+09	 5.46195367E-01	-3.57910206E+01
1.16100000E+09	 5.45819353E-01	-3.58060253E+01
1.16200000E+09	 5.45413684E-01	-3.58151563E+01
1.16300000E+09	 5.45087869E-01	-3.58337894E+01
1.16400000E+09	 5.44721881E-01	-3.58407979E+01
1.16500000E+09	 5.44230642E-01	-3.58549869E+01
1.16600000E+09	 5.43950751E-01	-3.58728737E+01
1.16700000E+09	 5.43610652E-01	-3.58820774E+01
1.16800000E+09	 5.43244756E-01	-3.58968425E+01
1.16900000E+09	 5.42772565E-01	-3.59178519E+01
1.17000000E+09	 5.42411775E-01	-3.59325706E+01
1.17100000E+09	 5.42055240E-01	-3.59523085E+01
1.17200000E+09	 5.41586412E-01	-3.59702722E+01
1.17300000E+09	 5.41366785E-01	-3.59844830E+01
1.17400000E+09	 5.40861654E-01	-3.60095161E+01
1.17500000E+09	 5.40551632E-01	-3.60208903E+01
1.17600000E+09	 5.40185250E-01	-3.60367010E+01
1.17700000E+09	 5.39843283E-01	-3.60619509E+01
1.17800000E+09	 5.39436908E-01	-3.60713726E+01
1.17900000E+09	 5.39085488E-01	-3.60996178E+01
1.18000000E+09	 5.38773017E-01	-3.61140229E+01
1.18100000E+09	 5.38420344E-01	-3.61380696E+01
1.18200000E+09	 5.37975894E-01	-3.61541985E+01
1.18300000E+09	 5.37643666E-01	-3.61800602E+01
1.18400000E+09	 5.37288051E-01	-3.62024824E+01
1.18500000E+09	 5.36918286E-01	-3.62320896E+01
1.18600000E+09	 5.36545069E-01	-3.62399832E+01
1.18700000E+09	 5.36105856E-01	-3.62670459E+01
1.18800000E+09	 5.35791186E-01	-3.62920226E+01
1.18900000E+09	 5.35409269E-01	-3.63245413E+01
1.19000000E+09	 5.35058115E-01	-3.63360036E+01
1.19100000E+09	 5.34640582E-01	-3.63638004E+01
1.19200000E+09	 5.34412337E-01	-3.63839152E+01
1.19300000E+09	 5.33935412E-01	-3.64087254E+01
1.19400000E+09	 5.33676654E-01	-3.64369814E+01
1.19500000E+09	 5.33247083E-01	-3.64642540E+01
1.19600000E+09	 5.32992000E-01	-3.64871466E+01
1.19700000E+09	 5.32635231E-01	-3.65108881E+01
1.19800000E+09	 5.32265567E-01	-3.65432672E+01
1.19900000E+09	 5.31889265E-01	-3.65764839E+01
1.20000000E+09	 5.31567899E-01	-3.65989201E+01
1.20100000E+09	 5.31212690E-01	-3.66321325E+01
1.20200000E+09	 5.30852316E-01	-3.66569561E+01
1.20300000E+09	 5.30489773E-01	-3.66836818E+01
1.20400000E+09	 5.30220434E-01	-3.67163097E+01
1.20500000E+09	 5.29888602E-01	-3.67469215E+01
1.20600000E+09	 5.29531278E-01	-3.67778927E+01
1.20700000E+09	 5.29205164E-01	-3.68058069E+01
1.20800000E+09	 5.28906977E-01	-3.68351444E+01
1.20900000E+09	 5.28570411E-01	-3.68649792E+01
1.21000000E+09	 5.28361023E-01	-3.68947417E+01
1.21100000E+09	 5.27927840E-01	-3.69204469E+01
1.21200000E+09	 5.27563557E-01	-3.69543248E+01
1.21300000E+09	 5.27291887E-01	-3.69809230E+01
1.21400000E+09	 5.26976766E-01	-3.70188732E+01
1.21500000E+09	 5.26631111E-01	-3.70437911E+01
1.21600000E+09	 5.26355404E-01	-3.70784028E+01
1.21700000E+09	 5.26024356E-01	-3.71025397E+01
1.21800000E+09	 5.25757624E-01	-3.71359276E+01
1.21900000E+09	 5.25453822E-01	-3.71697604E+01
1.22000000E+09	 5.25036172E-01	-3.72024877E+01
1.22100000E+09	 5.24862917E-01	-3.72325796E+01
1.22200000E+09	 5.24473591E-01	-3.72631334E+01
1.22300000E+09	 5.24203469E-01	-3.73019344E+01
1.22400000E+09	 5.23945522E-01	-3.73315571E+01
1.22500000E+09	 5.23590604E-01	-3.73637910E+01
1.22600000E+09	 5.23313155E-01	-3.74026649E+01
1.22700000E+09	 5.23013946E-01	-3.74375612E+01
1.22800000E+09	 5.22732724E-01	-3.74671294E+01
1.22900000E+09	 5.22521653E-01	-3.75012288E+01
1.23000000E+09	 5.22126789E-01	-3.75402713E+01
1.23100000E+09	 5.21923788E-01	-3.75730588E+01
1.23200000E+09	 5.21639160E-01	-3.76128008E+01
1.23300000E+09	 5.21427863E-01	-3.76493028E+01
1.23400000E+09	 5.21140078E-01	-3.76880832E+01
1.23500000E+09	 5.20889589E-01	-3.77273725E+01
1.23600000E+09	 5.20673745E-01	-3.77586786E+01
1.23700000E+09	 5.20293455E-01	-3.77988580E+01
1.23800000E+09	 5.20100717E-01	-3.78446528E+01
1.23900000E+09	 5.19863140E-01	-3.78774304E+01
1.24000000E+09	 5.19573703E-01	-3.79169739E+01
1.24100000E+09	 5.19391384E-01	-3.79526209E+01
1.24200000E+09	 5.19147798E-01	-3.79898409E+01
1.24300000E+09	 5.18906404E-01	-3.80263933E+01
1.24400000E+09	 5.18665232E-01	-3.80604908E+01
1.24500000E+09	 5.18431020E-01	-3.80997308E+01
1.24600000E+09	 5.18182415E-01	-3.81408697E+01
1.24700000E+09	 5.18001773E-01	-3.81855052E+01
1.24800000E+09	 5.17785591E-01	-3.82171465E+01
1.24900000E+09	 5.17610917E-01	-3.82573846E+01
1.25000000E+09	 5.17439395E-01	-3.82982277E+01
1.25100000E+09	 5.17184141E-01	-3.83393607E+01
1.25200000E+09	 5.16958836E-01	-3.83761864E+01
1.25300000E+09	 5.16787024E-01	-3.84163043E+01
1.25400000E+09	 5.16534865E-01	-3.84544327E+01
1.25500000E+09	 5.16404814E-01	-3.84972473E+01
1.25600000E+09	 5.16217472E-01	-3.85310072E+01
1.25700000E+09	 5.16033495E-01	-3.85773678E+01
1.25800000E+09	 5.15858316E-01	-3.86178054E+01
1.25900000E+09	 5.15712715E-01	-3.86446741E+01
1.26000000E+09	 5.15522498E-01	-3.86913335E+01
1.26100000E+09	 5.15358612E-01	-3.87315548E+01
1.26200000E+09	 5.15160929E-01	-3.87702862E+01
1.26300000E+09	 5.14972049E-01	-3.88107688E+01
1.26400000E+09	 5.14867755E-01	-3.88549044E+01
1.26500000E+09	 5.14695926E-01	-3.88949749E+01
1.26600000E+09	 5.14511307E-01	-3.89313977E+01
1.26700000E+09	 5.14390764E-01	-3.89745866E+01
1.26800000E+09	 5.14241596E-01	-3.90169781E+01
1.26900000E+09	 5.14106480E-01	-3.90530121E+01
1.27000000E+09	 5.13950461E-01	-3.90897939E+01
1.27100000E+09	 5.13832396E-01	-3.91376068E+01
1.27200000E+09	 5.13686546E-01	-3.91762321E+01
1.27300000E+09	 5.13658870E-01	-3.92151990E+01
1.27400000E+09	 5.13554041E-01	-3.92577847E+01
1.27500000E+09	 5.13407938E-01	-3.92940166E+01
1.27600000E+09	 5.13293757E-01	-3.93364675E+01
1.27700000E+09	 5.13188563E-01	-3.93727429E+01
1.27800000E+09	 5.13081644E-01	-3.94125441E+01
1.27900000E+09	 5.13005777E-01	-3.94513316E+01
1.28000000E+09	 5.12945552E-01	-3.94992043E+01
1.28100000E+09	 5.12887067E-01	-3.95340204E+01
1.28200000E+09	 5.12753229E-01	-3.95706934E+01
1.28300000E+09	 5.12671204E-01	-3.96115262E+01
1.28400000E+09	 5.12671288E-01	-3.96542806E+01
1.28500000E+09	 5.12536426E-01	-3.96866965E+01
1.28600000E+09	 5.12436291E-01	-3.97281930E+01
1.28700000E+09	 5.12459215E-01	-3.97684784E+01
1.28800000E+09	 5.12373404E-01	-3.98069542E+01
1.28900000E+09	 5.12347845E-01	-3.98452668E+01
1.29000000E+09	 5.12268237E-01	-3.98839535E+01
1.29100000E+09	 5.12237540E-01	-3.99263125E+01
1.29200000E+09	 5.12268850E-01	-3.99628469E+01
1.29300000E+09	 5.12232567E-01	-3.99988434E+01
1.29400000E+09	 5.12081870E-01	-4.00365595E+01
1.29500000E+09	 5.12060650E-01	-4.00716807E+01
1.29600000E+09	 5.12027830E-01	-4.01117257E+01
1.29700000E+09	 5.12020202E-01	-4.01498812E+01
1.29800000E+09	 5.12010974E-01	-4.01796528E+01
1.29900000E+09	 5.11871298E-01	-4.02144006E+01
1.30000000E+09	 5.11852163E-01	-4.02515786E+01
1.30100000E+09	 5.11902112E-01	-4.02890807E+01
1.30200000E+09	 5.11910612E-01	-4.03199899E+01
1.30300000E+09	 5.11821349E-01	-4.03575501E+01
1.30400000E+09	 5.11877853E-01	-4.03941304E+01
1.30500000E+09	 5.11771689E-01	-4.04325671E+01
1.30600000E+09	 5.11808478E-01	-4.04659005E+01
1.30700000E+09	 5.11771803E-01	-4.05017467E+01
1.30800000E+09	 5.11773972E-01	-4.05409700E+01
1.30900000E+09	 5.11776840E-01	-4.05751392E+01
1.31000000E+09	 5.11809021E-01	-4.06072449E+01
1.31100000E+09	 5.11774009E-01	-4.06369273E+01
1.31200000E+09	 5.11777053E-01	-4.06664906E+01
1.31300000E+09	 5.11808909E-01	-4.07069293E+01
1.31400000E+09	 5.11693230E-01	-4.07378463E+01
1.31500000E+09	 5.11811423E-01	-4.07688536E+01
1.31600000E+09	 5.11851040E-01	-4.08062404E+01
1.31700000E+09	 5.11849392E-01	-4.08370328E+01
1.31800000E+09	 5.11876253E-01	-4.08738947E+01
1.31900000E+09	 5.11876494E-01	-4.09021002E+01
1.32000000E+09	 5.11865562E-01	-4.09368164E+01
1.32100000E+09	 5.11930342E-01	-4.09682626E+01
1.32200000E+09	 5.11958104E-01	-4.09960059E+01
1.32300000E+09	 5.11967357E-01	-4.10250571E+01
1.32400000E+09	 5.11905348E-01	-4.10606993E+01
1.32500000E+09	 5.12079458E-01	-4.10864814E+01
1.32600000E+09	 5.12004646E-01	-4.11182397E+01
1.32700000E+09	 5.12141254E-01	-4.11502036E+01
1.32800000E+09	 5.12171489E-01	-4.11746400E+01
1.32900000E+09	 5.12143804E-01	-4.12039261E+01
1.33000000E+09	 5.12267022E-01	-4.12352949E+01
1.33100000E+09	 5.12252733E-01	-4.12674208E+01
1.33200000E+09	 5.12319389E-01	-4.12876915E+01
1.33300000E+09	 5.12312126E-01	-4.13166441E+01
1.33400000E+09	 5.12377490E-01	-4.13415727E+01
1.33500000E+09	 5.12424502E-01	-4.13789711E+01
1.33600000E+09	 5.12506745E-01	-4.14061117E+01
1.33700000E+09	 5.12513377E-01	-4.14243953E+01
1.33800000E+09	 5.12590585E-01	-4.14448948E+01
1.33900000E+09	 5.12649851E-01	-4.14793708E+01
1.34000000E+09	 5.12632655E-01	-4.14973548E+01
1.34100000E+09	 5.12731975E-01	-4.15225122E+01
1.34200000E+09	 5.12793411E-01	-4.15442362E+01
1.34300000E+09	 5.12848499E-01	-4.15722082E+01
1.34400000E+09	 5.12899694E-01	-4.15937494E+01
1.34500000E+09	 5.12980290E-01	-4.16184365E+01
1.34600000E+09	 5.12972118E-01	-4.16440826E+01
1.34700000E+09	 5.13009202E-01	-4.16605353E+01
1.34800000E+09	 5.13086324E-01	-4.16905010E+01
1.34900000E+09	 5.13100124E-01	-4.17063283E+01
1.35000000E+09	 5.13137968E-01	-4.17321264E+01
1.35100000E+09	 5.13217565E-01	-4.17456565E+01
1.35200000E+09	 5.13261872E-01	-4.17730431E+01
1.35300000E+09	 5.13283695E-01	-4.17897505E+01
1.35400000E+09	 5.13262974E-01	-4.18093460E+01
1.35500000E+09	 5.13356293E-01	-4.18248380E+01
1.35600000E+09	 5.13421740E-01	-4.18457540E+01
1.35700000E+09	 5.13465724E-01	-4.18669734E+01
1.35800000E+09	 5.13472226E-01	-4.18838594E+01
1.35900000E+09	 5.13507249E-01	-4.19035751E+01
1.36000000E+09	 5.13568169E-01	-4.19157531E+01
1.36100000E+09	 5.13552086E-01	-4.19288676E+01
1.36200000E+09	 5.13631748E-01	-4.19531611E+01
1.36300000E+09	 5.13604842E-01	-4.19646883E+01
1.36400000E+09	 5.13689051E-01	-4.19849477E+01
1.36500000E+09	 5.13698041E-01	-4.19918520E+01
1.36600000E+09	 5.13640530E-01	-4.20080973E+01
1.36700000E+09	 5.13692585E-01	-4.20204920E+01
1.36800000E+09	 5.13793598E-01	-4.20324144E+01
1.36900000E+09	 5.13728546E-01	-4.20457595E+01
1.37000000E+09	 5.13848384E-01	-4.20746811E+01
1.37100000E+09	 5.13777311E-01	-4.20764461E+01
1.37200000E+09	 5.13825050E-01	-4.20953767E+01
1.37300000E+09	 5.13827589E-01	-4.21043306E+01
1.37400000E+09	 5.13812384E-01	-4.21281217E+01
1.37500000E+09	 5.13812227E-01	-4.21342070E+01
1.37600000E+09	 5.13814613E-01	-4.21497213E+01
1.37700000E+09	 5.13881497E-01	-4.21605485E+01
1.37800000E+09	 5.13850500E-01	-4.21746322E+01
1.37900000E+09	 5.13852888E-01	-4.21951917E+01
1.38000000E+09	 5.13849856E-01	-4.21973818E+01
1.38100000E+09	 5.13854735E-01	-4.22185253E+01
1.38200000E+09	 5.13827399E-01	-4.22304744E+01
1.38300000E+09	 5.13835150E-01	-4.22323772E+01
1.38400000E+09	 5.13842178E-01	-4.22555395E+01
1.38500000E+09	 5.13821865E-01	-4.22670952E+01
1.38600000E+09	 5.13747514E-01	-4.22709948E+01
1.38700000E+09	 5.13817306E-01	-4.22926872E+01
1.38800000E+09	 5.13808564E-01	-4.22934993E+01
1.38900000E+09	 5.13762904E-01	-4.23078753E+01
1.39000000E+09	 5.13757962E-01	-4.23202314E+01
1.39100000E+09	 5.13796709E-01	-4.23317661E+01
1.39200000E+09	 5.13774092E-01	-4.23471817E+01
1.39300000E+09	 5.13782124E-01	-4.23552686E+01
1.39400000E+09	 5.13721243E-01	-4.23694686E+01
1.39500000E+09	 5.13762153E-01	-4.23720273E+01
1.39600000E+09	 5.13694633E-01	-4.23822784E+01
1.39700000E+09	 5.13693381E-01	-4.23877163E+01
1.39800000E+09	 5.13687628E-01	-4.24012461E+01
1.39900000E+09	 5.13675126E-01	-4.24029252E+01
1.40000000E+09	 5.13658587E-01	-4.24106813E+01
1.40100000E+09	 5.13646966E-01	-4.24227347E+01
1.40200000E+09	 5.13608101E-01	-4.24257352E+01
1.40300000E+09	 5.13539322E-01	-4.24275894E+01
1.40400000E+09	 5.13498746E-01	-4.24336582E+01
1.40500000E+09	 5.13432002E-01	-4.24468569E+01
1.40600000E+09	 5.13373942E-01	-4.24492045E+01
1.40700000E+09	 5.13443299E-01	-4.24560390E+01
1.40800000E+09	 5.13351644E-01	-4.24642981E+01
1.40900000E+09	 5.13209529E-01	-4.24578126E+01
1.41000000E+09	 5.13177540E-01	-4.24674464E+01
1.41100000E+09	 5.13133322E-01	-4.24716741E+01
1.41200000E+09	 5.13030010E-01	-4.24792105E+01
1.41300000E+09	 5.12966786E-01	-4.24820758E+01
1.41400000E+09	 5.12914913E-01	-4.24942445E+01
1.41500000E+09	 5.12871681E-01	-4.25002724E+01
1.41600000E+09	 5.12762457E-01	-4.25050147E+01
1.41700000E+09	 5.12682747E-01	-4.25112628E+01
1.41800000E+09	 5.12513804E-01	-4.25165245E+01
1.41900000E+09	 5.12389454E-01	-4.25288836E+01
1.42000000E+09	 5.12337322E-01	-4.25289073E+01
1.42100000E+09	 5.12211381E-01	-4.25368697E+01
1.42200000E+09	 5.12176222E-01	-4.25409718E+01
1.42300000E+09	 5.12102341E-01	-4.25570230E+01
1.42400000E+09	 5.11918380E-01	-4.25513592E+01
1.42500000E+09	 5.11846434E-01	-4.25681762E+01
1.42600000E+09	 5.11706535E-01	-4.25719359E+01
1.42700000E+09	 5.11565573E-01	-4.25829490E+01
1.42800000E+09	 5.11457835E-01	-4.25891474E+01
1.42900000E+09	 5.11333546E-01	-4.26022948E+01
1.43000000E+09	 5.11170994E-01	-4.26066428E+01
1.43100000E+09	 5.11065988E-01	-4.26168498E+01
1.43200000E+09	 5.11002366E-01	-4.26209468E+01
1.43300000E+09	 5.10812848E-01	-4.26368195E+01
1.43400000E+09	 5.10676938E-01	-4.26387837E+01
1.43500000E+09	 5.10475466E-01	-4.26503030E+01
1.43600000E+09	 5.10480796E-01	-4.26569578E+01
1.43700000E+09	 5.10302564E-01	-4.26703128E+01
1.43800000E+09	 5.10146905E-01	-4.26786412E+01
1.43900000E+09	 5.10079465E-01	-4.26929795E+01
1.44000000E+09	 5.10041079E-01	-4.26938875E+01
1.44100000E+09	 5.09900506E-01	-4.27054571E+01
1.44200000E+09	 5.09795115E-01	-4.27097240E+01
1.44300000E+09	 5.09691391E-01	-4.27290506E+01
1.44400000E+09	 5.09549032E-01	-4.27325563E+01
1.44500000E+09	 5.09462709E-01	-4.27370091E+01
1.44600000E+09	 5.09326267E-01	-4.27573318E+01
1.44700000E+09	 5.09231863E-01	-4.27658952E+01
1.44800000E+09	 5.09051488E-01	-4.27759468E+01
1.44900000E+09	 5.08991983E-01	-4.27880260E+01
1.45000000E+09	 5.08825801E-01	-4.27951897E+01
1.45100000E+09	 5.08685652E-01	-4.28065849E+01
1.45200000E+09	 5.08565303E-01	-4.28301166E+01
1.45300000E+09	 5.08441034E-01	-4.28330131E+01
1.45400000E+09	 5.08282035E-01	-4.28541123E+01
1.45500000E+09	 5.08113166E-01	-4.28640716E+01
1.45600000E+09	 5.08015218E-01	-4.28792561E+01
1.45700000E+09	 5.07837715E-01	-4.28836193E+01
1.45800000E+09	 5.07763993E-01	-4.28999925E+01
1.45900000E+09	 5.07630151E-01	-4.29156517E+01
1.46000000E+09	 5.07444549E-01	-4.29292411E+01
1.46100000E+09	 5.07352026E-01	-4.29436214E+01
1.46200000E+09	 5.07181219E-01	-4.29525538E+01
1.46300000E+09	 5.06979306E-01	-4.29679362E+01
1.46400000E+09	 5.06833685E-01	-4.29888229E+01
1.46500000E+09	 5.06719781E-01	-4.30016856E+01
1.46600000E+09	 5.06620661E-01	-4.30239481E+01
1.46700000E+09	 5.06496252E-01	-4.30370832E+01
1.46800000E+09	 5.06261812E-01	-4.30530057E+01
1.46900000E+09	 5.06117099E-01	-4.30721045E+01
1.47000000E+09	 5.05910893E-01	-4.30839815E+01
1.47100000E+09	 5.05786664E-01	-4.31049886E+01
1.47200000E+09	 5.05636788E-01	-4.31268017E+01
1.47300000E+09	 5.05479299E-01	-4.31421501E+01
1.47400000E+09	 5.05301293E-01	-4.31654751E+01
1.47500000E+09	 5.05195455E-01	-4.31854194E+01
1.47600000E+09	 5.05117971E-01	-4.31994050E+01
1.47700000E+09	 5.04781277E-01	-4.32204925E+01
1.47800000E+09	 5.04688768E-01	-4.32367911E+01
1.47900000E+09	 5.04504142E-01	-4.32645262E+01
1.48000000E+09	 5.04295592E-01	-4.32842791E+01
1.48100000E+09	 5.04114970E-01	-4.33128410E+01
1.48200000E+09	 5.04036197E-01	-4.33262085E+01
1.48300000E+09	 5.03836331E-01	-4.33494720E+01
1.48400000E+09	 5.03702526E-01	-4.33694750E+01
1.48500000E+09	 5.03490216E-01	-4.33869280E+01
1.48600000E+09	 5.03297304E-01	-4.34208666E+01
1.48700000E+09	 5.03105415E-01	-4.34428905E+01
1.48800000E+09	 5.02958801E-01	-4.34683857E+01
1.48900000E+09	 5.02788261E-01	-4.34940347E+01
1.49000000E+09	 5.02589766E-01	-4.35101297E+01
1.49100000E+09	 5.02409426E-01	-4.35445069E+01
1.49200000E+09	 5.02277843E-01	-4.35685426E+01
1.49300000E+09	 5.02110342E-01	-4.35974075E+01
1.49400000E+09	 5.01930246E-01	-4.36174953E+01
1.49500000E+09	 5.01799482E-01	-4.36394182E+01
1.49600000E+09	 5.01702878E-01	-4.36631374E+01
1.49700000E+09	 5.01481617E-01	-4.37026792E+01
1.49800000E+09	 5.01325687E-01	-4.37293639E+01
1.49900000E+09	 5.01176381E-01	-4.37475772E+01
1.50000000E+09	 5.01085981E-01	-4.37781512E+01
1.50100000E+09	 5.01079399E-01	-4.38086922E+01
1.50200000E+09	 5.00932657E-01	-4.38427886E+01
1.50300000E+09	 5.00836019E-01	-4.38640622E+01
1.50400000E+09	 5.00505332E-01	-4.38970869E+01
1.50500000E+09	 5.00562935E-01	-4.39244158E+01
1.50600000E+09	 5.00408963E-01	-4.39561354E+01
1.50700000E+09	 5.00210277E-01	-4.39808338E+01
1.50800000E+09	 5.00087875E-01	-4.40145716E+01
1.50900000E+09	 4.99958790E-01	-4.40433916E+01
1.51000000E+09	 4.99798624E-01	-4.40740486E+01
1.51100000E+09	 4.99718542E-01	-4.41048540E+01
1.51200000E+09	 4.99544229E-01	-4.41369727E+01
1.51300000E+09	 4.99438741E-01	-4.41596318E+01
1.51400000E+09	 4.99310138E-01	-4.41890917E+01
1.51500000E+09	 4.99138867E-01	-4.42066303E+01
1.51600000E+09	 4.99009206E-01	-4.42443920E+01
1.51700000E+09	 4.98850311E-01	-4.42800701E+01
1.51800000E+09	 4.98843783E-01	-4.43088338E+01
1.51900000E+09	 4.98653245E-01	-4.43361633E+01
1.52000000E+09	 4.98582865E-01	-4.43657004E+01
1.52100000E+09	 4.98423437E-01	-4.44044707E+01
1.52200000E+09	 4.98328947E-01	-4.44318223E+01
1.52300000E+09	 4.98232890E-01	-4.44706062E+01
1.52400000E+09	 4.98107855E-01	-4.44917598E+01
1.52500000E+09	 4.98020436E-01	-4.45287952E+01
1.52600000E+09	 4.97936647E-01	-4.45635496E+01
1.52700000E+09	 4.97820370E-01	-4.45861258E+01
1.52800000E+09	 4.97695189E-01	-4.46183874E+01
1.52900000E+09	 4.97545587E-01	-4.46592493E+01
1.53000000E+09	 4.97510709E-01	-4.46910127E+01
1.53100000E+09	 4.97426089E-01	-4.47310527E+01
1.53200000E+09	 4.97243262E-01	-4.47611470E+01
1.53300000E+09	 4.97219196E-01	-4.47841096E+01
1.53400000E+09	 4.96951861E-01	-4.48124732E+01
1.53500000E+09	 4.96992063E-01	-4.48472222E+01
1.53600000E+09	 4.96930046E-01	-4.48779970E+01
1.53700000E+09	 4.96863890E-01	-4.49138369E+01
1.53800000E+09	 4.96789233E-01	-4.49485855E+01
1.53900000E+09	 4.96678331E-01	-4.49848351E+01
1.54000000E+09	 4.96581883E-01	-4.50187421E+01
1.54100000E+09	 4.96545572E-01	-4.50480073E+01
1.54200000E+09	 4.96487799E-01	-4.50795946E+01
1.54300000E+09	 4.96414798E-01	-4.51272563E+01
1.54400000E+09	 4.96343881E-01	-4.51580701E+01
1.54500000E+09	 4.96262465E-01	-4.51809143E+01
1.54600000E+09	 4.96230629E-01	-4.52198877E+01
1.54700000E+09	 4.96141501E-01	-4.52575540E+01
1.54800000E+09	 4.96111389E-01	-4.52943108E+01
1.54900000E+09	 4.96055507E-01	-4.53310170E+01
1.55000000E+09	 4.95984760E-01	-4.53614279E+01
1.55100000E+09	 4.96018545E-01	-4.54077809E+01
1.55200000E+09	 4.96043861E-01	-4.54379482E+01
1.55300000E+09	 4.95957915E-01	-4.54845097E+01
1.55400000E+09	 4.95942929E-01	-4.55088165E+01
1.55500000E+09	 4.95894834E-01	-4.55498187E+01
1.55600000E+09	 4.95920980E-01	-4.55833346E+01
1.55700000E+09	 4.95853218E-01	-4.56193331E+01
1.55800000E+09	 4.95865315E-01	-4.56666285E+01
1.55900000E+09	 4.95939244E-01	-4.56979367E+01
1.56000000E+09	 4.95853868E-01	-4.57315923E+01
1.56100000E+09	 4.95921059E-01	-4.57718136E+01
1.56200000E+09	 4.95946995E-01	-4.58067759E+01
1.56300000E+09	 4.95966525E-01	-4.58338824E+01
1.56400000E+09	 4.95941359E-01	-4.58811708E+01
1.56500000E+09	 4.95965134E-01	-4.59079296E+01
1.56600000E+09	 4.96093166E-01	-4.59498469E+01
1.56700000E+09	 4.96152642E-01	-4.59847868E+01
1.56800000E+09	 4.96067188E-01	-4.60127544E+01
1.56900000E+09	 4.96179666E-01	-4.60489560E+01
1.57000000E+09	 4.96193064E-01	-4.60848128E+01
1.57100000E+09	 4.96281564E-01	-4.61190860E+01
1.57200000E+09	 4.96381204E-01	-4.61648220E+01
1.57300000E+09	 4.96436157E-01	-4.61994702E+01
1.57400000E+09	 4.96506518E-01	-4.62094664E+01
1.57500000E+09	 4.96566955E-01	-4.62479889E+01
1.57600000E+09	 4.96600418E-01	-4.62777234E+01
1.57700000E+09	 4.96668042E-01	-4.63051816E+01
1.57800000E+09	 4.96750969E-01	-4.63397744E+01
1.57900000E+09	 4.96870301E-01	-4.63671781E+01
1.58000000E+09	 4.96952953E-01	-4.63890766E+01
1.58100000E+09	 4.96975135E-01	-4.64278603E+01
1.58200000E+09	 4.96953747E-01	-4.64483769E+01
1.58300000E+09	 4.97086352E-01	-4.64772907E+01
1.58400000E+09	 4.97128177E-01	-4.65105342E+01
1.58500000E+09	 4.97211048E-01	-4.65337685E+01
1.58600000E+09	 4.97335078E-01	-4.65550565E+01
1.58700000E+09	 4.97334639E-01	-4.65913513E+01
1.58800000E+09	 4.97448883E-01	-4.66234513E+01
1.58900000E+09	 4.97438654E-01	-4.66532042E+01
1.59000000E+09	 4.97512552E-01	-4.66748385E+01
1.59100000E+09	 4.97576813E-01	-4.67050203E+01
1.59200000E+09	 4.97657708E-01	-4.67358924E+01
1.59300000E+09	 4.97688371E-01	-4.67571065E+01
1.59400000E+09	 4.97774935E-01	-4.67942988E+01
1.59500000E+09	 4.97847525E-01	-4.68180854E+01
1.59600000E+09	 4.97925374E-01	-4.68532336E+01
1.59700000E+09	 4.98073083E-01	-4.68724963E+01
1.59800000E+09	 4.98150851E-01	-4.69056454E+01
1.59900000E+09	 4.98219701E-01	-4.69374499E+01
1.60000000E+09	 4.98236785E-01	-4.69675589E+01
1.60100000E+09	 4.98416798E-01	-4.69921352E+01
1.60200000E+09	 4.98527913E-01	-4.70173493E+01
1.60300000E+09	 4.98655679E-01	-4.70502999E+01
1.60400000E+09	 4.98707402E-01	-4.70772459E+01
1.60500000E+09	 4.98846482E-01	-4.70996749E+01
1.60600000E+09	 4.99008597E-01	-4.71272832E+01
1.60700000E+09	 4.99218952E-01	-4.71489816E+01
1.60800000E+09	 4.99239398E-01	-4.71762352E+01
1.60900000E+09	 4.99473176E-01	-4.71979564E+01
1.61000000E+09	 4.99503287E-01	-4.72113847E+01
1.61100000E+09	 4.99720875E-01	-4.72380938E+01
1.61200000E+09	 4.99883002E-01	-4.72595704E+01
1.61300000E+09	 5.00036522E-01	-4.72820789E+01
1.61400000E+09	 5.00169471E-01	-4.73009093E+01
1.61500000E+09	 5.00350131E-01	-4.73213175E+01
1.61600000E+09	 5.00451597E-01	-4.73459235E+01
1.61700000E+09	 5.00629055E-01	-4.73629937E+01
1.61800000E+09	 5.00796267E-01	-4.73838340E+01
1.61900000E+09	 5.00854475E-01	-4.73939899E+01
1.62000000E+09	 5.01012418E-01	-4.74198399E+01
1.62100000E+09	 5.01200962E-01	-4.74361108E+01
1.62200000E+09	 5.01320613E-01	-4.74653372E+01
1.62300000E+09	 5.01487334E-01	-4.74725645E+01
1.62400000E+09	 5.01623400E-01	-4.74877901E+01
1.62500000E+09	 5.01749685E-01	-4.75073810E+01
1.62600000E+09	 5.01837847E-01	-4.75251526E+01
1.62700000E+09	 5.01957133E-01	-4.75414977E+01
1.62800000E+09	 5.02154787E-01	-4.75508995E+01
1.62900000E+09	 5.02309032E-01	-4.75710140E+01
1.63000000E+09	 5.02420384E-01	-4.75869138E+01
1.63100000E+09	 5.02580577E-01	-4.76014554E+01
1.63200000E+09	 5.02805823E-01	-4.76204345E+01
1.63300000E+09	 5.02953674E-01	-4.76235008E+01
1.63400000E+09	 5.03162779E-01	-4.76338070E+01
1.63500000E+09	 5.03382378E-01	-4.76399439E+01
1.63600000E+09	 5.03509725E-01	-4.76467526E+01
1.63700000E+09	 5.03635260E-01	-4.76736831E+01
1.63800000E+09	 5.03746076E-01	-4.76801770E+01
1.63900000E+09	 5.03953586E-01	-4.76812312E+01
1.64000000E+09	 5.04061572E-01	-4.76954374E+01
1.64100000E+09	 5.04293655E-01	-4.77094318E+01
1.64200000E+09	 5.04314555E-01	-4.77111358E+01
1.64300000E+09	 5.04579310E-01	-4.77193991E+01
1.64400000E+09	 5.04655778E-01	-4.77193239E+01
1.64500000E+09	 5.04858868E-01	-4.77409328E+01
1.64600000E+09	 5.05007668E-01	-4.77384521E+01
1.64700000E+09	 5.05121326E-01	-4.77466538E+01
1.64800000E+09	 5.05290757E-01	-4.77425859E+01
1.64900000E+09	 5.05441139E-01	-4.77557401E+01
1.65000000E+09	 5.05636651E-01	-4.77591906E+01
1.65100000E+09	 5.05793264E-01	-4.77635954E+01
1.65200000E+09	 5.05879548E-01	-4.77768201E+01
1.65300000E+09	 5.06135915E-01	-4.77693557E+01
1.65400000E+09	 5.06246091E-01	-4.77782843E+01
1.65500000E+09	 5.06322785E-01	-4.77802114E+01
1.65600000E+09	 5.06541559E-01	-4.77848171E+01
1.65700000E+09	 5.06725947E-01	-4.77861190E+01
1.65800000E+09	 5.06780353E-01	-4.77895159E+01
1.65900000E+09	 5.06974173E-01	-4.77940381E+01
1.66000000E+09	 5.07101824E-01	-4.77910377E+01
1.66100000E+09	 5.07227885E-01	-4.77996873E+01
1.66200000E+09	 5.07291759E-01	-4.77928716E+01
1.66300000E+09	 5.07642722E-01	-4.77958213E+01
1.66400000E+09	 5.07536842E-01	-4.77881303E+01
1.66500000E+09	 5.07677633E-01	-4.77945570E+01
1.66600000E+09	 5.07885491E-01	-4.77879532E+01
1.66700000E+09	 5.07982025E-01	-4.77884982E+01
1.66800000E+09	 5.08095150E-01	-4.77922510E+01
1.66900000E+09	 5.08268166E-01	-4.77871342E+01
1.67000000E+09	 5.08398341E-01	-4.77885134E+01
1.67100000E+09	 5.08466888E-01	-4.77962305E+01
1.67200000E+09	 5.08712075E-01	-4.77849560E+01
1.67300000E+09	 5.08792497E-01	-4.77851812E+01
1.67400000E+09	 5.08849872E-01	-4.77843795E+01
1.67500000E+09	 5.09069696E-01	-4.77839116E+01
1.67600000E+09	 5.09145472E-01	-4.77775545E+01
1.67700000E+09	 5.09217906E-01	-4.77773329E+01
1.67800000E+09	 5.09398496E-01	-4.77619039E+01
1.67900000E+09	 5.09534095E-01	-4.77732581E+01
1.68000000E+09	 5.09569539E-01	-4.77716345E+01
1.68100000E+09	 5.09852605E-01	-4.77710776E+01
1.68200000E+09	 5.09857268E-01	-4.77643025E+01
1.68300000E+09	 5.10050882E-01	-4.77671292E+01
1.68400000E+09	 5.10190049E-01	-4.77551737E+01
1.68500000E+09	 5.10342739E-01	-4.77500397E+01
1.68600000E+09	 5.10409015E-01	-4.77502449E+01
1.68700000E+09	 5.10558014E-01	-4.77416823E+01
1.68800000E+09	 5.10607633E-01	-4.77336675E+01
1.68900000E+09	 5.10752921E-01	-4.77358504E+01
1.69000000E+09	 5.10850960E-01	-4.77321014E+01
1.69100000E+09	 5.10977019E-01	-4.77146411E+01
1.69200000E+09	 5.11088617E-01	-4.77143101E+01
1.69300000E+09	 5.11238570E-01	-4.77071657E+01
1.69400000E+09	 5.11293472E-01	-4.77035912E+01
1.69500000E+09	 5.11301540E-01	-4.76910251E+01
1.69600000E+09	 5.11497581E-01	-4.76770668E+01
1.69700000E+09	 5.11578235E-01	-4.76782924E+01
1.69800000E+09	 5.11736994E-01	-4.76685904E+01
1.69900000E+09	 5.11777214E-01	-4.76645379E+01
1.70000000E+09	 5.11886543E-01	-4.76493183E+01
1.70100000E+09	 5.11902842E-01	-4.76436549E+01
1.70200000E+09	 5.12016557E-01	-4.76293976E+01
1.70300000E+09	 5.12196744E-01	-4.76306892E+01
1.70400000E+09	 5.12219327E-01	-4.76153467E+01
1.70500000E+09	 5.12336488E-01	-4.76095756E+01
1.70600000E+09	 5.12418779E-01	-4.75942898E+01
1.70700000E+09	 5.12463922E-01	-4.75872278E+01
1.70800000E+09	 5.12539774E-01	-4.75765635E+01
1.70900000E+09	 5.12618444E-01	-4.75601675E+01
1.71000000E+09	 5.12738782E-01	-4.75504620E+01
1.71100000E+09	 5.12738320E-01	-4.75375834E+01
1.71200000E+09	 5.12824754E-01	-4.75283963E+01
1.71300000E+09	 5.12859868E-01	-4.75180289E+01
1.71400000E+09	 5.12983919E-01	-4.75081597E+01
1.71500000E+09	 5.12960033E-01	-4.74965876E+01
1.71600000E+09	 5.12955504E-01	-4.74840060E+01
1.71700000E+09	 5.13011455E-01	-4.74738104E+01
1.71800000E+09	 5.13119352E-01	-4.74650468E+01
1.71900000E+09	 5.13142233E-01	-4.74572003E+01
1.72000000E+09	 5.13115690E-01	-4.74488701E+01
1.72100000E+09	 5.13220414E-01	-4.74372190E+01
1.72200000E+09	 5.13227424E-01	-4.74327499E+01
1.72300000E+09	 5.13286157E-01	-4.74196836E+01
1.72400000E+09	 5.13168026E-01	-4.74099128E+01
1.72500000E+09	 5.13364490E-01	-4.74086164E+01
1.72600000E+09	 5.13310787E-01	-4.73980675E+01
1.72700000E+09	 5.13398090E-01	-4.73924874E+01
1.72800000E+09	 5.13325672E-01	-4.73785713E+01
1.72900000E+09	 5.13467565E-01	-4.73624431E+01
1.73000000E+09	 5.13460259E-01	-4.73493955E+01
1.73100000E+09	 5.13434101E-01	-4.73417286E+01
1.73200000E+09	 5.13489703E-01	-4.73331802E+01
1.73300000E+09	 5.13521576E-01	-4.73220855E+01
1.73400000E+09	 5.13589553E-01	-4.73135240E+01
1.73500000E+09	 5.13633313E-01	-4.73040250E+01
1.73600000E+09	 5.13541610E-01	-4.72905090E+01
1.73700000E+09	 5.13733539E-01	-4.72831432E+01
1.73800000E+09	 5.13626434E-01	-4.72642205E+01
1.73900000E+09	 5.13650656E-01	-4.72611995E+01
1.74000000E+09	 5.13718840E-01	-4.72449327E+01
1.74100000E+09	 5.13719329E-01	-4.72316954E+01
1.74200000E+09	 5.13756445E-01	-4.72207688E+01
1.74300000E+09	 5.13631879E-01	-4.72159006E+01
1.74400000E+09	 5.13729643E-01	-4.71917217E+01
1.74500000E+09	 5.13757972E-01	-4.71832875E+01
1.74600000E+09	 5.13647999E-01	-4.71729060E+01
1.74700000E+09	 5.13621845E-01	-4.71568425E+01
1.74800000E+09	 5.13656119E-01	-4.71463180E+01
1.74900000E+09	 5.13524497E-01	-4.71347819E+01
1.75000000E+09	 5.13522973E-01	-4.71300615E+01
1.75100000E+09	 5.13532974E-01	-4.71157524E+01
1.75200000E+09	 5.13438865E-01	-4.70964110E+01
1.75300000E+09	 5.13478833E-01	-4.70828659E+01
1.75400000E+09	 5.13352211E-01	-4.70829585E+01
1.75500000E+09	 5.13331979E-01	-4.70595504E+01
1.75600000E+09	 5.13287006E-01	-4.70528906E+01
1.75700000E+09	 5.13266360E-01	-4.70475906E+01
1.75800000E+09	 5.13168807E-01	-4.70204226E+01
1.75900000E+09	 5.13110685E-01	-4.70230490E+01
1.76000000E+09	 5.13072170E-01	-4.70046215E+01
1.76100000E+09	 5.12953060E-01	-4.70073433E+01
1.76200000E+09	 5.12889142E-01	-4.69962977E+01
1.76300000E+09	 5.12832444E-01	-4.69843304E+01
1.76400000E+09	 5.12671077E-01	-4.69834215E+01
1.76500000E+09	 5.12692977E-01	-4.69737652E+01
1.76600000E+09	 5.12529942E-01	-4.69659095E+01
1.76700000E+09	 5.12401421E-01	-4.69571731E+01
1.76800000E+09	 5.12269407E-01	-4.69474812E+01
1.76900000E+09	 5.12197832E-01	-4.69536138E+01
1.77000000E+09	 5.12048240E-01	-4.69520669E+01
1.77100000E+09	 5.11981996E-01	-4.69273658E+01
1.77200000E+09	 5.11905385E-01	-4.69411511E+01
1.77300000E+09	 5.11815319E-01	-4.69184581E+01
1.77400000E+09	 5.11698582E-01	-4.69239171E+01
1.77500000E+09	 5.11770924E-01	-4.69244929E+01
1.77600000E+09	 5.11514108E-01	-4.69263957E+01
1.77700000E+09	 5.11537398E-01	-4.69183675E+01
1.77800000E+09	 5.11375054E-01	-4.69175971E+01
1.77900000E+09	 5.11295267E-01	-4.69049534E+01
1.78000000E+09	 5.11257595E-01	-4.68980888E+01
1.78100000E+09	 5.11168799E-01	-4.68950005E+01
1.78200000E+09	 5.10984212E-01	-4.68854588E+01
1.78300000E+09	 5.10940097E-01	-4.68757817E+01
1.78400000E+09	 5.10758823E-01	-4.68611459E+01
1.78500000E+09	 5.10810103E-01	-4.68648726E+01
1.78600000E+09	 5.10695222E-01	-4.68543009E+01
1.78700000E+09	 5.10642084E-01	-4.68436659E+01
1.78800000E+09	 5.10463402E-01	-4.68450714E+01
1.78900000E+09	 5.10347859E-01	-4.68349944E+01
1.79000000E+09	 5.10213516E-01	-4.68263170E+01
1.79100000E+09	 5.10017622E-01	-4.68216322E+01
1.79200000E+09	 5.09944813E-01	-4.68113372E+01
1.79300000E+09	 5.09776932E-01	-4.68103929E+01
1.79400000E+09	 5.09664409E-01	-4.68019904E+01
1.79500000E+09	 5.09493528E-01	-4.67978151E+01
1.79600000E+09	 5.09331493E-01	-4.68052858E+01
1.79700000E+09	 5.09161505E-01	-4.67943010E+01
1.79800000E+09	 5.09060690E-01	-4.67962249E+01
1.79900000E+09	 5.08876503E-01	-4.67941640E+01
1.80000000E+09	 5.08740380E-01	-4.68019030E+01
1.80100000E+09	 5.08532258E-01	-4.67998834E+01
1.80200000E+09	 5.08395109E-01	-4.67957490E+01
1.80300000E+09	 5.08293832E-01	-4.67965879E+01
1.80400000E+09	 5.08178862E-01	-4.67940263E+01
1.80500000E+09	 5.08000659E-01	-4.68017078E+01
1.80600000E+09	 5.07926632E-01	-4.67992936E+01
1.80700000E+09	 5.07808599E-01	-4.68055755E+01
1.80800000E+09	 5.07688072E-01	-4.68000830E+01
1.80900000E+09	 5.07454232E-01	-4.67988431E+01
1.81000000E+09	 5.07376428E-01	-4.67968331E+01
1.81100000E+09	 5.07250400E-01	-4.67971175E+01
1.81200000E+09	 5.07153284E-01	-4.67973757E+01
1.81300000E+09	 5.06981744E-01	-4.67981155E+01
1.81400000E+09	 5.06840396E-01	-4.68033627E+01
1.81500000E+09	 5.06723662E-01	-4.68010709E+01
1.81600000E+09	 5.06543599E-01	-4.67964500E+01
1.81700000E+09	 5.06320763E-01	-4.68056064E+01
1.81800000E+09	 5.06187242E-01	-4.67981757E+01
1.81900000E+09	 5.05974434E-01	-4.68074448E+01
1.82000000E+09	 5.05849967E-01	-4.68087412E+01
1.82100000E+09	 5.05718138E-01	-4.68052673E+01
1.82200000E+09	 5.05501627E-01	-4.68049025E+01
1.82300000E+09	 5.05314936E-01	-4.68108599E+01
1.82400000E+09	 5.05166313E-01	-4.68164407E+01
1.82500000E+09	 5.05010470E-01	-4.68151542E+01
1.82600000E+09	 5.04836338E-01	-4.68243519E+01
1.82700000E+09	 5.04666644E-01	-4.68299206E+01
1.82800000E+09	 5.04440719E-01	-4.68343163E+01
1.82900000E+09	 5.04280254E-01	-4.68437656E+01
1.83000000E+09	 5.04151719E-01	-4.68519668E+01
1.83100000E+09	 5.03977315E-01	-4.68591424E+01
1.83200000E+09	 5.03789802E-01	-4.68590008E+01
1.83300000E+09	 5.03617540E-01	-4.68733333E+01
1.83400000E+09	 5.03462739E-01	-4.68815751E+01
1.83500000E+09	 5.03320646E-01	-4.68886293E+01
1.83600000E+09	 5.03191612E-01	-4.68969634E+01
1.83700000E+09	 5.02993865E-01	-4.69054298E+01
1.83800000E+09	 5.02851703E-01	-4.69249713E+01
1.83900000E+09	 5.02675285E-01	-4.69284433E+01
1.84000000E+09	 5.02585695E-01	-4.69375961E+01
1.84100000E+09	 5.02400911E-01	-4.69445004E+01
1.84200000E+09	 5.02298820E-01	-4.69557031E+01
1.84300000E+09	 5.02170393E-01	-4.69593799E+01
1.84400000E+09	 5.02074729E-01	-4.69725920E+01
1.84500000E+09	 5.01814965E-01	-4.69806236E+01
1.84600000E+09	 5.01825891E-01	-4.70003116E+01
1.84700000E+09	 5.01724232E-01	-4.70162831E+01
1.84800000E+09	 5.01616469E-01	-4.70112558E+01
1.84900000E+09	 5.01506101E-01	-4.70272124E+01
1.85000000E+09	 5.01435969E-01	-4.70479718E+01
1.85100000E+09	 5.01366304E-01	-4.70619313E+01
1.85200000E+09	 5.01018000E-01	-4.70692031E+01
1.85300000E+09	 5.01025351E-01	-4.70807257E+01
1.85400000E+09	 5.00973941E-01	-4.70977745E+01
1.85500000E+09	 5.00902225E-01	-4.70969633E+01
1.85600000E+09	 5.00817613E-01	-4.71124355E+01
1.85700000E+09	 5.00792001E-01	-4.71240240E+01
1.85800000E+09	 5.00659480E-01	-4.71273367E+01
1.85900000E+09	 5.00597880E-01	-4.71383034E+01
1.86000000E+09	 5.00531188E-01	-4.71539061E+01
1.86100000E+09	 5.00415311E-01	-4.71543435E+01
1.86200000E+09	 5.00374051E-01	-4.71569543E+01
1.86300000E+09	 5.00294482E-01	-4.71806769E+01
1.86400000E+09	 5.00068608E-01	-4.71724283E+01
1.86500000E+09	 4.99978296E-01	-4.71809102E+01
1.86600000E+09	 4.99988024E-01	-4.71860926E+01
1.86700000E+09	 4.99880752E-01	-4.72000496E+01
1.86800000E+09	 4.99743793E-01	-4.72085992E+01
1.86900000E+09	 4.99640697E-01	-4.72153736E+01
1.87000000E+09	 4.99503384E-01	-4.72343904E+01
1.87100000E+09	 4.99413881E-01	-4.72244952E+01
1.87200000E+09	 4.99291668E-01	-4.72508952E+01
1.87300000E+09	 4.99227982E-01	-4.72709876E+01
1.87400000E+09	 4.99057021E-01	-4.72611411E+01
1.87500000E+09	 4.99044207E-01	-4.72915987E+01
1.87600000E+09	 4.98905131E-01	-4.73042889E+01
1.87700000E+09	 4.98875010E-01	-4.73290572E+01
1.87800000E+09	 4.98857982E-01	-4.73475553E+01
1.87900000E+09	 4.98675524E-01	-4.73645844E+01
1.88000000E+09	 4.98612059E-01	-4.73754845E+01
1.88100000E+09	 4.98556871E-01	-4.74009734E+01
1.88200000E+09	 4.98491202E-01	-4.74276534E+01
1.88300000E+09	 4.98336503E-01	-4.74352485E+01
1.88400000E+09	 4.98397050E-01	-4.74590197E+01
1.88500000E+09	 4.98221251E-01	-4.74656540E+01
1.88600000E+09	 4.98336115E-01	-4.74791668E+01
1.88700000E+09	 4.98297496E-01	-4.74964177E+01
1.88800000E+09	 4.98256996E-01	-4.75232465E+01
1.88900000E+09	 4.98192886E-01	-4.75305788E+01
1.89000000E+09	 4.98139612E-01	-4.75446231E+01
1.89100000E+09	 4.98049366E-01	-4.75461139E+01
1.89200000E+09	 4.98110813E-01	-4.75584052E+01
1.89300000E+09	 4.97970469E-01	-4.75706355E+01
1.89400000E+09	 4.97792445E-01	-4.75893992E+01
1.89500000E+09	 4.97796746E-01	-4.75992683E+01
1.89600000E+09	 4.97712754E-01	-4.76087854E+01
1.89700000E+09	 4.97692497E-01	-4.76251156E+01
1.89800000E+09	 4.97634874E-01	-4.76428181E+01
1.89900000E+09	 4.97595196E-01	-4.76572037E+01
1.90000000E+09	 4.97506497E-01	-4.76578983E+01
1.90100000E+09	 4.97397325E-01	-4.76749120E+01
1.90200000E+09	 4.97352600E-01	-4.77003559E+01
1.90300000E+09	 4.97324647E-01	-4.77165654E+01
1.90400000E+09	 4.97219365E-01	-4.77259777E+01
1.90500000E+09	 4.97183733E-01	-4.77522853E+01
1.90600000E+09	 4.97078518E-01	-4.77611469E+01
1.90700000E+09	 4.97011065E-01	-4.77826258E+01
1.90800000E+09	 4.96965347E-01	-4.77966466E+01
1.90900000E+09	 4.96887051E-01	-4.78045986E+01
1.91000000E+09	 4.96947678E-01	-4.78260534E+01
1.91100000E+09	 4.96936252E-01	-4.78564288E+01
1.91200000E+09	 4.96845519E-01	-4.78515817E+01
1.91300000E+09	 4.96873423E-01	-4.78856190E+01
1.91400000E+09	 4.96850265E-01	-4.78998577E+01
1.91500000E+09	 4.96809863E-01	-4.79129572E+01
1.91600000E+09	 4.96863627E-01	-4.79362895E+01
1.91700000E+09	 4.96900850E-01	-4.79484027E+01
1.91800000E+09	 4.96904677E-01	-4.79503526E+01
1.91900000E+09	 4.96899770E-01	-4.79805736E+01
1.92000000E+09	 4.96951168E-01	-4.80024165E+01
1.92100000E+09	 4.96935844E-01	-4.80172822E+01
1.92200000E+09	 4.96932157E-01	-4.80331515E+01
1.92300000E+09	 4.97014979E-01	-4.80474174E+01
1.92400000E+09	 4.96921579E-01	-4.80650036E+01
1.92500000E+09	 4.97026734E-01	-4.80861315E+01
1.92600000E+09	 4.96928275E-01	-4.80977307E+01
1.92700000E+09	 4.96913113E-01	-4.81072458E+01
1.92800000E+09	 4.97002569E-01	-4.81315025E+01
1.92900000E+09	 4.96956351E-01	-4.81477078E+01
1.93000000E+09	 4.96915252E-01	-4.81643463E+01
1.93100000E+09	 4.96941282E-01	-4.81690445E+01
1.93200000E+09	 4.97064505E-01	-4.81841950E+01
1.93300000E+09	 4.97007756E-01	-4.81956716E+01
1.93400000E+09	 4.97102449E-01	-4.82174829E+01
1.93500000E+09	 4.97090239E-01	-4.82275422E+01
1.93600000E+09	 4.97092403E-01	-4.82368506E+01
1.93700000E+09	 4.97129734E-01	-4.82670759E+01
1.93800000E+09	 4.97144040E-01	-4.82795722E+01
1.93900000E+09	 4.97195593E-01	-4.82909947E+01
1.94000000E+09	 4.97309622E-01	-4.82960945E+01
1.94100000E+09	 4.97344200E-01	-4.83096383E+01
1.94200000E+09	 4.97373116E-01	-4.83199907E+01
1.94300000E+09	 4.97344849E-01	-4.83355516E+01
1.94400000E+09	 4.97478308E-01	-4.83439660E+01
1.94500000E+09	 4.97550103E-01	-4.83620285E+01
1.94600000E+09	 4.97698602E-01	-4.83679449E+01
1.94700000E+09	 4.97674495E-01	-4.83793845E+01
1.94800000E+09	 4.97730471E-01	-4.83884461E+01
1.94900000E+09	 4.97828656E-01	-4.84056890E+01
1.95000000E+09	 4.97883395E-01	-4.84141702E+01
1.95100000E+09	 4.98015962E-01	-4.84228775E+01
1.95200000E+09	 4.98068829E-01	-4.84241921E+01
1.95300000E+09	 4.98099948E-01	-4.84350136E+01
1.95400000E+09	 4.98068053E-01	-4.84454391E+01
1.95500000E+09	 4.98279735E-01	-4.84549494E+01
1.95600000E+09	 4.98331008E-01	-4.84556065E+01
1.95700000E+09	 4.98444556E-01	-4.84593826E+01
1.95800000E+09	 4.98426996E-01	-4.84809404E+01
1.95900000E+09	 4.98550372E-01	-4.84749333E+01
1.96000000E+09	 4.98690314E-01	-4.84820727E+01
1.96100000E+09	 4.98723632E-01	-4.84912638E+01
1.96200000E+09	 4.98831812E-01	-4.84936927E+01
1.96300000E+09	 4.98883177E-01	-4.85015899E+01
1.96400000E+09	 4.99002669E-01	-4.84968912E+01
1.96500000E+09	 4.99089206E-01	-4.85055380E+01
1.96600000E+09	 4.99160605E-01	-4.85067637E+01
1.96700000E+09	 4.99252935E-01	-4.85154234E+01
1.96800000E+09	 4.99327290E-01	-4.85092659E+01
1.96900000E+09	 4.99337186E-01	-4.85126868E+01
1.97000000E+09	 4.99420582E-01	-4.85120458E+01
1.97100000E+09	 4.99555112E-01	-4.85278143E+01
1.97200000E+09	 4.99536320E-01	-4.85132372E+01
1.97300000E+09	 4.99652684E-01	-4.85152219E+01
1.97400000E+09	 4.99800754E-01	-4.85158108E+01
1.97500000E+09	 4.99818445E-01	-4.85215392E+01
1.97600000E+09	 4.99917980E-01	-4.85324723E+01
1.97700000E+09	 5.00032115E-01	-4.85332065E+01
1.97800000E+09	 5.00064281E-01	-4.85235461E+01
1.97900000E+09	 5.00090099E-01	-4.85314544E+01
1.98000000E+09	 5.00217589E-01	-4.85359342E+01
1.98100000E+09	 5.00196731E-01	-4.85298655E+01
1.98200000E+09	 5.00269498E-01	-4.85302873E+01
1.98300000E+09	 5.00418342E-01	-4.85323521E+01
1.98400000E+09	 5.00342644E-01	-4.85315142E+01
1.98500000E+09	 5.00459914E-01	-4.85340657E+01
1.98600000E+09	 5.00508031E-01	-4.85329814E+01
1.98700000E+09	 5.00588170E-01	-4.85235361E+01
1.98800000E+09	 5.00579753E-01	-4.85288331E+01
1.98900000E+09	 5.00674908E-01	-4.85204590E+01
1.99000000E+09	 5.00696653E-01	-4.85164299E+01
1.99100000E+09	 5.00700964E-01	-4.85183454E+01
1.99200000E+09	 5.00806233E-01	-4.85206110E+01
1.99300000E+09	 5.00903436E-01	-4.85104363E+01
1.99400000E+09	 5.00929749E-01	-4.85145671E+01
1.99500000E+09	 5.01053812E-01	-4.85107792E+01
1.99600000E+09	 5.01055729E-01	-4.85112203E+01
1.99700000E+09	 5.01120817E-01	-4.84981510E+01
1.99800000E+09	 5.01130437E-01	-4.84964839E+01
1.99900000E+09	 5.01258018E-01	-4.84909643E+01
2.00000000E+09	 5.01214662E-01	-4.84957488E+01
