! COPPER MOUNTAIN TECHNOLOGIES, R60, 23103002, 24.3.3/3.0
! Date: 24/6/2026 12:15:08
! Data: Format [Calibration Info]
! Frequency		S11: Mag/Ang F1                
# HZ S MA R 50
1.00000000E+06	 1.00048498E+00	-1.79999172E+02
2.00000000E+06	 1.00066707E+00	-1.79995612E+02
3.00000000E+06	 1.00063348E+00	-1.79995877E+02
4.00000000E+06	 1.00065293E+00	 1.79995402E+02
5.00000000E+06	 1.00068592E+00	 1.79999948E+02
6.00000000E+06	 1.00064907E+00	-1.79996720E+02
7.00000000E+06	 1.00068175E+00	-1.79996669E+02
8.00000000E+06	 1.00060582E+00	-1.79992012E+02
9.00000000E+06	 1.00071022E+00	-1.79999979E+02
1.00000000E+07	 1.00067822E+00	-1.79997135E+02
1.10000000E+07	 1.00067978E+00	 1.79999593E+02
1.20000000E+07	 1.00047528E+00	-1.79993150E+02
1.30000000E+07	 1.00067809E+00	-1.79996171E+02
1.40000000E+07	 1.00059135E+00	-1.79994866E+02
1.50000000E+07	 1.00073110E+00	-1.79999320E+02
1.60000000E+07	 1.00068347E+00	-1.79999201E+02
1.70000000E+07	 1.00066795E+00	-1.79995810E+02
1.80000000E+07	 1.00066285E+00	-1.79999390E+02
1.90000000E+07	 1.00067470E+00	-1.79994374E+02
2.00000000E+07	 1.00058444E+00	-1.79990225E+02
2.10000000E+07	 1.00058969E+00	-1.79999243E+02
2.20000000E+07	 1.00076232E+00	-1.79998213E+02
2.30000000E+07	 1.00075073E+00	-1.79993125E+02
2.40000000E+07	 1.00070247E+00	 1.79998219E+02
2.50000000E+07	 1.00074670E+00	-1.79998273E+02
2.60000000E+07	 1.00069005E+00	-1.79996426E+02
2.70000000E+07	 1.00067723E+00	 1.79997795E+02
2.80000000E+07	 1.00051409E+00	-1.79990898E+02
2.90000000E+07	 1.00067476E+00	-1.79992375E+02
3.00000000E+07	 1.00065512E+00	 1.79996809E+02
3.10000000E+07	 1.00062168E+00	-1.79997979E+02
3.20000000E+07	 1.00055565E+00	-1.79999185E+02
3.30000000E+07	 1.00070128E+00	-1.79994959E+02
3.40000000E+07	 1.00077862E+00	-1.79999140E+02
3.50000000E+07	 1.00056964E+00	 1.79992982E+02
3.60000000E+07	 1.00054792E+00	-1.79986301E+02
3.70000000E+07	 1.00076161E+00	 1.79999299E+02
3.80000000E+07	 1.00060524E+00	-1.79998651E+02
3.90000000E+07	 1.00052236E+00	-1.79995414E+02
4.00000000E+07	 1.00069055E+00	 1.79998907E+02
4.10000000E+07	 1.00068256E+00	-1.79999323E+02
4.20000000E+07	 1.00061507E+00	-1.79992769E+02
4.30000000E+07	 1.00049972E+00	-1.79994311E+02
4.40000000E+07	 1.00065992E+00	-1.79989356E+02
4.50000000E+07	 1.00056722E+00	-1.79997237E+02
4.60000000E+07	 1.00064870E+00	-1.79993152E+02
4.70000000E+07	 1.00068195E+00	-1.79994482E+02
4.80000000E+07	 1.00054446E+00	-1.79993633E+02
4.90000000E+07	 1.00057654E+00	-1.79994664E+02
5.00000000E+07	 1.00066185E+00	-1.79992175E+02
5.10000000E+07	 1.00069715E+00	 1.79997280E+02
5.20000000E+07	 1.00067381E+00	-1.79990280E+02
5.30000000E+07	 1.00058404E+00	-1.79996836E+02
5.40000000E+07	 1.00062413E+00	 1.79998672E+02
5.50000000E+07	 1.00060131E+00	-1.79991926E+02
5.60000000E+07	 1.00061889E+00	-1.79993160E+02
5.70000000E+07	 1.00052106E+00	-1.79991043E+02
5.80000000E+07	 1.00069185E+00	-1.79998379E+02
5.90000000E+07	 1.00053303E+00	-1.79997035E+02
6.00000000E+07	 1.00070028E+00	-1.79993197E+02
6.10000000E+07	 1.00062795E+00	-1.79993802E+02
6.20000000E+07	 1.00073493E+00	-1.79997047E+02
6.30000000E+07	 1.00065007E+00	 1.79998290E+02
6.40000000E+07	 1.00066581E+00	 1.79999652E+02
6.50000000E+07	 1.00054726E+00	-1.79993865E+02
6.60000000E+07	 1.00068347E+00	 1.79999911E+02
6.70000000E+07	 1.00062450E+00	-1.79993630E+02
6.80000000E+07	 1.00078093E+00	 1.79998632E+02
6.90000000E+07	 1.00067519E+00	-1.79997602E+02
7.00000000E+07	 1.00063585E+00	-1.79991587E+02
7.10000000E+07	 1.00058066E+00	-1.79994490E+02
7.20000000E+07	 1.00068692E+00	-1.79995579E+02
7.30000000E+07	 1.00062696E+00	-1.79993427E+02
7.40000000E+07	 1.00064096E+00	-1.79997587E+02
7.50000000E+07	 1.00069150E+00	-1.79996079E+02
7.60000000E+07	 1.00063637E+00	-1.79997425E+02
7.70000000E+07	 1.00051325E+00	-1.79997344E+02
7.80000000E+07	 1.00064642E+00	-1.79997543E+02
7.90000000E+07	 1.00060635E+00	-1.79994261E+02
8.00000000E+07	 1.00073865E+00	-1.79997173E+02
8.10000000E+07	 1.00068540E+00	-1.79998311E+02
8.20000000E+07	 1.00066752E+00	-1.79997097E+02
8.30000000E+07	 1.00065473E+00	-1.79993944E+02
8.40000000E+07	 1.00061075E+00	-1.79997189E+02
8.50000000E+07	 1.00070115E+00	-1.79991345E+02
8.60000000E+07	 1.00067487E+00	-1.79995861E+02
8.70000000E+07	 1.00071051E+00	-1.79994793E+02
8.80000000E+07	 1.00062904E+00	-1.79998747E+02
8.90000000E+07	 1.00057355E+00	-1.79995219E+02
9.00000000E+07	 1.00074112E+00	-1.79989953E+02
9.10000000E+07	 1.00057118E+00	-1.79997054E+02
9.20000000E+07	 1.00069991E+00	 1.79996172E+02
9.30000000E+07	 1.00067579E+00	-1.79994853E+02
9.40000000E+07	 1.00063803E+00	-1.79999362E+02
9.50000000E+07	 1.00060104E+00	 1.79994932E+02
9.60000000E+07	 1.00052705E+00	-1.79994311E+02
9.70000000E+07	 1.00064740E+00	 1.79999321E+02
9.80000000E+07	 1.00065539E+00	 1.79995429E+02
9.90000000E+07	 1.00061854E+00	 1.79997996E+02
1.00000000E+08	 1.00049183E+00	 1.79998684E+02
1.01000000E+08	 1.00075569E+00	-1.79996435E+02
1.02000000E+08	 1.00075575E+00	 1.79995650E+02
1.03000000E+08	 1.00065079E+00	-1.79993707E+02
1.04000000E+08	 1.00060698E+00	-1.79998947E+02
1.05000000E+08	 1.00071185E+00	-1.79998220E+02
1.06000000E+08	 1.00072035E+00	-1.79996328E+02
1.07000000E+08	 1.00073295E+00	 1.79997322E+02
1.08000000E+08	 1.00053544E+00	 1.79998393E+02
1.09000000E+08	 1.00061607E+00	 1.79997372E+02
1.10000000E+08	 1.00068080E+00	-1.79999175E+02
1.11000000E+08	 1.00071363E+00	-1.79993619E+02
1.12000000E+08	 1.00066463E+00	-1.79999455E+02
1.13000000E+08	 1.00072315E+00	-1.79994268E+02
1.14000000E+08	 1.00065405E+00	 1.79995445E+02
1.15000000E+08	 1.00062415E+00	 1.79993259E+02
1.16000000E+08	 1.00075861E+00	-1.79995088E+02
1.17000000E+08	 1.00064860E+00	-1.79993807E+02
1.18000000E+08	 1.00077010E+00	-1.79994301E+02
1.19000000E+08	 1.00065321E+00	-1.79998414E+02
1.20000000E+08	 1.00065937E+00	-1.79998651E+02
1.21000000E+08	 1.00063690E+00	 1.79996863E+02
1.22000000E+08	 1.00068478E+00	 1.79997988E+02
1.23000000E+08	 1.00061377E+00	-1.79997648E+02
1.24000000E+08	 1.00067742E+00	 1.79991825E+02
1.25000000E+08	 1.00065467E+00	 1.79994484E+02
1.26000000E+08	 1.00076783E+00	-1.79998501E+02
1.27000000E+08	 1.00063974E+00	 1.79997932E+02
1.28000000E+08	 1.00064401E+00	 1.79990925E+02
1.29000000E+08	 1.00074775E+00	 1.79997381E+02
1.30000000E+08	 1.00082223E+00	-1.79998958E+02
1.31000000E+08	 1.00061787E+00	 1.79998054E+02
1.32000000E+08	 1.00070193E+00	 1.79992531E+02
1.33000000E+08	 1.00061476E+00	 1.79991124E+02
1.34000000E+08	 1.00070732E+00	 1.79997957E+02
1.35000000E+08	 1.00062237E+00	 1.79997679E+02
1.36000000E+08	 1.00072797E+00	-1.79998379E+02
1.37000000E+08	 1.00074240E+00	 1.79998759E+02
1.38000000E+08	 1.00070908E+00	 1.79995989E+02
1.39000000E+08	 1.00058219E+00	-1.79995643E+02
1.40000000E+08	 1.00062167E+00	-1.79997867E+02
1.41000000E+08	 1.00056955E+00	 1.79994981E+02
1.42000000E+08	 1.00064156E+00	 1.79994810E+02
1.43000000E+08	 1.00061667E+00	-1.79997306E+02
1.44000000E+08	 1.00065459E+00	 1.79999085E+02
1.45000000E+08	 1.00064997E+00	-1.79999613E+02
1.46000000E+08	 1.00061219E+00	 1.79997540E+02
1.47000000E+08	 1.00067159E+00	 1.79990593E+02
1.48000000E+08	 1.00062116E+00	-1.79999310E+02
1.49000000E+08	 1.00057222E+00	 1.79998578E+02
1.50000000E+08	 1.00069481E+00	-1.79998361E+02
1.51000000E+08	 1.00076649E+00	 1.79997071E+02
1.52000000E+08	 1.00059933E+00	 1.79993563E+02
1.53000000E+08	 1.00065060E+00	 1.79997664E+02
1.54000000E+08	 1.00070669E+00	 1.79994288E+02
1.55000000E+08	 1.00055247E+00	 1.79997322E+02
1.56000000E+08	 1.00060825E+00	 1.79999383E+02
1.57000000E+08	 1.00055904E+00	-1.79999450E+02
1.58000000E+08	 1.00067992E+00	-1.79999960E+02
1.59000000E+08	 1.00058924E+00	-1.79997458E+02
1.60000000E+08	 1.00075238E+00	 1.79993069E+02
1.61000000E+08	 1.00059649E+00	 1.79997027E+02
1.62000000E+08	 1.00061032E+00	 1.79992095E+02
1.63000000E+08	 1.00061980E+00	-1.79997945E+02
1.64000000E+08	 1.00056251E+00	 1.79994599E+02
1.65000000E+08	 1.00048666E+00	-1.79998962E+02
1.66000000E+08	 1.00061951E+00	 1.79992630E+02
1.67000000E+08	 1.00057662E+00	 1.79992404E+02
1.68000000E+08	 1.00055987E+00	 1.79998508E+02
1.69000000E+08	 1.00060211E+00	 1.79996840E+02
1.70000000E+08	 1.00062414E+00	-1.79997683E+02
1.71000000E+08	 1.00046093E+00	 1.79991124E+02
1.72000000E+08	 1.00065394E+00	 1.79994375E+02
1.73000000E+08	 1.00068330E+00	 1.79997798E+02
1.74000000E+08	 1.00063276E+00	 1.79992194E+02
1.75000000E+08	 1.00061506E+00	-1.79998321E+02
1.76000000E+08	 1.00058551E+00	 1.79995147E+02
1.77000000E+08	 1.00055522E+00	 1.79990179E+02
1.78000000E+08	 1.00044732E+00	 1.79999961E+02
1.79000000E+08	 1.00059082E+00	 1.79992171E+02
1.80000000E+08	 1.00061795E+00	 1.79994124E+02
1.81000000E+08	 1.00066610E+00	 1.79999072E+02
1.82000000E+08	 1.00061868E+00	-1.79996553E+02
1.83000000E+08	 1.00072065E+00	 1.79992901E+02
1.84000000E+08	 1.00064333E+00	 1.79997008E+02
1.85000000E+08	 1.00049885E+00	 1.79999271E+02
1.86000000E+08	 1.00056318E+00	-1.79999150E+02
1.87000000E+08	 1.00045989E+00	 1.79997012E+02
1.88000000E+08	 1.00060481E+00	 1.79998500E+02
1.89000000E+08	 1.00059209E+00	 1.79995302E+02
1.90000000E+08	 1.00061679E+00	 1.79998771E+02
1.91000000E+08	 1.00069061E+00	 1.79993639E+02
1.92000000E+08	 1.00061982E+00	 1.79999202E+02
1.93000000E+08	 1.00062449E+00	 1.79997210E+02
1.94000000E+08	 1.00067623E+00	 1.79993831E+02
1.95000000E+08	 1.00054903E+00	 1.79996063E+02
1.96000000E+08	 1.00055225E+00	 1.79999717E+02
1.97000000E+08	 1.00058006E+00	 1.79992312E+02
1.98000000E+08	 1.00066013E+00	 1.79996141E+02
1.99000000E+08	 1.00052571E+00	 1.79995531E+02
2.00000000E+08	 1.00073094E+00	-1.79999198E+02
2.01000000E+08	 1.00060021E+00	 1.79992957E+02
2.02000000E+08	 1.00056719E+00	 1.79993016E+02
2.03000000E+08	 1.00062122E+00	 1.79995754E+02
2.04000000E+08	 1.00055406E+00	 1.79998892E+02
2.05000000E+08	 1.00059383E+00	 1.79994411E+02
2.06000000E+08	 1.00054982E+00	 1.79998860E+02
2.07000000E+08	 1.00057495E+00	 1.79993624E+02
2.08000000E+08	 1.00050536E+00	-1.79996906E+02
2.09000000E+08	 1.00060301E+00	 1.79998235E+02
2.10000000E+08	 1.00054892E+00	 1.79991744E+02
2.11000000E+08	 1.00054488E+00	 1.79999729E+02
2.12000000E+08	 1.00052340E+00	-1.79997883E+02
2.13000000E+08	 1.00060467E+00	 1.79999539E+02
2.14000000E+08	 1.00056229E+00	 1.79995580E+02
2.15000000E+08	 1.00052229E+00	-1.79999655E+02
2.16000000E+08	 1.00059127E+00	 1.79990811E+02
2.17000000E+08	 1.00044886E+00	 1.79997300E+02
2.18000000E+08	 1.00063695E+00	 1.79994591E+02
2.19000000E+08	 1.00056176E+00	-1.79999482E+02
2.20000000E+08	 1.00057450E+00	-1.79999310E+02
2.21000000E+08	 1.00056904E+00	 1.79999804E+02
2.22000000E+08	 1.00058134E+00	-1.79999652E+02
2.23000000E+08	 1.00057567E+00	-1.79986219E+02
2.24000000E+08	 1.00060121E+00	-1.79998027E+02
2.25000000E+08	 1.00055833E+00	 1.79997777E+02
2.26000000E+08	 1.00057537E+00	 1.79999724E+02
2.27000000E+08	 1.00064741E+00	 1.79998635E+02
2.28000000E+08	 1.00052969E+00	 1.79998881E+02
2.29000000E+08	 1.00059297E+00	-1.79999579E+02
2.30000000E+08	 1.00062694E+00	 1.79997023E+02
2.31000000E+08	 1.00060533E+00	-1.79998069E+02
2.32000000E+08	 1.00059440E+00	-1.79995961E+02
2.33000000E+08	 1.00056484E+00	-1.79999716E+02
2.34000000E+08	 1.00052223E+00	-1.79998526E+02
2.35000000E+08	 1.00049206E+00	-1.79999136E+02
2.36000000E+08	 1.00060746E+00	 1.79999671E+02
2.37000000E+08	 1.00064836E+00	-1.79999913E+02
2.38000000E+08	 1.00056224E+00	-1.79997651E+02
2.39000000E+08	 1.00056944E+00	 1.79999824E+02
2.40000000E+08	 1.00060647E+00	-1.79998236E+02
2.41000000E+08	 1.00054945E+00	-1.79994840E+02
2.42000000E+08	 1.00063395E+00	 1.79998284E+02
2.43000000E+08	 1.00050692E+00	 1.79996593E+02
2.44000000E+08	 1.00061047E+00	 1.79998832E+02
2.45000000E+08	 1.00056082E+00	-1.79993202E+02
2.46000000E+08	 1.00060762E+00	 1.79998504E+02
2.47000000E+08	 1.00066443E+00	-1.79998643E+02
2.48000000E+08	 1.00057272E+00	 1.79999973E+02
2.49000000E+08	 1.00067223E+00	-1.79992770E+02
2.50000000E+08	 1.00058827E+00	-1.79997978E+02
2.51000000E+08	 1.00065620E+00	-1.79999171E+02
2.52000000E+08	 1.00068622E+00	-1.79995460E+02
2.53000000E+08	 1.00067863E+00	 1.79996127E+02
2.54000000E+08	 1.00066365E+00	-1.79998542E+02
2.55000000E+08	 1.00065112E+00	-1.79998447E+02
2.56000000E+08	 1.00058950E+00	-1.79999668E+02
2.57000000E+08	 1.00066934E+00	-1.79999726E+02
2.58000000E+08	 1.00054061E+00	-1.79997170E+02
2.59000000E+08	 1.00056603E+00	-1.79997445E+02
2.60000000E+08	 1.00053340E+00	-1.79990269E+02
2.61000000E+08	 1.00057874E+00	-1.79995579E+02
2.62000000E+08	 1.00060553E+00	-1.79993747E+02
2.63000000E+08	 1.00056034E+00	-1.79999270E+02
2.64000000E+08	 1.00067263E+00	-1.79997987E+02
2.65000000E+08	 1.00054307E+00	 1.79997607E+02
2.66000000E+08	 1.00060382E+00	-1.79995633E+02
2.67000000E+08	 1.00065192E+00	-1.79997305E+02
2.68000000E+08	 1.00071087E+00	-1.79996994E+02
2.69000000E+08	 1.00065951E+00	-1.79996486E+02
2.70000000E+08	 1.00056164E+00	-1.79998931E+02
2.71000000E+08	 1.00068400E+00	-1.79997059E+02
2.72000000E+08	 1.00062819E+00	 1.79998985E+02
2.73000000E+08	 1.00062925E+00	-1.79998487E+02
2.74000000E+08	 1.00076040E+00	-1.79991137E+02
2.75000000E+08	 1.00061217E+00	-1.79995279E+02
2.76000000E+08	 1.00055995E+00	-1.79996885E+02
2.77000000E+08	 1.00058518E+00	-1.79997072E+02
2.78000000E+08	 1.00068404E+00	-1.79995682E+02
2.79000000E+08	 1.00059584E+00	-1.79999679E+02
2.80000000E+08	 1.00077230E+00	-1.79996726E+02
2.81000000E+08	 1.00066785E+00	 1.79996511E+02
2.82000000E+08	 1.00058160E+00	-1.79997637E+02
2.83000000E+08	 1.00059693E+00	-1.79996467E+02
2.84000000E+08	 1.00070687E+00	-1.79998289E+02
2.85000000E+08	 1.00059436E+00	 1.79996883E+02
2.86000000E+08	 1.00058780E+00	-1.79997818E+02
2.87000000E+08	 1.00069359E+00	-1.79997695E+02
2.88000000E+08	 1.00062591E+00	-1.79994325E+02
2.89000000E+08	 1.00057518E+00	-1.79994257E+02
2.90000000E+08	 1.00070854E+00	 1.79998244E+02
2.91000000E+08	 1.00067919E+00	 1.79991654E+02
2.92000000E+08	 1.00057600E+00	 1.79998480E+02
2.93000000E+08	 1.00069680E+00	-1.79996714E+02
2.94000000E+08	 1.00064171E+00	-1.79996822E+02
2.95000000E+08	 1.00077380E+00	 1.79998241E+02
2.96000000E+08	 1.00059089E+00	-1.79995036E+02
2.97000000E+08	 1.00065305E+00	-1.79997300E+02
2.98000000E+08	 1.00075711E+00	 1.79997083E+02
2.99000000E+08	 1.00062729E+00	 1.79995323E+02
3.00000000E+08	 1.00069318E+00	-1.79997697E+02
3.01000000E+08	 1.00063276E+00	-1.79993468E+02
3.02000000E+08	 1.00067251E+00	-1.79994935E+02
3.03000000E+08	 1.00076469E+00	 1.79999782E+02
3.04000000E+08	 1.00068770E+00	-1.79999223E+02
3.05000000E+08	 1.00060677E+00	 1.79999610E+02
3.06000000E+08	 1.00068449E+00	 1.79993879E+02
3.07000000E+08	 1.00067603E+00	-1.79996719E+02
3.08000000E+08	 1.00068277E+00	 1.79999027E+02
3.09000000E+08	 1.00066161E+00	-1.79998716E+02
3.10000000E+08	 1.00076017E+00	 1.79998144E+02
3.11000000E+08	 1.00059779E+00	-1.79994819E+02
3.12000000E+08	 1.00067411E+00	 1.79996991E+02
3.13000000E+08	 1.00076046E+00	 1.79994006E+02
3.14000000E+08	 1.00058809E+00	 1.79999303E+02
3.15000000E+08	 1.00066387E+00	 1.79997624E+02
3.16000000E+08	 1.00073675E+00	 1.79999644E+02
3.17000000E+08	 1.00068954E+00	 1.79994930E+02
3.18000000E+08	 1.00073118E+00	-1.79995468E+02
3.19000000E+08	 1.00069341E+00	-1.79992186E+02
3.20000000E+08	 1.00064395E+00	-1.79996479E+02
3.21000000E+08	 1.00061320E+00	-1.79998593E+02
3.22000000E+08	 1.00065946E+00	 1.79999868E+02
3.23000000E+08	 1.00071073E+00	 1.79993512E+02
3.24000000E+08	 1.00055048E+00	 1.79999165E+02
3.25000000E+08	 1.00062907E+00	 1.79997131E+02
3.26000000E+08	 1.00069549E+00	-1.79997971E+02
3.27000000E+08	 1.00073374E+00	 1.79993825E+02
3.28000000E+08	 1.00061783E+00	-1.79998989E+02
3.29000000E+08	 1.00057428E+00	 1.79988691E+02
3.30000000E+08	 1.00078426E+00	 1.79991076E+02
3.31000000E+08	 1.00071057E+00	-1.79996987E+02
3.32000000E+08	 1.00070177E+00	 1.79995118E+02
3.33000000E+08	 1.00063495E+00	 1.79994963E+02
3.34000000E+08	 1.00071610E+00	 1.79999651E+02
3.35000000E+08	 1.00060593E+00	-1.79996383E+02
3.36000000E+08	 1.00054996E+00	 1.79995833E+02
3.37000000E+08	 1.00056051E+00	 1.79996544E+02
3.38000000E+08	 1.00068534E+00	 1.79994491E+02
3.39000000E+08	 1.00070293E+00	 1.79996839E+02
3.40000000E+08	 1.00068153E+00	 1.79996434E+02
3.41000000E+08	 1.00076717E+00	 1.79998822E+02
3.42000000E+08	 1.00067069E+00	 1.79995275E+02
3.43000000E+08	 1.00064448E+00	 1.79995691E+02
3.44000000E+08	 1.00060960E+00	 1.79995817E+02
3.45000000E+08	 1.00058070E+00	 1.79997263E+02
3.46000000E+08	 1.00065971E+00	 1.79994645E+02
3.47000000E+08	 1.00068642E+00	 1.79994349E+02
3.48000000E+08	 1.00065390E+00	 1.79998787E+02
3.49000000E+08	 1.00073024E+00	 1.79990458E+02
3.50000000E+08	 1.00064433E+00	 1.79993193E+02
3.51000000E+08	 1.00065352E+00	 1.79989459E+02
3.52000000E+08	 1.00065874E+00	 1.79990817E+02
3.53000000E+08	 1.00071280E+00	 1.79995225E+02
3.54000000E+08	 1.00075137E+00	 1.79991504E+02
3.55000000E+08	 1.00067617E+00	-1.79999166E+02
3.56000000E+08	 1.00069045E+00	 1.79993646E+02
3.57000000E+08	 1.00076524E+00	 1.79991440E+02
3.58000000E+08	 1.00059830E+00	 1.79989678E+02
3.59000000E+08	 1.00072568E+00	 1.79990808E+02
3.60000000E+08	 1.00071811E+00	 1.79991168E+02
3.61000000E+08	 1.00074705E+00	 1.79988319E+02
3.62000000E+08	 1.00054644E+00	 1.79993006E+02
3.63000000E+08	 1.00070570E+00	 1.79993084E+02
3.64000000E+08	 1.00067543E+00	 1.79995322E+02
3.65000000E+08	 1.00071804E+00	 1.79992625E+02
3.66000000E+08	 1.00058659E+00	 1.79989386E+02
3.67000000E+08	 1.00071118E+00	 1.79992691E+02
3.68000000E+08	 1.00053743E+00	 1.79997405E+02
3.69000000E+08	 1.00065755E+00	 1.79997078E+02
3.70000000E+08	 1.00057426E+00	 1.79994107E+02
3.71000000E+08	 1.00063120E+00	 1.79995896E+02
3.72000000E+08	 1.00058829E+00	 1.79991868E+02
3.73000000E+08	 1.00070477E+00	 1.79987193E+02
3.74000000E+08	 1.00074754E+00	 1.79993069E+02
3.75000000E+08	 1.00074319E+00	 1.79994310E+02
3.76000000E+08	 1.00071391E+00	 1.79994253E+02
3.77000000E+08	 1.00068070E+00	 1.79992960E+02
3.78000000E+08	 1.00057637E+00	 1.79992616E+02
3.79000000E+08	 1.00068041E+00	 1.79987371E+02
3.80000000E+08	 1.00056611E+00	 1.79992207E+02
3.81000000E+08	 1.00071651E+00	 1.79994113E+02
3.82000000E+08	 1.00060162E+00	 1.79986232E+02
3.83000000E+08	 1.00073584E+00	 1.79992352E+02
3.84000000E+08	 1.00071903E+00	 1.79997939E+02
3.85000000E+08	 1.00068598E+00	 1.79987760E+02
3.86000000E+08	 1.00064703E+00	 1.79989804E+02
3.87000000E+08	 1.00056775E+00	 1.79993623E+02
3.88000000E+08	 1.00055469E+00	 1.79994334E+02
3.89000000E+08	 1.00070033E+00	 1.79986562E+02
3.90000000E+08	 1.00063188E+00	 1.79995946E+02
3.91000000E+08	 1.00060957E+00	 1.79995512E+02
3.92000000E+08	 1.00063098E+00	 1.79988982E+02
3.93000000E+08	 1.00066677E+00	 1.79992857E+02
3.94000000E+08	 1.00060187E+00	 1.79990962E+02
3.95000000E+08	 1.00066740E+00	 1.79989007E+02
3.96000000E+08	 1.00052796E+00	 1.79986579E+02
3.97000000E+08	 1.00061209E+00	 1.79989673E+02
3.98000000E+08	 1.00064691E+00	 1.79996581E+02
3.99000000E+08	 1.00068880E+00	 1.79995266E+02
4.00000000E+08	 1.00053046E+00	 1.79985755E+02
4.01000000E+08	 1.00064693E+00	 1.79991083E+02
4.02000000E+08	 1.00057592E+00	 1.79985937E+02
4.03000000E+08	 1.00071210E+00	 1.79986397E+02
4.04000000E+08	 1.00067977E+00	 1.79992911E+02
4.05000000E+08	 1.00060832E+00	 1.79991719E+02
4.06000000E+08	 1.00058334E+00	 1.79993138E+02
4.07000000E+08	 1.00076564E+00	 1.79993359E+02
4.08000000E+08	 1.00061725E+00	 1.79988379E+02
4.09000000E+08	 1.00071174E+00	 1.79991827E+02
4.10000000E+08	 1.00069349E+00	 1.79988736E+02
4.11000000E+08	 1.00061793E+00	 1.79990951E+02
4.12000000E+08	 1.00066589E+00	 1.79991225E+02
4.13000000E+08	 1.00065028E+00	 1.79988904E+02
4.14000000E+08	 1.00071020E+00	 1.79988405E+02
4.15000000E+08	 1.00062037E+00	 1.79988479E+02
4.16000000E+08	 1.00067493E+00	 1.79992165E+02
4.17000000E+08	 1.00062982E+00	 1.79991513E+02
4.18000000E+08	 1.00056966E+00	 1.79993815E+02
4.19000000E+08	 1.00058568E+00	 1.79990658E+02
4.20000000E+08	 1.00062228E+00	 1.79993401E+02
4.21000000E+08	 1.00058626E+00	 1.79988919E+02
4.22000000E+08	 1.00057880E+00	 1.79989929E+02
4.23000000E+08	 1.00068772E+00	 1.79988722E+02
4.24000000E+08	 1.00063381E+00	 1.79988355E+02
4.25000000E+08	 1.00065611E+00	 1.79992049E+02
4.26000000E+08	 1.00059129E+00	 1.79987350E+02
4.27000000E+08	 1.00079170E+00	 1.79990559E+02
4.28000000E+08	 1.00062798E+00	 1.79990722E+02
4.29000000E+08	 1.00069897E+00	 1.79992131E+02
4.30000000E+08	 1.00068175E+00	 1.79986092E+02
4.31000000E+08	 1.00061116E+00	 1.79995820E+02
4.32000000E+08	 1.00061751E+00	 1.79991449E+02
4.33000000E+08	 1.00057633E+00	 1.79996573E+02
4.34000000E+08	 1.00071845E+00	 1.79991598E+02
4.35000000E+08	 1.00074695E+00	 1.79988596E+02
4.36000000E+08	 1.00053052E+00	 1.79994819E+02
4.37000000E+08	 1.00059472E+00	 1.79995901E+02
4.38000000E+08	 1.00059139E+00	 1.79995019E+02
4.39000000E+08	 1.00066969E+00	 1.79990330E+02
4.40000000E+08	 1.00074358E+00	 1.79992551E+02
4.41000000E+08	 1.00065105E+00	 1.79985627E+02
4.42000000E+08	 1.00068923E+00	 1.79997178E+02
4.43000000E+08	 1.00055897E+00	 1.79992417E+02
4.44000000E+08	 1.00059680E+00	 1.79993288E+02
4.45000000E+08	 1.00073576E+00	 1.79988489E+02
4.46000000E+08	 1.00052827E+00	 1.79995552E+02
4.47000000E+08	 1.00055765E+00	 1.79997443E+02
4.48000000E+08	 1.00064119E+00	 1.79995782E+02
4.49000000E+08	 1.00069558E+00	 1.79991178E+02
4.50000000E+08	 1.00065314E+00	 1.79992636E+02
4.51000000E+08	 1.00065121E+00	 1.79988997E+02
4.52000000E+08	 1.00070276E+00	 1.79988441E+02
4.53000000E+08	 1.00051159E+00	 1.79993794E+02
4.54000000E+08	 1.00073165E+00	 1.79987966E+02
4.55000000E+08	 1.00082297E+00	 1.79989380E+02
4.56000000E+08	 1.00064243E+00	 1.79991774E+02
4.57000000E+08	 1.00069494E+00	 1.79988173E+02
4.58000000E+08	 1.00059113E+00	 1.79996018E+02
4.59000000E+08	 1.00055065E+00	 1.79992415E+02
4.60000000E+08	 1.00067926E+00	 1.79983487E+02
4.61000000E+08	 1.00067312E+00	 1.79990925E+02
4.62000000E+08	 1.00065441E+00	 1.79991827E+02
4.63000000E+08	 1.00065793E+00	 1.79986989E+02
4.64000000E+08	 1.00077729E+00	 1.79996485E+02
4.65000000E+08	 1.00071553E+00	 1.79994511E+02
4.66000000E+08	 1.00063920E+00	 1.79994028E+02
4.67000000E+08	 1.00066830E+00	 1.79993196E+02
4.68000000E+08	 1.00070366E+00	-1.79998297E+02
4.69000000E+08	 1.00070670E+00	 1.79986475E+02
4.70000000E+08	 1.00074248E+00	 1.79997371E+02
4.71000000E+08	 1.00064979E+00	 1.79996738E+02
4.72000000E+08	 1.00072520E+00	 1.79987985E+02
4.73000000E+08	 1.00076132E+00	 1.79994987E+02
4.74000000E+08	 1.00073526E+00	 1.79989459E+02
4.75000000E+08	 1.00065671E+00	 1.79989208E+02
4.76000000E+08	 1.00069392E+00	 1.79990555E+02
4.77000000E+08	 1.00076770E+00	 1.79986623E+02
4.78000000E+08	 1.00077103E+00	 1.79989737E+02
4.79000000E+08	 1.00072532E+00	 1.79981818E+02
4.80000000E+08	 1.00076069E+00	 1.79992651E+02
4.81000000E+08	 1.00063657E+00	 1.79993062E+02
4.82000000E+08	 1.00067000E+00	 1.79993151E+02
4.83000000E+08	 1.00071981E+00	 1.79991805E+02
4.84000000E+08	 1.00064164E+00	 1.79992017E+02
4.85000000E+08	 1.00071502E+00	 1.79991386E+02
4.86000000E+08	 1.00083940E+00	 1.79996749E+02
4.87000000E+08	 1.00067186E+00	 1.79988312E+02
4.88000000E+08	 1.00077370E+00	 1.79995874E+02
4.89000000E+08	 1.00070303E+00	 1.79987769E+02
4.90000000E+08	 1.00067240E+00	 1.79997564E+02
4.91000000E+08	 1.00067124E+00	 1.79987376E+02
4.92000000E+08	 1.00075761E+00	 1.79992775E+02
4.93000000E+08	 1.00068439E+00	 1.79990403E+02
4.94000000E+08	 1.00069737E+00	 1.79994576E+02
4.95000000E+08	 1.00067536E+00	 1.79990675E+02
4.96000000E+08	 1.00074611E+00	 1.79989984E+02
4.97000000E+08	 1.00065193E+00	 1.79989906E+02
4.98000000E+08	 1.00071710E+00	 1.79985442E+02
4.99000000E+08	 1.00072583E+00	 1.79994251E+02
5.00000000E+08	 1.00071706E+00	 1.79997303E+02
5.01000000E+08	 1.00080501E+00	 1.79990967E+02
5.02000000E+08	 1.00074869E+00	 1.79995633E+02
5.03000000E+08	 1.00071240E+00	 1.79988310E+02
5.04000000E+08	 1.00065265E+00	 1.79990250E+02
5.05000000E+08	 1.00071804E+00	 1.79993223E+02
5.06000000E+08	 1.00065486E+00	 1.79995728E+02
5.07000000E+08	 1.00070541E+00	 1.79994024E+02
5.08000000E+08	 1.00065775E+00	 1.79991585E+02
5.09000000E+08	 1.00079158E+00	 1.79990846E+02
5.10000000E+08	 1.00071910E+00	 1.79986120E+02
5.11000000E+08	 1.00077025E+00	 1.79995357E+02
5.12000000E+08	 1.00068946E+00	 1.79988762E+02
5.13000000E+08	 1.00072386E+00	 1.79991925E+02
5.14000000E+08	 1.00065803E+00	 1.79994990E+02
5.15000000E+08	 1.00073007E+00	 1.79992771E+02
5.16000000E+08	 1.00072142E+00	 1.79991129E+02
5.17000000E+08	 1.00066273E+00	 1.79996417E+02
5.18000000E+08	 1.00073114E+00	 1.79990566E+02
5.19000000E+08	 1.00066657E+00	 1.79988315E+02
5.20000000E+08	 1.00084830E+00	 1.79987146E+02
5.21000000E+08	 1.00069154E+00	 1.79988075E+02
5.22000000E+08	 1.00074586E+00	 1.79989905E+02
5.23000000E+08	 1.00062732E+00	 1.79995530E+02
5.24000000E+08	 1.00072730E+00	 1.79990116E+02
5.25000000E+08	 1.00072584E+00	 1.79989828E+02
5.26000000E+08	 1.00070018E+00	 1.79987134E+02
5.27000000E+08	 1.00079487E+00	 1.79986499E+02
5.28000000E+08	 1.00079025E+00	 1.79986171E+02
5.29000000E+08	 1.00061600E+00	 1.79991619E+02
5.30000000E+08	 1.00080688E+00	 1.79989570E+02
5.31000000E+08	 1.00077406E+00	 1.79989822E+02
5.32000000E+08	 1.00069592E+00	 1.79997048E+02
5.33000000E+08	 1.00079671E+00	 1.79987287E+02
5.34000000E+08	 1.00073055E+00	 1.79990735E+02
5.35000000E+08	 1.00080557E+00	 1.79994092E+02
5.36000000E+08	 1.00076648E+00	 1.79989309E+02
5.37000000E+08	 1.00065999E+00	 1.79987284E+02
5.38000000E+08	 1.00074498E+00	 1.79995966E+02
5.39000000E+08	 1.00074764E+00	 1.79986616E+02
5.40000000E+08	 1.00076670E+00	 1.79985631E+02
5.41000000E+08	 1.00066648E+00	 1.79985212E+02
5.42000000E+08	 1.00071488E+00	 1.79990993E+02
5.43000000E+08	 1.00065619E+00	 1.79986377E+02
5.44000000E+08	 1.00071551E+00	 1.79982235E+02
5.45000000E+08	 1.00078782E+00	 1.79987477E+02
5.46000000E+08	 1.00072726E+00	 1.79992564E+02
5.47000000E+08	 1.00076160E+00	 1.79984714E+02
5.48000000E+08	 1.00083504E+00	 1.79985330E+02
5.49000000E+08	 1.00072969E+00	 1.79989901E+02
5.50000000E+08	 1.00064629E+00	 1.79985749E+02
5.51000000E+08	 1.00079576E+00	 1.79985810E+02
5.52000000E+08	 1.00069650E+00	 1.79990673E+02
5.53000000E+08	 1.00070689E+00	 1.79986183E+02
5.54000000E+08	 1.00078223E+00	 1.79983990E+02
5.55000000E+08	 1.00081557E+00	 1.79989951E+02
5.56000000E+08	 1.00069754E+00	 1.79986462E+02
5.57000000E+08	 1.00079489E+00	 1.79993000E+02
5.58000000E+08	 1.00071119E+00	 1.79983264E+02
5.59000000E+08	 1.00080498E+00	 1.79986805E+02
5.60000000E+08	 1.00064474E+00	 1.79989911E+02
5.61000000E+08	 1.00075824E+00	 1.79987836E+02
5.62000000E+08	 1.00066300E+00	 1.79992635E+02
5.63000000E+08	 1.00083637E+00	 1.79993859E+02
5.64000000E+08	 1.00078779E+00	 1.79986855E+02
5.65000000E+08	 1.00084601E+00	 1.79986684E+02
5.66000000E+08	 1.00078510E+00	 1.79992286E+02
5.67000000E+08	 1.00074453E+00	 1.79987391E+02
5.68000000E+08	 1.00081237E+00	 1.79990612E+02
5.69000000E+08	 1.00074593E+00	 1.79992084E+02
5.70000000E+08	 1.00075497E+00	 1.79987654E+02
5.71000000E+08	 1.00071776E+00	 1.79987727E+02
5.72000000E+08	 1.00074713E+00	 1.79989770E+02
5.73000000E+08	 1.00081520E+00	 1.79987311E+02
5.74000000E+08	 1.00069743E+00	 1.79994012E+02
5.75000000E+08	 1.00072741E+00	 1.79983427E+02
5.76000000E+08	 1.00086012E+00	 1.79990452E+02
5.77000000E+08	 1.00069824E+00	 1.79989866E+02
5.78000000E+08	 1.00078586E+00	 1.79990326E+02
5.79000000E+08	 1.00078073E+00	 1.79988669E+02
5.80000000E+08	 1.00086294E+00	 1.79988728E+02
5.81000000E+08	 1.00079799E+00	 1.79989626E+02
5.82000000E+08	 1.00070558E+00	 1.79986471E+02
5.83000000E+08	 1.00068222E+00	 1.79987228E+02
5.84000000E+08	 1.00076848E+00	 1.79988529E+02
5.85000000E+08	 1.00079485E+00	 1.79990549E+02
5.86000000E+08	 1.00073766E+00	 1.79986243E+02
5.87000000E+08	 1.00066754E+00	 1.79983608E+02
5.88000000E+08	 1.00075421E+00	 1.79987859E+02
5.89000000E+08	 1.00076377E+00	 1.79987382E+02
5.90000000E+08	 1.00074237E+00	 1.79981877E+02
5.91000000E+08	 1.00075812E+00	 1.79987003E+02
5.92000000E+08	 1.00080580E+00	 1.79980347E+02
5.93000000E+08	 1.00070969E+00	 1.79988733E+02
5.94000000E+08	 1.00078411E+00	 1.79992445E+02
5.95000000E+08	 1.00071890E+00	 1.79992023E+02
5.96000000E+08	 1.00070692E+00	 1.79985581E+02
5.97000000E+08	 1.00086738E+00	 1.79984662E+02
5.98000000E+08	 1.00076690E+00	 1.79987418E+02
5.99000000E+08	 1.00085692E+00	 1.79987410E+02
6.00000000E+08	 1.00080637E+00	 1.79991887E+02
6.01000000E+08	 1.00073724E+00	 1.79987207E+02
6.02000000E+08	 1.00076178E+00	 1.79985448E+02
6.03000000E+08	 1.00092404E+00	 1.79992833E+02
6.04000000E+08	 1.00068544E+00	 1.79987804E+02
6.05000000E+08	 1.00082870E+00	 1.79986353E+02
6.06000000E+08	 1.00074987E+00	 1.79988184E+02
6.07000000E+08	 1.00076647E+00	 1.79989086E+02
6.08000000E+08	 1.00061663E+00	 1.79981858E+02
6.09000000E+08	 1.00082077E+00	 1.79987520E+02
6.10000000E+08	 1.00071516E+00	 1.79993216E+02
6.11000000E+08	 1.00082776E+00	 1.79990352E+02
6.12000000E+08	 1.00083944E+00	 1.79985097E+02
6.13000000E+08	 1.00075414E+00	 1.79987451E+02
6.14000000E+08	 1.00076456E+00	 1.79985067E+02
6.15000000E+08	 1.00078726E+00	 1.79981958E+02
6.16000000E+08	 1.00076660E+00	 1.79988861E+02
6.17000000E+08	 1.00071400E+00	 1.79989623E+02
6.18000000E+08	 1.00076889E+00	 1.79987991E+02
6.19000000E+08	 1.00076506E+00	 1.79990846E+02
6.20000000E+08	 1.00077526E+00	 1.79989244E+02
6.21000000E+08	 1.00068769E+00	 1.79986410E+02
6.22000000E+08	 1.00082624E+00	 1.79988588E+02
6.23000000E+08	 1.00078043E+00	 1.79981616E+02
6.24000000E+08	 1.00075177E+00	 1.79985855E+02
6.25000000E+08	 1.00090021E+00	 1.79984306E+02
6.26000000E+08	 1.00089045E+00	 1.79991252E+02
6.27000000E+08	 1.00081672E+00	 1.79988926E+02
6.28000000E+08	 1.00069205E+00	 1.79992402E+02
6.29000000E+08	 1.00076978E+00	 1.79985340E+02
6.30000000E+08	 1.00073751E+00	 1.79984604E+02
6.31000000E+08	 1.00071439E+00	 1.79980840E+02
6.32000000E+08	 1.00073041E+00	 1.79985745E+02
6.33000000E+08	 1.00089130E+00	 1.79985817E+02
6.34000000E+08	 1.00081264E+00	 1.79989429E+02
6.35000000E+08	 1.00076482E+00	 1.79991126E+02
6.36000000E+08	 1.00084641E+00	 1.79986329E+02
6.37000000E+08	 1.00083370E+00	 1.79987680E+02
6.38000000E+08	 1.00092303E+00	 1.79991270E+02
6.39000000E+08	 1.00079208E+00	 1.79985947E+02
6.40000000E+08	 1.00075063E+00	 1.79988824E+02
6.41000000E+08	 1.00082171E+00	 1.79987821E+02
6.42000000E+08	 1.00081032E+00	 1.79985464E+02
6.43000000E+08	 1.00081912E+00	 1.79985931E+02
6.44000000E+08	 1.00083864E+00	 1.79979167E+02
6.45000000E+08	 1.00079888E+00	 1.79982298E+02
6.46000000E+08	 1.00073828E+00	 1.79989108E+02
6.47000000E+08	 1.00084201E+00	 1.79983677E+02
6.48000000E+08	 1.00073581E+00	 1.79985042E+02
6.49000000E+08	 1.00074396E+00	 1.79987202E+02
6.50000000E+08	 1.00081927E+00	 1.79994035E+02
6.51000000E+08	 1.00079235E+00	 1.79987267E+02
6.52000000E+08	 1.00075546E+00	 1.79988838E+02
6.53000000E+08	 1.00083375E+00	 1.79982748E+02
6.54000000E+08	 1.00081054E+00	 1.79988354E+02
6.55000000E+08	 1.00085651E+00	 1.79985914E+02
6.56000000E+08	 1.00088100E+00	 1.79984365E+02
6.57000000E+08	 1.00078642E+00	 1.79985825E+02
6.58000000E+08	 1.00081885E+00	 1.79981128E+02
6.59000000E+08	 1.00080598E+00	 1.79984770E+02
6.60000000E+08	 1.00079370E+00	 1.79982699E+02
6.61000000E+08	 1.00082926E+00	 1.79990672E+02
6.62000000E+08	 1.00089718E+00	 1.79983414E+02
6.63000000E+08	 1.00077032E+00	 1.79982600E+02
6.64000000E+08	 1.00085504E+00	 1.79983305E+02
6.65000000E+08	 1.00090907E+00	 1.79983921E+02
6.66000000E+08	 1.00078084E+00	 1.79987289E+02
6.67000000E+08	 1.00085006E+00	 1.79982164E+02
6.68000000E+08	 1.00079942E+00	 1.79985589E+02
6.69000000E+08	 1.00086365E+00	 1.79988635E+02
6.70000000E+08	 1.00093199E+00	 1.79982931E+02
6.71000000E+08	 1.00077875E+00	 1.79989259E+02
6.72000000E+08	 1.00083671E+00	 1.79983575E+02
6.73000000E+08	 1.00075791E+00	 1.79981870E+02
6.74000000E+08	 1.00087915E+00	 1.79984455E+02
6.75000000E+08	 1.00082149E+00	 1.79981235E+02
6.76000000E+08	 1.00085015E+00	 1.79986649E+02
6.77000000E+08	 1.00080906E+00	 1.79986211E+02
6.78000000E+08	 1.00081922E+00	 1.79983478E+02
6.79000000E+08	 1.00078876E+00	 1.79984729E+02
6.80000000E+08	 1.00089956E+00	 1.79978661E+02
6.81000000E+08	 1.00087233E+00	 1.79978310E+02
6.82000000E+08	 1.00075839E+00	 1.79983598E+02
6.83000000E+08	 1.00087197E+00	 1.79980160E+02
6.84000000E+08	 1.00085369E+00	 1.79977717E+02
6.85000000E+08	 1.00092206E+00	 1.79985156E+02
6.86000000E+08	 1.00091165E+00	 1.79986865E+02
6.87000000E+08	 1.00087563E+00	 1.79982454E+02
6.88000000E+08	 1.00083516E+00	 1.79983790E+02
6.89000000E+08	 1.00090773E+00	 1.79983355E+02
6.90000000E+08	 1.00093624E+00	 1.79988176E+02
6.91000000E+08	 1.00087936E+00	 1.79981373E+02
6.92000000E+08	 1.00086942E+00	 1.79977964E+02
6.93000000E+08	 1.00099651E+00	 1.79977560E+02
6.94000000E+08	 1.00087206E+00	 1.79980425E+02
6.95000000E+08	 1.00087694E+00	 1.79978973E+02
6.96000000E+08	 1.00088204E+00	 1.79983225E+02
6.97000000E+08	 1.00090411E+00	 1.79980904E+02
6.98000000E+08	 1.00095040E+00	 1.79974935E+02
6.99000000E+08	 1.00083793E+00	 1.79986018E+02
7.00000000E+08	 1.00097111E+00	 1.79976103E+02
7.01000000E+08	 1.00086508E+00	 1.79979412E+02
7.02000000E+08	 1.00087910E+00	 1.79981432E+02
7.03000000E+08	 1.00096608E+00	 1.79980922E+02
7.04000000E+08	 1.00087065E+00	 1.79980657E+02
7.05000000E+08	 1.00102381E+00	 1.79980864E+02
7.06000000E+08	 1.00103239E+00	 1.79976516E+02
7.07000000E+08	 1.00088710E+00	 1.79978744E+02
7.08000000E+08	 1.00096942E+00	 1.79983044E+02
7.09000000E+08	 1.00093034E+00	 1.79980969E+02
7.10000000E+08	 1.00085886E+00	 1.79980145E+02
7.11000000E+08	 1.00095571E+00	 1.79977559E+02
7.12000000E+08	 1.00082861E+00	 1.79980392E+02
7.13000000E+08	 1.00077666E+00	 1.79977525E+02
7.14000000E+08	 1.00085518E+00	 1.79981172E+02
7.15000000E+08	 1.00098784E+00	 1.79980869E+02
7.16000000E+08	 1.00095340E+00	 1.79984111E+02
7.17000000E+08	 1.00103232E+00	 1.79978381E+02
7.18000000E+08	 1.00096681E+00	 1.79974841E+02
7.19000000E+08	 1.00096868E+00	 1.79981123E+02
7.20000000E+08	 1.00091568E+00	 1.79976457E+02
7.21000000E+08	 1.00095287E+00	 1.79976781E+02
7.22000000E+08	 1.00094297E+00	 1.79988769E+02
7.23000000E+08	 1.00093593E+00	 1.79983414E+02
7.24000000E+08	 1.00112906E+00	 1.79978141E+02
7.25000000E+08	 1.00090056E+00	 1.79979886E+02
7.26000000E+08	 1.00084978E+00	 1.79979164E+02
7.27000000E+08	 1.00092337E+00	 1.79978079E+02
7.28000000E+08	 1.00102193E+00	 1.79986151E+02
7.29000000E+08	 1.00100446E+00	 1.79976838E+02
7.30000000E+08	 1.00102070E+00	 1.79975755E+02
7.31000000E+08	 1.00102624E+00	 1.79976158E+02
7.32000000E+08	 1.00095113E+00	 1.79978746E+02
7.33000000E+08	 1.00094316E+00	 1.79981427E+02
7.34000000E+08	 1.00098321E+00	 1.79977461E+02
7.35000000E+08	 1.00094457E+00	 1.79982082E+02
7.36000000E+08	 1.00096731E+00	 1.79973439E+02
7.37000000E+08	 1.00089971E+00	 1.79978552E+02
7.38000000E+08	 1.00091701E+00	 1.79981523E+02
7.39000000E+08	 1.00101134E+00	 1.79973647E+02
7.40000000E+08	 1.00093124E+00	 1.79973727E+02
7.41000000E+08	 1.00095521E+00	 1.79979452E+02
7.42000000E+08	 1.00095335E+00	 1.79979655E+02
7.43000000E+08	 1.00114386E+00	 1.79977452E+02
7.44000000E+08	 1.00090760E+00	 1.79977657E+02
7.45000000E+08	 1.00095018E+00	 1.79977584E+02
7.46000000E+08	 1.00097740E+00	 1.79974140E+02
7.47000000E+08	 1.00097405E+00	 1.79986016E+02
7.48000000E+08	 1.00104671E+00	 1.79975154E+02
7.49000000E+08	 1.00094542E+00	 1.79975762E+02
7.50000000E+08	 1.00094730E+00	 1.79978146E+02
7.51000000E+08	 1.00097375E+00	 1.79973309E+02
7.52000000E+08	 1.00091261E+00	 1.79978335E+02
7.53000000E+08	 1.00097992E+00	 1.79976717E+02
7.54000000E+08	 1.00095624E+00	 1.79975302E+02
7.55000000E+08	 1.00096421E+00	 1.79974750E+02
7.56000000E+08	 1.00102106E+00	 1.79975593E+02
7.57000000E+08	 1.00101053E+00	 1.79973090E+02
7.58000000E+08	 1.00098726E+00	 1.79979271E+02
7.59000000E+08	 1.00102145E+00	 1.79977762E+02
7.60000000E+08	 1.00104789E+00	 1.79974431E+02
7.61000000E+08	 1.00103891E+00	 1.79976913E+02
7.62000000E+08	 1.00096402E+00	 1.79980170E+02
7.63000000E+08	 1.00105439E+00	 1.79978705E+02
7.64000000E+08	 1.00109062E+00	 1.79980407E+02
7.65000000E+08	 1.00106273E+00	 1.79976746E+02
7.66000000E+08	 1.00100428E+00	 1.79975583E+02
7.67000000E+08	 1.00107522E+00	 1.79978443E+02
7.68000000E+08	 1.00112586E+00	 1.79979877E+02
7.69000000E+08	 1.00103055E+00	 1.79984999E+02
7.70000000E+08	 1.00105496E+00	 1.79978047E+02
7.71000000E+08	 1.00106818E+00	 1.79977836E+02
7.72000000E+08	 1.00098683E+00	 1.79976675E+02
7.73000000E+08	 1.00099351E+00	 1.79984622E+02
7.74000000E+08	 1.00103009E+00	 1.79986664E+02
7.75000000E+08	 1.00101215E+00	 1.79978268E+02
7.76000000E+08	 1.00105931E+00	 1.79981417E+02
7.77000000E+08	 1.00098119E+00	 1.79982583E+02
7.78000000E+08	 1.00106823E+00	 1.79980944E+02
7.79000000E+08	 1.00103918E+00	 1.79981459E+02
7.80000000E+08	 1.00108544E+00	 1.79974339E+02
7.81000000E+08	 1.00106662E+00	 1.79978919E+02
7.82000000E+08	 1.00111878E+00	 1.79979758E+02
7.83000000E+08	 1.00111628E+00	 1.79978547E+02
7.84000000E+08	 1.00084670E+00	 1.79980249E+02
7.85000000E+08	 1.00102620E+00	 1.79978540E+02
7.86000000E+08	 1.00091077E+00	 1.79976853E+02
7.87000000E+08	 1.00111930E+00	 1.79981631E+02
7.88000000E+08	 1.00109169E+00	 1.79981032E+02
7.89000000E+08	 1.00105891E+00	 1.79971487E+02
7.90000000E+08	 1.00092062E+00	 1.79979825E+02
7.91000000E+08	 1.00116235E+00	 1.79971429E+02
7.92000000E+08	 1.00101321E+00	 1.79976330E+02
7.93000000E+08	 1.00108423E+00	 1.79979700E+02
7.94000000E+08	 1.00099460E+00	 1.79983512E+02
7.95000000E+08	 1.00095404E+00	 1.79976450E+02
7.96000000E+08	 1.00089259E+00	 1.79982428E+02
7.97000000E+08	 1.00108255E+00	 1.79985895E+02
7.98000000E+08	 1.00111359E+00	 1.79983414E+02
7.99000000E+08	 1.00099637E+00	 1.79982951E+02
8.00000000E+08	 1.00114405E+00	 1.79981994E+02
8.01000000E+08	 1.00095139E+00	 1.79983080E+02
8.02000000E+08	 1.00110115E+00	 1.79981912E+02
8.03000000E+08	 1.00100782E+00	 1.79984301E+02
8.04000000E+08	 1.00108570E+00	 1.79980479E+02
8.05000000E+08	 1.00082267E+00	 1.79979435E+02
8.06000000E+08	 1.00100470E+00	 1.79983620E+02
8.07000000E+08	 1.00116144E+00	 1.79977725E+02
8.08000000E+08	 1.00101390E+00	 1.79985878E+02
8.09000000E+08	 1.00102004E+00	 1.79986421E+02
8.10000000E+08	 1.00107221E+00	 1.79987762E+02
8.11000000E+08	 1.00092598E+00	 1.79980284E+02
8.12000000E+08	 1.00099055E+00	 1.79980467E+02
8.13000000E+08	 1.00102504E+00	 1.79984575E+02
8.14000000E+08	 1.00111012E+00	 1.79983860E+02
8.15000000E+08	 1.00110953E+00	 1.79983122E+02
8.16000000E+08	 1.00110179E+00	 1.79984968E+02
8.17000000E+08	 1.00108842E+00	 1.79980303E+02
8.18000000E+08	 1.00113841E+00	 1.79983429E+02
8.19000000E+08	 1.00108049E+00	 1.79980783E+02
8.20000000E+08	 1.00106750E+00	 1.79987691E+02
8.21000000E+08	 1.00096334E+00	 1.79984041E+02
8.22000000E+08	 1.00092585E+00	 1.79982744E+02
8.23000000E+08	 1.00106380E+00	 1.79981702E+02
8.24000000E+08	 1.00106629E+00	 1.79985075E+02
8.25000000E+08	 1.00108736E+00	 1.79982843E+02
8.26000000E+08	 1.00108592E+00	 1.79982238E+02
8.27000000E+08	 1.00092014E+00	 1.79981592E+02
8.28000000E+08	 1.00104576E+00	 1.79986204E+02
8.29000000E+08	 1.00093371E+00	 1.79984446E+02
8.30000000E+08	 1.00103274E+00	 1.79982986E+02
8.31000000E+08	 1.00105129E+00	 1.79979559E+02
8.32000000E+08	 1.00102336E+00	 1.79986402E+02
8.33000000E+08	 1.00108091E+00	 1.79987757E+02
8.34000000E+08	 1.00093199E+00	 1.79984181E+02
8.35000000E+08	 1.00101897E+00	 1.79982988E+02
8.36000000E+08	 1.00100470E+00	 1.79982949E+02
8.37000000E+08	 1.00099950E+00	 1.79987181E+02
8.38000000E+08	 1.00105009E+00	 1.79982363E+02
8.39000000E+08	 1.00102998E+00	 1.79984015E+02
8.40000000E+08	 1.00091268E+00	 1.79982599E+02
8.41000000E+08	 1.00103882E+00	 1.79979427E+02
8.42000000E+08	 1.00104796E+00	 1.79983105E+02
8.43000000E+08	 1.00103607E+00	 1.79978541E+02
8.44000000E+08	 1.00108334E+00	 1.79982545E+02
8.45000000E+08	 1.00106115E+00	 1.79981603E+02
8.46000000E+08	 1.00111437E+00	 1.79979140E+02
8.47000000E+08	 1.00091393E+00	 1.79978320E+02
8.48000000E+08	 1.00108690E+00	 1.79986497E+02
8.49000000E+08	 1.00092857E+00	 1.79982261E+02
8.50000000E+08	 1.00100954E+00	 1.79987461E+02
8.51000000E+08	 1.00096147E+00	 1.79984254E+02
8.52000000E+08	 1.00104084E+00	 1.79975662E+02
8.53000000E+08	 1.00093633E+00	 1.79981330E+02
8.54000000E+08	 1.00096211E+00	 1.79985837E+02
8.55000000E+08	 1.00094763E+00	 1.79981534E+02
8.56000000E+08	 1.00100799E+00	 1.79981088E+02
8.57000000E+08	 1.00092909E+00	 1.79984592E+02
8.58000000E+08	 1.00099274E+00	 1.79989350E+02
8.59000000E+08	 1.00098854E+00	 1.79977418E+02
8.60000000E+08	 1.00090734E+00	 1.79990040E+02
8.61000000E+08	 1.00088628E+00	 1.79983990E+02
8.62000000E+08	 1.00099681E+00	 1.79979464E+02
8.63000000E+08	 1.00105234E+00	 1.79979375E+02
8.64000000E+08	 1.00103629E+00	 1.79981297E+02
8.65000000E+08	 1.00100902E+00	 1.79977099E+02
8.66000000E+08	 1.00108036E+00	 1.79984868E+02
8.67000000E+08	 1.00088331E+00	 1.79983934E+02
8.68000000E+08	 1.00098254E+00	 1.79985272E+02
8.69000000E+08	 1.00092278E+00	 1.79986638E+02
8.70000000E+08	 1.00096172E+00	 1.79983949E+02
8.71000000E+08	 1.00094327E+00	 1.79985496E+02
8.72000000E+08	 1.00084822E+00	 1.79983047E+02
8.73000000E+08	 1.00092925E+00	 1.79980058E+02
8.74000000E+08	 1.00113648E+00	 1.79987675E+02
8.75000000E+08	 1.00102645E+00	 1.79988091E+02
8.76000000E+08	 1.00090457E+00	 1.79979471E+02
8.77000000E+08	 1.00104775E+00	 1.79979838E+02
8.78000000E+08	 1.00092980E+00	 1.79982817E+02
8.79000000E+08	 1.00104649E+00	 1.79990429E+02
8.80000000E+08	 1.00099477E+00	 1.79991935E+02
8.81000000E+08	 1.00111466E+00	 1.79982054E+02
8.82000000E+08	 1.00094734E+00	 1.79978916E+02
8.83000000E+08	 1.00101092E+00	 1.79996182E+02
8.84000000E+08	 1.00096942E+00	 1.79986413E+02
8.85000000E+08	 1.00085207E+00	 1.79984491E+02
8.86000000E+08	 1.00103619E+00	 1.79982085E+02
8.87000000E+08	 1.00092925E+00	 1.79981988E+02
8.88000000E+08	 1.00098870E+00	 1.79988293E+02
8.89000000E+08	 1.00099039E+00	 1.79988621E+02
8.90000000E+08	 1.00106892E+00	 1.79982977E+02
8.91000000E+08	 1.00102418E+00	 1.79982549E+02
8.92000000E+08	 1.00104237E+00	 1.79978861E+02
8.93000000E+08	 1.00090435E+00	 1.79980854E+02
8.94000000E+08	 1.00105935E+00	 1.79980850E+02
8.95000000E+08	 1.00092102E+00	 1.79987710E+02
8.96000000E+08	 1.00090317E+00	 1.79975390E+02
8.97000000E+08	 1.00097625E+00	 1.79984676E+02
8.98000000E+08	 1.00086449E+00	 1.79979000E+02
8.99000000E+08	 1.00100629E+00	 1.79987757E+02
9.00000000E+08	 1.00099302E+00	 1.79984549E+02
9.01000000E+08	 1.00097872E+00	 1.79986524E+02
9.02000000E+08	 1.00105018E+00	 1.79984409E+02
9.03000000E+08	 1.00108350E+00	 1.79981820E+02
9.04000000E+08	 1.00097060E+00	 1.79984810E+02
9.05000000E+08	 1.00108709E+00	 1.79983856E+02
9.06000000E+08	 1.00104787E+00	 1.79987576E+02
9.07000000E+08	 1.00099100E+00	 1.79983205E+02
9.08000000E+08	 1.00102369E+00	 1.79985610E+02
9.09000000E+08	 1.00106717E+00	 1.79984646E+02
9.10000000E+08	 1.00099793E+00	 1.79981558E+02
9.11000000E+08	 1.00101506E+00	 1.79984354E+02
9.12000000E+08	 1.00100040E+00	 1.79985876E+02
9.13000000E+08	 1.00092086E+00	 1.79990425E+02
9.14000000E+08	 1.00104773E+00	 1.79979854E+02
9.15000000E+08	 1.00092219E+00	 1.79984119E+02
9.16000000E+08	 1.00098127E+00	 1.79983807E+02
9.17000000E+08	 1.00089984E+00	 1.79984641E+02
9.18000000E+08	 1.00109668E+00	 1.79981531E+02
9.19000000E+08	 1.00099951E+00	 1.79988060E+02
9.20000000E+08	 1.00100287E+00	 1.79979460E+02
9.21000000E+08	 1.00091612E+00	 1.79979306E+02
9.22000000E+08	 1.00096081E+00	 1.79978229E+02
9.23000000E+08	 1.00103525E+00	 1.79983417E+02
9.24000000E+08	 1.00093403E+00	 1.79974706E+02
9.25000000E+08	 1.00099577E+00	 1.79985861E+02
9.26000000E+08	 1.00104683E+00	 1.79979976E+02
9.27000000E+08	 1.00101326E+00	 1.79972025E+02
9.28000000E+08	 1.00088541E+00	 1.79980412E+02
9.29000000E+08	 1.00104201E+00	 1.79982881E+02
9.30000000E+08	 1.00103202E+00	 1.79980650E+02
9.31000000E+08	 1.00094322E+00	 1.79978630E+02
9.32000000E+08	 1.00098801E+00	 1.79976175E+02
9.33000000E+08	 1.00097471E+00	 1.79982270E+02
9.34000000E+08	 1.00099934E+00	 1.79981471E+02
9.35000000E+08	 1.00095602E+00	 1.79983113E+02
9.36000000E+08	 1.00094911E+00	 1.79977302E+02
9.37000000E+08	 1.00108822E+00	 1.79980954E+02
9.38000000E+08	 1.00104768E+00	 1.79982648E+02
9.39000000E+08	 1.00097000E+00	 1.79977104E+02
9.40000000E+08	 1.00085971E+00	 1.79975638E+02
9.41000000E+08	 1.00106567E+00	 1.79973705E+02
9.42000000E+08	 1.00095107E+00	 1.79979547E+02
9.43000000E+08	 1.00098074E+00	 1.79978599E+02
9.44000000E+08	 1.00104489E+00	 1.79982886E+02
9.45000000E+08	 1.00095146E+00	 1.79981844E+02
9.46000000E+08	 1.00083190E+00	 1.79972733E+02
9.47000000E+08	 1.00102555E+00	 1.79977471E+02
9.48000000E+08	 1.00100010E+00	 1.79973439E+02
9.49000000E+08	 1.00098051E+00	 1.79979317E+02
9.50000000E+08	 1.00114798E+00	 1.79982043E+02
9.51000000E+08	 1.00098196E+00	 1.79983519E+02
9.52000000E+08	 1.00097430E+00	 1.79976865E+02
9.53000000E+08	 1.00108948E+00	 1.79976161E+02
9.54000000E+08	 1.00089565E+00	 1.79981935E+02
9.55000000E+08	 1.00089629E+00	 1.79977003E+02
9.56000000E+08	 1.00101686E+00	 1.79978887E+02
9.57000000E+08	 1.00095384E+00	 1.79986633E+02
9.58000000E+08	 1.00099089E+00	 1.79980015E+02
9.59000000E+08	 1.00097120E+00	 1.79985289E+02
9.60000000E+08	 1.00104206E+00	 1.79977725E+02
9.61000000E+08	 1.00094048E+00	 1.79984012E+02
9.62000000E+08	 1.00081030E+00	 1.79977330E+02
9.63000000E+08	 1.00090000E+00	 1.79971149E+02
9.64000000E+08	 1.00099542E+00	 1.79972798E+02
9.65000000E+08	 1.00088483E+00	 1.79978386E+02
9.66000000E+08	 1.00092247E+00	 1.79974599E+02
9.67000000E+08	 1.00085473E+00	 1.79975708E+02
9.68000000E+08	 1.00083640E+00	 1.79968625E+02
9.69000000E+08	 1.00098651E+00	 1.79968552E+02
9.70000000E+08	 1.00098341E+00	 1.79977265E+02
9.71000000E+08	 1.00102660E+00	 1.79975852E+02
9.72000000E+08	 1.00100276E+00	 1.79970464E+02
9.73000000E+08	 1.00105188E+00	 1.79970853E+02
9.74000000E+08	 1.00106530E+00	 1.79978687E+02
9.75000000E+08	 1.00096180E+00	 1.79977794E+02
9.76000000E+08	 1.00102937E+00	 1.79978768E+02
9.77000000E+08	 1.00099937E+00	 1.79982220E+02
9.78000000E+08	 1.00099466E+00	 1.79975008E+02
9.79000000E+08	 1.00086351E+00	 1.79980702E+02
9.80000000E+08	 1.00095281E+00	 1.79976003E+02
9.81000000E+08	 1.00104323E+00	 1.79983461E+02
9.82000000E+08	 1.00089978E+00	 1.79978721E+02
9.83000000E+08	 1.00093710E+00	 1.79976645E+02
9.84000000E+08	 1.00094689E+00	 1.79973869E+02
9.85000000E+08	 1.00090996E+00	 1.79976585E+02
9.86000000E+08	 1.00104121E+00	 1.79979808E+02
9.87000000E+08	 1.00100066E+00	 1.79973764E+02
9.88000000E+08	 1.00098293E+00	 1.79973798E+02
9.89000000E+08	 1.00091824E+00	 1.79970081E+02
9.90000000E+08	 1.00091509E+00	 1.79969659E+02
9.91000000E+08	 1.00097528E+00	 1.79980561E+02
9.92000000E+08	 1.00101607E+00	 1.79978214E+02
9.93000000E+08	 1.00091698E+00	 1.79971309E+02
9.94000000E+08	 1.00106445E+00	 1.79972889E+02
9.95000000E+08	 1.00099054E+00	 1.79975545E+02
9.96000000E+08	 1.00101993E+00	 1.79975216E+02
9.97000000E+08	 1.00097086E+00	 1.79971194E+02
9.98000000E+08	 1.00094314E+00	 1.79977646E+02
9.99000000E+08	 1.00087803E+00	 1.79979258E+02
1.00000000E+09	 1.00098003E+00	 1.79972342E+02
1.00100000E+09	 1.00103095E+00	 1.79971610E+02
1.00200000E+09	 1.00088782E+00	 1.79969180E+02
1.00300000E+09	 1.00099300E+00	 1.79975011E+02
1.00400000E+09	 1.00103252E+00	 1.79975417E+02
1.00500000E+09	 1.00101028E+00	 1.79972646E+02
1.00600000E+09	 1.00089732E+00	 1.79979272E+02
1.00700000E+09	 1.00090224E+00	 1.79970387E+02
1.00800000E+09	 1.00088728E+00	 1.79969474E+02
1.00900000E+09	 1.00095627E+00	 1.79971402E+02
1.01000000E+09	 1.00096306E+00	 1.79973865E+02
1.01100000E+09	 1.00095239E+00	 1.79972763E+02
1.01200000E+09	 1.00098622E+00	 1.79966932E+02
1.01300000E+09	 1.00091041E+00	 1.79969043E+02
1.01400000E+09	 1.00095640E+00	 1.79974507E+02
1.01500000E+09	 1.00087485E+00	 1.79967911E+02
1.01600000E+09	 1.00100350E+00	 1.79972705E+02
1.01700000E+09	 1.00076125E+00	 1.79971554E+02
1.01800000E+09	 1.00089728E+00	 1.79975372E+02
1.01900000E+09	 1.00096332E+00	 1.79975217E+02
1.02000000E+09	 1.00095907E+00	 1.79972614E+02
1.02100000E+09	 1.00093524E+00	 1.79969106E+02
1.02200000E+09	 1.00096297E+00	 1.79981131E+02
1.02300000E+09	 1.00095164E+00	 1.79974429E+02
1.02400000E+09	 1.00094902E+00	 1.79971044E+02
1.02500000E+09	 1.00086188E+00	 1.79977953E+02
1.02600000E+09	 1.00096679E+00	 1.79969106E+02
1.02700000E+09	 1.00083054E+00	 1.79974500E+02
1.02800000E+09	 1.00090625E+00	 1.79971587E+02
1.02900000E+09	 1.00092993E+00	 1.79976544E+02
1.03000000E+09	 1.00094746E+00	 1.79983318E+02
1.03100000E+09	 1.00083803E+00	 1.79978528E+02
1.03200000E+09	 1.00105322E+00	 1.79974724E+02
1.03300000E+09	 1.00093281E+00	 1.79973525E+02
1.03400000E+09	 1.00098162E+00	 1.79979509E+02
1.03500000E+09	 1.00083353E+00	 1.79974637E+02
1.03600000E+09	 1.00089642E+00	 1.79970692E+02
1.03700000E+09	 1.00094662E+00	 1.79975290E+02
1.03800000E+09	 1.00097736E+00	 1.79966358E+02
1.03900000E+09	 1.00101631E+00	 1.79974171E+02
1.04000000E+09	 1.00093570E+00	 1.79967836E+02
1.04100000E+09	 1.00082654E+00	 1.79979877E+02
1.04200000E+09	 1.00101611E+00	 1.79977955E+02
1.04300000E+09	 1.00087613E+00	 1.79971993E+02
1.04400000E+09	 1.00081311E+00	 1.79977025E+02
1.04500000E+09	 1.00094420E+00	 1.79974786E+02
1.04600000E+09	 1.00084415E+00	 1.79978881E+02
1.04700000E+09	 1.00087029E+00	 1.79978137E+02
1.04800000E+09	 1.00100023E+00	 1.79976671E+02
1.04900000E+09	 1.00091090E+00	 1.79975864E+02
1.05000000E+09	 1.00077778E+00	 1.79977737E+02
1.05100000E+09	 1.00095961E+00	 1.79976737E+02
1.05200000E+09	 1.00082953E+00	 1.79978525E+02
1.05300000E+09	 1.00086942E+00	 1.79980268E+02
1.05400000E+09	 1.00100970E+00	 1.79975743E+02
1.05500000E+09	 1.00076215E+00	 1.79974197E+02
1.05600000E+09	 1.00068640E+00	 1.79972421E+02
1.05700000E+09	 1.00095130E+00	 1.79980105E+02
1.05800000E+09	 1.00083043E+00	 1.79977993E+02
1.05900000E+09	 1.00081296E+00	 1.79973942E+02
1.06000000E+09	 1.00089594E+00	 1.79978037E+02
1.06100000E+09	 1.00087039E+00	 1.79980427E+02
1.06200000E+09	 1.00087842E+00	 1.79975321E+02
1.06300000E+09	 1.00069943E+00	 1.79975621E+02
1.06400000E+09	 1.00084573E+00	 1.79976976E+02
1.06500000E+09	 1.00084937E+00	 1.79979508E+02
1.06600000E+09	 1.00082046E+00	 1.79977081E+02
1.06700000E+09	 1.00099530E+00	 1.79983276E+02
1.06800000E+09	 1.00079834E+00	 1.79980047E+02
1.06900000E+09	 1.00095555E+00	 1.79979913E+02
1.07000000E+09	 1.00086329E+00	 1.79972720E+02
1.07100000E+09	 1.00078473E+00	 1.79976993E+02
1.07200000E+09	 1.00073237E+00	 1.79973246E+02
1.07300000E+09	 1.00090418E+00	 1.79977720E+02
1.07400000E+09	 1.00079956E+00	 1.79976838E+02
1.07500000E+09	 1.00088975E+00	 1.79974674E+02
1.07600000E+09	 1.00089121E+00	 1.79979077E+02
1.07700000E+09	 1.00091616E+00	 1.79973605E+02
1.07800000E+09	 1.00085961E+00	 1.79979265E+02
1.07900000E+09	 1.00076695E+00	 1.79972676E+02
1.08000000E+09	 1.00086069E+00	 1.79976615E+02
1.08100000E+09	 1.00094645E+00	 1.79973715E+02
1.08200000E+09	 1.00080607E+00	 1.79970857E+02
1.08300000E+09	 1.00089135E+00	 1.79973689E+02
1.08400000E+09	 1.00081851E+00	 1.79973363E+02
1.08500000E+09	 1.00081641E+00	 1.79976719E+02
1.08600000E+09	 1.00093003E+00	 1.79970011E+02
1.08700000E+09	 1.00079522E+00	 1.79975808E+02
1.08800000E+09	 1.00072404E+00	 1.79976784E+02
1.08900000E+09	 1.00077601E+00	 1.79975211E+02
1.09000000E+09	 1.00082281E+00	 1.79966752E+02
1.09100000E+09	 1.00076676E+00	 1.79976898E+02
1.09200000E+09	 1.00077683E+00	 1.79976824E+02
1.09300000E+09	 1.00082727E+00	 1.79977823E+02
1.09400000E+09	 1.00074798E+00	 1.79972956E+02
1.09500000E+09	 1.00073835E+00	 1.79972496E+02
1.09600000E+09	 1.00083260E+00	 1.79976845E+02
1.09700000E+09	 1.00073232E+00	 1.79974905E+02
1.09800000E+09	 1.00083194E+00	 1.79978041E+02
1.09900000E+09	 1.00082632E+00	 1.79986894E+02
1.10000000E+09	 1.00080237E+00	 1.79983577E+02
1.10100000E+09	 1.00087621E+00	 1.79975669E+02
1.10200000E+09	 1.00079863E+00	 1.79967786E+02
1.10300000E+09	 1.00077261E+00	 1.79970448E+02
1.10400000E+09	 1.00082518E+00	 1.79978400E+02
1.10500000E+09	 1.00080881E+00	 1.79975600E+02
1.10600000E+09	 1.00090742E+00	 1.79975381E+02
1.10700000E+09	 1.00065815E+00	 1.79973771E+02
1.10800000E+09	 1.00060231E+00	 1.79978055E+02
1.10900000E+09	 1.00077222E+00	 1.79977570E+02
1.11000000E+09	 1.00075452E+00	 1.79974192E+02
1.11100000E+09	 1.00065749E+00	 1.79976794E+02
1.11200000E+09	 1.00076349E+00	 1.79980962E+02
1.11300000E+09	 1.00074144E+00	 1.79971586E+02
1.11400000E+09	 1.00070657E+00	 1.79979179E+02
1.11500000E+09	 1.00070483E+00	 1.79972885E+02
1.11600000E+09	 1.00079881E+00	 1.79979542E+02
1.11700000E+09	 1.00067751E+00	 1.79973733E+02
1.11800000E+09	 1.00080062E+00	 1.79976676E+02
1.11900000E+09	 1.00072598E+00	 1.79982106E+02
1.12000000E+09	 1.00076994E+00	 1.79970084E+02
1.12100000E+09	 1.00061136E+00	 1.79974330E+02
1.12200000E+09	 1.00082610E+00	 1.79976220E+02
1.12300000E+09	 1.00068403E+00	 1.79967973E+02
1.12400000E+09	 1.00080129E+00	 1.79973809E+02
1.12500000E+09	 1.00087018E+00	 1.79971579E+02
1.12600000E+09	 1.00067223E+00	 1.79969163E+02
1.12700000E+09	 1.00068401E+00	 1.79979094E+02
1.12800000E+09	 1.00075418E+00	 1.79972767E+02
1.12900000E+09	 1.00069597E+00	 1.79972361E+02
1.13000000E+09	 1.00064224E+00	 1.79969002E+02
1.13100000E+09	 1.00079570E+00	 1.79976690E+02
1.13200000E+09	 1.00085104E+00	 1.79974160E+02
1.13300000E+09	 1.00086044E+00	 1.79973408E+02
1.13400000E+09	 1.00059666E+00	 1.79967785E+02
1.13500000E+09	 1.00064252E+00	 1.79969379E+02
1.13600000E+09	 1.00079253E+00	 1.79965674E+02
1.13700000E+09	 1.00081395E+00	 1.79968967E+02
1.13800000E+09	 1.00076013E+00	 1.79966674E+02
1.13900000E+09	 1.00077072E+00	 1.79969568E+02
1.14000000E+09	 1.00064459E+00	 1.79975049E+02
1.14100000E+09	 1.00086283E+00	 1.79977105E+02
1.14200000E+09	 1.00073109E+00	 1.79967845E+02
1.14300000E+09	 1.00072212E+00	 1.79964827E+02
1.14400000E+09	 1.00052112E+00	 1.79966300E+02
1.14500000E+09	 1.00067242E+00	 1.79964258E+02
1.14600000E+09	 1.00068014E+00	 1.79965275E+02
1.14700000E+09	 1.00075424E+00	 1.79964208E+02
1.14800000E+09	 1.00064410E+00	 1.79971917E+02
1.14900000E+09	 1.00067422E+00	 1.79968071E+02
1.15000000E+09	 1.00080376E+00	 1.79971787E+02
1.15100000E+09	 1.00066625E+00	 1.79959384E+02
1.15200000E+09	 1.00070020E+00	 1.79963465E+02
1.15300000E+09	 1.00068776E+00	 1.79964478E+02
1.15400000E+09	 1.00062307E+00	 1.79965706E+02
1.15500000E+09	 1.00072932E+00	 1.79964527E+02
1.15600000E+09	 1.00071537E+00	 1.79963728E+02
1.15700000E+09	 1.00059425E+00	 1.79963438E+02
1.15800000E+09	 1.00066300E+00	 1.79972376E+02
1.15900000E+09	 1.00063645E+00	 1.79968406E+02
1.16000000E+09	 1.00071501E+00	 1.79970941E+02
1.16100000E+09	 1.00080442E+00	 1.79963515E+02
1.16200000E+09	 1.00064300E+00	 1.79964741E+02
1.16300000E+09	 1.00073117E+00	 1.79969380E+02
1.16400000E+09	 1.00074389E+00	 1.79967093E+02
1.16500000E+09	 1.00065020E+00	 1.79962177E+02
1.16600000E+09	 1.00071703E+00	 1.79967430E+02
1.16700000E+09	 1.00061544E+00	 1.79961413E+02
1.16800000E+09	 1.00073575E+00	 1.79963222E+02
1.16900000E+09	 1.00079307E+00	 1.79964296E+02
1.17000000E+09	 1.00073666E+00	 1.79961537E+02
1.17100000E+09	 1.00064231E+00	 1.79964470E+02
1.17200000E+09	 1.00065067E+00	 1.79960486E+02
1.17300000E+09	 1.00072963E+00	 1.79958271E+02
1.17400000E+09	 1.00065848E+00	 1.79968537E+02
1.17500000E+09	 1.00077883E+00	 1.79963266E+02
1.17600000E+09	 1.00066488E+00	 1.79965067E+02
1.17700000E+09	 1.00078589E+00	 1.79958607E+02
1.17800000E+09	 1.00073818E+00	 1.79964190E+02
1.17900000E+09	 1.00068561E+00	 1.79956379E+02
1.18000000E+09	 1.00061326E+00	 1.79962136E+02
1.18100000E+09	 1.00070007E+00	 1.79970439E+02
1.18200000E+09	 1.00066306E+00	 1.79960287E+02
1.18300000E+09	 1.00063950E+00	 1.79951901E+02
1.18400000E+09	 1.00071010E+00	 1.79955222E+02
1.18500000E+09	 1.00070721E+00	 1.79958041E+02
1.18600000E+09	 1.00085736E+00	 1.79958177E+02
1.18700000E+09	 1.00075787E+00	 1.79959293E+02
1.18800000E+09	 1.00081621E+00	 1.79955664E+02
1.18900000E+09	 1.00081041E+00	 1.79955281E+02
1.19000000E+09	 1.00064087E+00	 1.79958629E+02
1.19100000E+09	 1.00063601E+00	 1.79957476E+02
1.19200000E+09	 1.00077886E+00	 1.79957612E+02
1.19300000E+09	 1.00064020E+00	 1.79955663E+02
1.19400000E+09	 1.00077701E+00	 1.79954579E+02
1.19500000E+09	 1.00081783E+00	 1.79957124E+02
1.19600000E+09	 1.00064985E+00	 1.79956595E+02
1.19700000E+09	 1.00074065E+00	 1.79960937E+02
1.19800000E+09	 1.00068385E+00	 1.79954932E+02
1.19900000E+09	 1.00073810E+00	 1.79946105E+02
1.20000000E+09	 1.00062253E+00	 1.79944104E+02
1.20100000E+09	 1.00055288E+00	 1.79951702E+02
1.20200000E+09	 1.00073959E+00	 1.79951759E+02
1.20300000E+09	 1.00070955E+00	 1.79953759E+02
1.20400000E+09	 1.00074760E+00	 1.79954998E+02
1.20500000E+09	 1.00071792E+00	 1.79957829E+02
1.20600000E+09	 1.00073097E+00	 1.79959183E+02
1.20700000E+09	 1.00058626E+00	 1.79949512E+02
1.20800000E+09	 1.00072606E+00	 1.79950958E+02
1.20900000E+09	 1.00075085E+00	 1.79953050E+02
1.21000000E+09	 1.00072077E+00	 1.79946189E+02
1.21100000E+09	 1.00075745E+00	 1.79937482E+02
1.21200000E+09	 1.00077278E+00	 1.79949501E+02
1.21300000E+09	 1.00068900E+00	 1.79955227E+02
1.21400000E+09	 1.00072252E+00	 1.79952194E+02
1.21500000E+09	 1.00056646E+00	 1.79942961E+02
1.21600000E+09	 1.00077691E+00	 1.79949063E+02
1.21700000E+09	 1.00078570E+00	 1.79943793E+02
1.21800000E+09	 1.00066048E+00	 1.79949866E+02
1.21900000E+09	 1.00071072E+00	 1.79954796E+02
1.22000000E+09	 1.00081377E+00	 1.79947795E+02
1.22100000E+09	 1.00068883E+00	 1.79963032E+02
1.22200000E+09	 1.00068578E+00	 1.79942649E+02
1.22300000E+09	 1.00065775E+00	 1.79945046E+02
1.22400000E+09	 1.00076129E+00	 1.79949650E+02
1.22500000E+09	 1.00076219E+00	 1.79952075E+02
1.22600000E+09	 1.00070629E+00	 1.79936785E+02
1.22700000E+09	 1.00078938E+00	 1.79943194E+02
1.22800000E+09	 1.00055622E+00	 1.79943093E+02
1.22900000E+09	 1.00078378E+00	 1.79944865E+02
1.23000000E+09	 1.00084875E+00	 1.79945597E+02
1.23100000E+09	 1.00063412E+00	 1.79946400E+02
1.23200000E+09	 1.00073125E+00	 1.79950157E+02
1.23300000E+09	 1.00081957E+00	 1.79947937E+02
1.23400000E+09	 1.00079924E+00	 1.79945126E+02
1.23500000E+09	 1.00084865E+00	 1.79936312E+02
1.23600000E+09	 1.00069998E+00	 1.79943326E+02
1.23700000E+09	 1.00070589E+00	 1.79946127E+02
1.23800000E+09	 1.00078991E+00	 1.79935861E+02
1.23900000E+09	 1.00081546E+00	 1.79945424E+02
1.24000000E+09	 1.00079009E+00	 1.79944779E+02
1.24100000E+09	 1.00061830E+00	 1.79950280E+02
1.24200000E+09	 1.00080924E+00	 1.79947190E+02
1.24300000E+09	 1.00074004E+00	 1.79944513E+02
1.24400000E+09	 1.00073290E+00	 1.79944151E+02
1.24500000E+09	 1.00078390E+00	 1.79943451E+02
1.24600000E+09	 1.00069464E+00	 1.79937507E+02
1.24700000E+09	 1.00075658E+00	 1.79943050E+02
1.24800000E+09	 1.00072671E+00	 1.79948246E+02
1.24900000E+09	 1.00068965E+00	 1.79940907E+02
1.25000000E+09	 1.00076683E+00	 1.79942001E+02
1.25100000E+09	 1.00072769E+00	 1.79946606E+02
1.25200000E+09	 1.00074184E+00	 1.79939737E+02
1.25300000E+09	 1.00077501E+00	 1.79941265E+02
1.25400000E+09	 1.00070085E+00	 1.79942229E+02
1.25500000E+09	 1.00065651E+00	 1.79941035E+02
1.25600000E+09	 1.00062399E+00	 1.79947122E+02
1.25700000E+09	 1.00071588E+00	 1.79940240E+02
1.25800000E+09	 1.00082098E+00	 1.79950087E+02
1.25900000E+09	 1.00073073E+00	 1.79943639E+02
1.26000000E+09	 1.00071696E+00	 1.79946044E+02
1.26100000E+09	 1.00073708E+00	 1.79943880E+02
1.26200000E+09	 1.00078020E+00	 1.79941814E+02
1.26300000E+09	 1.00071291E+00	 1.79940801E+02
1.26400000E+09	 1.00070179E+00	 1.79942934E+02
1.26500000E+09	 1.00066004E+00	 1.79940580E+02
1.26600000E+09	 1.00063093E+00	 1.79943007E+02
1.26700000E+09	 1.00060568E+00	 1.79939895E+02
1.26800000E+09	 1.00077286E+00	 1.79948360E+02
1.26900000E+09	 1.00078701E+00	 1.79945839E+02
1.27000000E+09	 1.00072091E+00	 1.79937375E+02
1.27100000E+09	 1.00074633E+00	 1.79940584E+02
1.27200000E+09	 1.00064883E+00	 1.79945897E+02
1.27300000E+09	 1.00071500E+00	 1.79941248E+02
1.27400000E+09	 1.00067197E+00	 1.79945089E+02
1.27500000E+09	 1.00065990E+00	 1.79946950E+02
1.27600000E+09	 1.00066863E+00	 1.79947605E+02
1.27700000E+09	 1.00081304E+00	 1.79940578E+02
1.27800000E+09	 1.00084409E+00	 1.79945028E+02
1.27900000E+09	 1.00076176E+00	 1.79947523E+02
1.28000000E+09	 1.00055396E+00	 1.79942649E+02
1.28100000E+09	 1.00065833E+00	 1.79948285E+02
1.28200000E+09	 1.00069355E+00	 1.79945673E+02
1.28300000E+09	 1.00067838E+00	 1.79939836E+02
1.28400000E+09	 1.00055723E+00	 1.79943988E+02
1.28500000E+09	 1.00079953E+00	 1.79944145E+02
1.28600000E+09	 1.00062169E+00	 1.79955179E+02
1.28700000E+09	 1.00065088E+00	 1.79940031E+02
1.28800000E+09	 1.00070118E+00	 1.79947732E+02
1.28900000E+09	 1.00063501E+00	 1.79943020E+02
1.29000000E+09	 1.00062649E+00	 1.79946366E+02
1.29100000E+09	 1.00055655E+00	 1.79947483E+02
1.29200000E+09	 1.00061129E+00	 1.79940753E+02
1.29300000E+09	 1.00061946E+00	 1.79944601E+02
1.29400000E+09	 1.00054807E+00	 1.79945573E+02
1.29500000E+09	 1.00056430E+00	 1.79941813E+02
1.29600000E+09	 1.00054136E+00	 1.79936310E+02
1.29700000E+09	 1.00081639E+00	 1.79943763E+02
1.29800000E+09	 1.00055259E+00	 1.79944105E+02
1.29900000E+09	 1.00063209E+00	 1.79942122E+02
1.30000000E+09	 1.00057722E+00	 1.79941275E+02
1.30100000E+09	 1.00060663E+00	 1.79939027E+02
1.30200000E+09	 1.00057465E+00	 1.79940393E+02
1.30300000E+09	 1.00053409E+00	 1.79945414E+02
1.30400000E+09	 1.00052142E+00	 1.79943775E+02
1.30500000E+09	 1.00053702E+00	 1.79945023E+02
1.30600000E+09	 1.00066532E+00	 1.79937218E+02
1.30700000E+09	 1.00054599E+00	 1.79942216E+02
1.30800000E+09	 1.00060809E+00	 1.79941657E+02
1.30900000E+09	 1.00051117E+00	 1.79949311E+02
1.31000000E+09	 1.00056974E+00	 1.79940832E+02
1.31100000E+09	 1.00050939E+00	 1.79945410E+02
1.31200000E+09	 1.00056075E+00	 1.79944399E+02
1.31300000E+09	 1.00055799E+00	 1.79940608E+02
1.31400000E+09	 1.00060608E+00	 1.79943539E+02
1.31500000E+09	 1.00050664E+00	 1.79940659E+02
1.31600000E+09	 1.00050049E+00	 1.79943525E+02
1.31700000E+09	 1.00051553E+00	 1.79941422E+02
1.31800000E+09	 1.00048507E+00	 1.79942798E+02
1.31900000E+09	 1.00047339E+00	 1.79943425E+02
1.32000000E+09	 1.00045320E+00	 1.79940465E+02
1.32100000E+09	 1.00059228E+00	 1.79944908E+02
1.32200000E+09	 1.00053006E+00	 1.79944994E+02
1.32300000E+09	 1.00057649E+00	 1.79938675E+02
1.32400000E+09	 1.00046490E+00	 1.79944093E+02
1.32500000E+09	 1.00047931E+00	 1.79945986E+02
1.32600000E+09	 1.00049409E+00	 1.79949261E+02
1.32700000E+09	 1.00063330E+00	 1.79940053E+02
1.32800000E+09	 1.00055597E+00	 1.79948414E+02
1.32900000E+09	 1.00059056E+00	 1.79939744E+02
1.33000000E+09	 1.00038837E+00	 1.79947272E+02
1.33100000E+09	 1.00046299E+00	 1.79939922E+02
1.33200000E+09	 1.00051649E+00	 1.79945933E+02
1.33300000E+09	 1.00044058E+00	 1.79934915E+02
1.33400000E+09	 1.00043082E+00	 1.79935513E+02
1.33500000E+09	 1.00046725E+00	 1.79940662E+02
1.33600000E+09	 1.00049520E+00	 1.79936946E+02
1.33700000E+09	 1.00046609E+00	 1.79944672E+02
1.33800000E+09	 1.00051167E+00	 1.79937080E+02
1.33900000E+09	 1.00057232E+00	 1.79942889E+02
1.34000000E+09	 1.00056755E+00	 1.79933845E+02
1.34100000E+09	 1.00051553E+00	 1.79936887E+02
1.34200000E+09	 1.00061914E+00	 1.79943258E+02
1.34300000E+09	 1.00038530E+00	 1.79939186E+02
1.34400000E+09	 1.00047790E+00	 1.79932934E+02
1.34500000E+09	 1.00048501E+00	 1.79941609E+02
1.34600000E+09	 1.00052280E+00	 1.79937476E+02
1.34700000E+09	 1.00037081E+00	 1.79941236E+02
1.34800000E+09	 1.00048544E+00	 1.79934824E+02
1.34900000E+09	 1.00042503E+00	 1.79939467E+02
1.35000000E+09	 1.00050292E+00	 1.79933719E+02
1.35100000E+09	 1.00049507E+00	 1.79934300E+02
1.35200000E+09	 1.00045494E+00	 1.79940528E+02
1.35300000E+09	 1.00037010E+00	 1.79937098E+02
1.35400000E+09	 1.00044269E+00	 1.79938872E+02
1.35500000E+09	 1.00051046E+00	 1.79934979E+02
1.35600000E+09	 1.00040771E+00	 1.79947799E+02
1.35700000E+09	 1.00032941E+00	 1.79942575E+02
1.35800000E+09	 1.00038187E+00	 1.79937233E+02
1.35900000E+09	 1.00050570E+00	 1.79935260E+02
1.36000000E+09	 1.00041412E+00	 1.79933481E+02
1.36100000E+09	 1.00044794E+00	 1.79937925E+02
1.36200000E+09	 1.00044672E+00	 1.79938928E+02
1.36300000E+09	 1.00038194E+00	 1.79937783E+02
1.36400000E+09	 1.00050481E+00	 1.79940800E+02
1.36500000E+09	 1.00048986E+00	 1.79935489E+02
1.36600000E+09	 1.00030176E+00	 1.79935947E+02
1.36700000E+09	 1.00049439E+00	 1.79930648E+02
1.36800000E+09	 1.00044995E+00	 1.79931151E+02
1.36900000E+09	 1.00035020E+00	 1.79938460E+02
1.37000000E+09	 1.00043955E+00	 1.79936846E+02
1.37100000E+09	 1.00037201E+00	 1.79937343E+02
1.37200000E+09	 1.00039098E+00	 1.79922327E+02
1.37300000E+09	 1.00038807E+00	 1.79941736E+02
1.37400000E+09	 1.00047921E+00	 1.79933986E+02
1.37500000E+09	 1.00027032E+00	 1.79931939E+02
1.37600000E+09	 1.00047511E+00	 1.79930361E+02
1.37700000E+09	 1.00028346E+00	 1.79931660E+02
1.37800000E+09	 1.00034203E+00	 1.79933167E+02
1.37900000E+09	 1.00043026E+00	 1.79933534E+02
1.38000000E+09	 1.00041014E+00	 1.79936738E+02
1.38100000E+09	 1.00036327E+00	 1.79929368E+02
1.38200000E+09	 1.00036053E+00	 1.79931385E+02
1.38300000E+09	 1.00040706E+00	 1.79930804E+02
1.38400000E+09	 1.00049823E+00	 1.79933861E+02
1.38500000E+09	 1.00041890E+00	 1.79929605E+02
1.38600000E+09	 1.00044279E+00	 1.79926906E+02
1.38700000E+09	 1.00051975E+00	 1.79932304E+02
1.38800000E+09	 1.00035502E+00	 1.79930041E+02
1.38900000E+09	 1.00035682E+00	 1.79931852E+02
1.39000000E+09	 1.00048228E+00	 1.79931940E+02
1.39100000E+09	 1.00047998E+00	 1.79934101E+02
1.39200000E+09	 1.00038157E+00	 1.79930612E+02
1.39300000E+09	 1.00025946E+00	 1.79933305E+02
1.39400000E+09	 1.00015605E+00	 1.79932453E+02
1.39500000E+09	 1.00044097E+00	 1.79933692E+02
1.39600000E+09	 1.00043089E+00	 1.79938794E+02
1.39700000E+09	 1.00039009E+00	 1.79931495E+02
1.39800000E+09	 1.00034679E+00	 1.79927264E+02
1.39900000E+09	 1.00039029E+00	 1.79931140E+02
1.40000000E+09	 1.00049515E+00	 1.79936779E+02
1.40100000E+09	 1.00030245E+00	 1.79932348E+02
1.40200000E+09	 1.00034586E+00	 1.79934602E+02
1.40300000E+09	 1.00035102E+00	 1.79930866E+02
1.40400000E+09	 1.00038917E+00	 1.79928770E+02
1.40500000E+09	 1.00044179E+00	 1.79925704E+02
1.40600000E+09	 1.00045367E+00	 1.79927255E+02
1.40700000E+09	 1.00037629E+00	 1.79926944E+02
1.40800000E+09	 1.00038605E+00	 1.79930777E+02
1.40900000E+09	 1.00045657E+00	 1.79924775E+02
1.41000000E+09	 1.00045412E+00	 1.79927777E+02
1.41100000E+09	 1.00052521E+00	 1.79924100E+02
1.41200000E+09	 1.00039195E+00	 1.79929762E+02
1.41300000E+09	 1.00043116E+00	 1.79923137E+02
1.41400000E+09	 1.00039217E+00	 1.79923514E+02
1.41500000E+09	 1.00046907E+00	 1.79923550E+02
1.41600000E+09	 1.00048825E+00	 1.79925679E+02
1.41700000E+09	 1.00043196E+00	 1.79930774E+02
1.41800000E+09	 1.00045469E+00	 1.79928314E+02
1.41900000E+09	 1.00042417E+00	 1.79927864E+02
1.42000000E+09	 1.00042256E+00	 1.79934709E+02
1.42100000E+09	 1.00053900E+00	 1.79929941E+02
1.42200000E+09	 1.00035980E+00	 1.79936407E+02
1.42300000E+09	 1.00050530E+00	 1.79930432E+02
1.42400000E+09	 1.00036936E+00	 1.79932611E+02
1.42500000E+09	 1.00043298E+00	 1.79937273E+02
1.42600000E+09	 1.00048203E+00	 1.79934408E+02
1.42700000E+09	 1.00040264E+00	 1.79930902E+02
1.42800000E+09	 1.00044548E+00	 1.79930152E+02
1.42900000E+09	 1.00041543E+00	 1.79929466E+02
1.43000000E+09	 1.00034288E+00	 1.79924261E+02
1.43100000E+09	 1.00049719E+00	 1.79932543E+02
1.43200000E+09	 1.00043816E+00	 1.79929524E+02
1.43300000E+09	 1.00043909E+00	 1.79928951E+02
1.43400000E+09	 1.00043325E+00	 1.79936110E+02
1.43500000E+09	 1.00028781E+00	 1.79930588E+02
1.43600000E+09	 1.00029415E+00	 1.79938794E+02
1.43700000E+09	 1.00049017E+00	 1.79933731E+02
1.43800000E+09	 1.00035873E+00	 1.79926454E+02
1.43900000E+09	 1.00061694E+00	 1.79934749E+02
1.44000000E+09	 1.00051078E+00	 1.79924520E+02
1.44100000E+09	 1.00046048E+00	 1.79932960E+02
1.44200000E+09	 1.00047449E+00	 1.79928555E+02
1.44300000E+09	 1.00045651E+00	 1.79932237E+02
1.44400000E+09	 1.00052817E+00	 1.79928140E+02
1.44500000E+09	 1.00042994E+00	 1.79932272E+02
1.44600000E+09	 1.00040472E+00	 1.79926671E+02
1.44700000E+09	 1.00048447E+00	 1.79924354E+02
1.44800000E+09	 1.00051174E+00	 1.79933561E+02
1.44900000E+09	 1.00056793E+00	 1.79928048E+02
1.45000000E+09	 1.00045469E+00	 1.79929811E+02
1.45100000E+09	 1.00055899E+00	 1.79932499E+02
1.45200000E+09	 1.00056709E+00	 1.79941272E+02
1.45300000E+09	 1.00051806E+00	 1.79938143E+02
1.45400000E+09	 1.00048499E+00	 1.79938168E+02
1.45500000E+09	 1.00037137E+00	 1.79936658E+02
1.45600000E+09	 1.00042863E+00	 1.79930965E+02
1.45700000E+09	 1.00057448E+00	 1.79933079E+02
1.45800000E+09	 1.00061208E+00	 1.79937214E+02
1.45900000E+09	 1.00050449E+00	 1.79941672E+02
1.46000000E+09	 1.00058814E+00	 1.79931840E+02
1.46100000E+09	 1.00046685E+00	 1.79924818E+02
1.46200000E+09	 1.00059009E+00	 1.79937405E+02
1.46300000E+09	 1.00058905E+00	 1.79932589E+02
1.46400000E+09	 1.00056462E+00	 1.79929369E+02
1.46500000E+09	 1.00055981E+00	 1.79941366E+02
1.46600000E+09	 1.00054228E+00	 1.79944577E+02
1.46700000E+09	 1.00053335E+00	 1.79937437E+02
1.46800000E+09	 1.00037919E+00	 1.79932641E+02
1.46900000E+09	 1.00055619E+00	 1.79937321E+02
1.47000000E+09	 1.00047998E+00	 1.79933837E+02
1.47100000E+09	 1.00049599E+00	 1.79938696E+02
1.47200000E+09	 1.00044723E+00	 1.79936810E+02
1.47300000E+09	 1.00041533E+00	 1.79943894E+02
1.47400000E+09	 1.00052719E+00	 1.79931211E+02
1.47500000E+09	 1.00047317E+00	 1.79936939E+02
1.47600000E+09	 1.00040381E+00	 1.79936720E+02
1.47700000E+09	 1.00043939E+00	 1.79932636E+02
1.47800000E+09	 1.00044989E+00	 1.79932378E+02
1.47900000E+09	 1.00049641E+00	 1.79939020E+02
1.48000000E+09	 1.00040368E+00	 1.79937913E+02
1.48100000E+09	 1.00060005E+00	 1.79934706E+02
1.48200000E+09	 1.00038699E+00	 1.79935064E+02
1.48300000E+09	 1.00032828E+00	 1.79934096E+02
1.48400000E+09	 1.00044883E+00	 1.79940528E+02
1.48500000E+09	 1.00049436E+00	 1.79927389E+02
1.48600000E+09	 1.00054996E+00	 1.79943227E+02
1.48700000E+09	 1.00053240E+00	 1.79937151E+02
1.48800000E+09	 1.00035126E+00	 1.79940975E+02
1.48900000E+09	 1.00042647E+00	 1.79936901E+02
1.49000000E+09	 1.00049777E+00	 1.79941515E+02
1.49100000E+09	 1.00044032E+00	 1.79935579E+02
1.49200000E+09	 1.00043293E+00	 1.79940374E+02
1.49300000E+09	 1.00049033E+00	 1.79938660E+02
1.49400000E+09	 1.00056768E+00	 1.79933889E+02
1.49500000E+09	 1.00040628E+00	 1.79936151E+02
1.49600000E+09	 1.00035136E+00	 1.79939789E+02
1.49700000E+09	 1.00040734E+00	 1.79936880E+02
1.49800000E+09	 1.00046206E+00	 1.79940026E+02
1.49900000E+09	 1.00048807E+00	 1.79940660E+02
1.50000000E+09	 1.00042725E+00	 1.79934750E+02
1.50100000E+09	 1.00040802E+00	 1.79935833E+02
1.50200000E+09	 1.00031439E+00	 1.79939721E+02
1.50300000E+09	 1.00042941E+00	 1.79935891E+02
1.50400000E+09	 1.00035607E+00	 1.79940191E+02
1.50500000E+09	 1.00046655E+00	 1.79939031E+02
1.50600000E+09	 1.00045632E+00	 1.79939046E+02
1.50700000E+09	 1.00031576E+00	 1.79944478E+02
1.50800000E+09	 1.00041766E+00	 1.79950473E+02
1.50900000E+09	 1.00042999E+00	 1.79943779E+02
1.51000000E+09	 1.00041437E+00	 1.79938834E+02
1.51100000E+09	 1.00035007E+00	 1.79944234E+02
1.51200000E+09	 1.00036848E+00	 1.79946851E+02
1.51300000E+09	 1.00037528E+00	 1.79937486E+02
1.51400000E+09	 1.00046265E+00	 1.79937561E+02
1.51500000E+09	 1.00035344E+00	 1.79936030E+02
1.51600000E+09	 1.00031520E+00	 1.79942390E+02
1.51700000E+09	 1.00029544E+00	 1.79942237E+02
1.51800000E+09	 1.00040504E+00	 1.79933910E+02
1.51900000E+09	 1.00044032E+00	 1.79941730E+02
1.52000000E+09	 1.00031881E+00	 1.79935756E+02
1.52100000E+09	 1.00038856E+00	 1.79948812E+02
1.52200000E+09	 1.00024157E+00	 1.79944414E+02
1.52300000E+09	 1.00040555E+00	 1.79949517E+02
1.52400000E+09	 1.00032294E+00	 1.79937732E+02
1.52500000E+09	 1.00041420E+00	 1.79942847E+02
1.52600000E+09	 1.00043363E+00	 1.79947794E+02
1.52700000E+09	 1.00051698E+00	 1.79942491E+02
1.52800000E+09	 1.00037336E+00	 1.79948150E+02
1.52900000E+09	 1.00026718E+00	 1.79946730E+02
1.53000000E+09	 1.00045354E+00	 1.79937922E+02
1.53100000E+09	 1.00040828E+00	 1.79943585E+02
1.53200000E+09	 1.00027916E+00	 1.79941393E+02
1.53300000E+09	 1.00035256E+00	 1.79945062E+02
1.53400000E+09	 1.00048755E+00	 1.79938245E+02
1.53500000E+09	 1.00035019E+00	 1.79940421E+02
1.53600000E+09	 1.00029518E+00	 1.79935054E+02
1.53700000E+09	 1.00031579E+00	 1.79943244E+02
1.53800000E+09	 1.00038335E+00	 1.79937483E+02
1.53900000E+09	 1.00020120E+00	 1.79937395E+02
1.54000000E+09	 1.00034149E+00	 1.79938821E+02
1.54100000E+09	 1.00019254E+00	 1.79942510E+02
1.54200000E+09	 1.00037071E+00	 1.79941170E+02
1.54300000E+09	 1.00042097E+00	 1.79939532E+02
1.54400000E+09	 1.00041664E+00	 1.79933954E+02
1.54500000E+09	 1.00050907E+00	 1.79942683E+02
1.54600000E+09	 1.00029793E+00	 1.79943036E+02
1.54700000E+09	 1.00025458E+00	 1.79946522E+02
1.54800000E+09	 1.00024210E+00	 1.79944605E+02
1.54900000E+09	 1.00030548E+00	 1.79949010E+02
1.55000000E+09	 1.00011060E+00	 1.79944474E+02
1.55100000E+09	 1.00030212E+00	 1.79940625E+02
1.55200000E+09	 1.00020972E+00	 1.79937491E+02
1.55300000E+09	 1.00025088E+00	 1.79942239E+02
1.55400000E+09	 1.00032276E+00	 1.79940320E+02
1.55500000E+09	 1.00025959E+00	 1.79939739E+02
1.55600000E+09	 1.00036707E+00	 1.79937719E+02
1.55700000E+09	 1.00019723E+00	 1.79942687E+02
1.55800000E+09	 1.00031851E+00	 1.79941926E+02
1.55900000E+09	 1.00023784E+00	 1.79937488E+02
1.56000000E+09	 1.00027403E+00	 1.79942847E+02
1.56100000E+09	 1.00025005E+00	 1.79941117E+02
1.56200000E+09	 1.00027245E+00	 1.79942264E+02
1.56300000E+09	 1.00018804E+00	 1.79939230E+02
1.56400000E+09	 1.00046207E+00	 1.79941714E+02
1.56500000E+09	 1.00017846E+00	 1.79939595E+02
1.56600000E+09	 1.00014878E+00	 1.79942647E+02
1.56700000E+09	 1.00025149E+00	 1.79942147E+02
1.56800000E+09	 1.00016531E+00	 1.79935412E+02
1.56900000E+09	 1.00023491E+00	 1.79943389E+02
1.57000000E+09	 1.00033799E+00	 1.79947793E+02
1.57100000E+09	 1.00013993E+00	 1.79936976E+02
1.57200000E+09	 1.00030477E+00	 1.79946054E+02
1.57300000E+09	 1.00017496E+00	 1.79936985E+02
1.57400000E+09	 1.00001675E+00	 1.79933309E+02
1.57500000E+09	 1.00026446E+00	 1.79943743E+02
1.57600000E+09	 1.00016119E+00	 1.79938962E+02
1.57700000E+09	 1.00023068E+00	 1.79941349E+02
1.57800000E+09	 1.00020903E+00	 1.79935129E+02
1.57900000E+09	 1.00023914E+00	 1.79940826E+02
1.58000000E+09	 1.00018420E+00	 1.79942834E+02
1.58100000E+09	 1.00017934E+00	 1.79940402E+02
1.58200000E+09	 1.00021428E+00	 1.79941938E+02
1.58300000E+09	 1.00019406E+00	 1.79940373E+02
1.58400000E+09	 1.00021546E+00	 1.79933028E+02
1.58500000E+09	 1.00020430E+00	 1.79932286E+02
1.58600000E+09	 1.00017017E+00	 1.79942129E+02
1.58700000E+09	 1.00020345E+00	 1.79944727E+02
1.58800000E+09	 1.00020453E+00	 1.79939857E+02
1.58900000E+09	 1.00021581E+00	 1.79940654E+02
1.59000000E+09	 1.00020004E+00	 1.79936655E+02
1.59100000E+09	 1.00012636E+00	 1.79933448E+02
1.59200000E+09	 1.00018479E+00	 1.79936486E+02
1.59300000E+09	 1.00016510E+00	 1.79934595E+02
1.59400000E+09	 1.00015109E+00	 1.79938099E+02
1.59500000E+09	 1.00020536E+00	 1.79937936E+02
1.59600000E+09	 1.00025547E+00	 1.79939542E+02
1.59700000E+09	 1.00016019E+00	 1.79938795E+02
1.59800000E+09	 1.00009197E+00	 1.79936069E+02
1.59900000E+09	 1.00017794E+00	 1.79939723E+02
1.60000000E+09	 1.00020733E+00	 1.79943091E+02
1.60100000E+09	 1.00024725E+00	 1.79939305E+02
1.60200000E+09	 1.00011068E+00	 1.79943489E+02
1.60300000E+09	 1.00018849E+00	 1.79941882E+02
1.60400000E+09	 1.00013257E+00	 1.79933772E+02
1.60500000E+09	 1.00016870E+00	 1.79938456E+02
1.60600000E+09	 1.00020332E+00	 1.79931762E+02
1.60700000E+09	 1.00012717E+00	 1.79945989E+02
1.60800000E+09	 1.00016806E+00	 1.79932875E+02
1.60900000E+09	 1.00021759E+00	 1.79934054E+02
1.61000000E+09	 1.00018290E+00	 1.79938904E+02
1.61100000E+09	 1.00022316E+00	 1.79938298E+02
1.61200000E+09	 1.00019429E+00	 1.79933857E+02
1.61300000E+09	 1.00026285E+00	 1.79938879E+02
1.61400000E+09	 1.00013857E+00	 1.79942372E+02
1.61500000E+09	 1.00023106E+00	 1.79939183E+02
1.61600000E+09	 1.00021797E+00	 1.79943907E+02
1.61700000E+09	 1.00031460E+00	 1.79938268E+02
1.61800000E+09	 1.00029536E+00	 1.79940990E+02
1.61900000E+09	 1.00032616E+00	 1.79940465E+02
1.62000000E+09	 1.00022087E+00	 1.79944883E+02
1.62100000E+09	 1.00012511E+00	 1.79939373E+02
1.62200000E+09	 1.00020879E+00	 1.79940507E+02
1.62300000E+09	 1.00028016E+00	 1.79944285E+02
1.62400000E+09	 1.00034939E+00	 1.79946634E+02
1.62500000E+09	 1.00019372E+00	 1.79946940E+02
1.62600000E+09	 1.00016288E+00	 1.79940670E+02
1.62700000E+09	 1.00036467E+00	 1.79934699E+02
1.62800000E+09	 1.00026732E+00	 1.79945697E+02
1.62900000E+09	 1.00039254E+00	 1.79938143E+02
1.63000000E+09	 1.00016400E+00	 1.79938632E+02
1.63100000E+09	 1.00027687E+00	 1.79933052E+02
1.63200000E+09	 1.00019829E+00	 1.79936043E+02
1.63300000E+09	 1.00039596E+00	 1.79943818E+02
1.63400000E+09	 1.00024475E+00	 1.79929282E+02
1.63500000E+09	 1.00012585E+00	 1.79936705E+02
1.63600000E+09	 1.00033698E+00	 1.79939660E+02
1.63700000E+09	 1.00052245E+00	 1.79942172E+02
1.63800000E+09	 1.00049569E+00	 1.79933250E+02
1.63900000E+09	 1.00049831E+00	 1.79944906E+02
1.64000000E+09	 1.00035208E+00	 1.79941905E+02
1.64100000E+09	 1.00041324E+00	 1.79938178E+02
1.64200000E+09	 1.00041830E+00	 1.79941560E+02
1.64300000E+09	 1.00036182E+00	 1.79948582E+02
1.64400000E+09	 1.00047939E+00	 1.79948433E+02
1.64500000E+09	 1.00037879E+00	 1.79948946E+02
1.64600000E+09	 1.00029419E+00	 1.79951057E+02
1.64700000E+09	 1.00035355E+00	 1.79936829E+02
1.64800000E+09	 1.00040583E+00	 1.79934992E+02
1.64900000E+09	 1.00040556E+00	 1.79934506E+02
1.65000000E+09	 1.00039494E+00	 1.79939248E+02
1.65100000E+09	 1.00041786E+00	 1.79940659E+02
1.65200000E+09	 1.00034301E+00	 1.79933830E+02
1.65300000E+09	 1.00044519E+00	 1.79944888E+02
1.65400000E+09	 1.00040939E+00	 1.79946129E+02
1.65500000E+09	 1.00045561E+00	 1.79944675E+02
1.65600000E+09	 1.00040838E+00	 1.79945426E+02
1.65700000E+09	 1.00049190E+00	 1.79941233E+02
1.65800000E+09	 1.00036323E+00	 1.79942367E+02
1.65900000E+09	 1.00036948E+00	 1.79949356E+02
1.66000000E+09	 1.00042568E+00	 1.79939984E+02
1.66100000E+09	 1.00046119E+00	 1.79939597E+02
1.66200000E+09	 1.00040253E+00	 1.79945382E+02
1.66300000E+09	 1.00038783E+00	 1.79940098E+02
1.66400000E+09	 1.00056738E+00	 1.79940847E+02
1.66500000E+09	 1.00050792E+00	 1.79941557E+02
1.66600000E+09	 1.00041246E+00	 1.79951520E+02
1.66700000E+09	 1.00048361E+00	 1.79946728E+02
1.66800000E+09	 1.00042602E+00	 1.79945684E+02
1.66900000E+09	 1.00045522E+00	 1.79947107E+02
1.67000000E+09	 1.00040911E+00	 1.79950860E+02
1.67100000E+09	 1.00047689E+00	 1.79948314E+02
1.67200000E+09	 1.00049526E+00	 1.79941487E+02
1.67300000E+09	 1.00037536E+00	 1.79946390E+02
1.67400000E+09	 1.00057589E+00	 1.79938318E+02
1.67500000E+09	 1.00041268E+00	 1.79944771E+02
1.67600000E+09	 1.00055017E+00	 1.79941335E+02
1.67700000E+09	 1.00049703E+00	 1.79945426E+02
1.67800000E+09	 1.00052953E+00	 1.79942464E+02
1.67900000E+09	 1.00042617E+00	 1.79943960E+02
1.68000000E+09	 1.00060001E+00	 1.79942381E+02
1.68100000E+09	 1.00048201E+00	 1.79954419E+02
1.68200000E+09	 1.00058203E+00	 1.79941857E+02
1.68300000E+09	 1.00062126E+00	 1.79946031E+02
1.68400000E+09	 1.00045548E+00	 1.79943845E+02
1.68500000E+09	 1.00046633E+00	 1.79950010E+02
1.68600000E+09	 1.00041419E+00	 1.79949155E+02
1.68700000E+09	 1.00050431E+00	 1.79943276E+02
1.68800000E+09	 1.00036942E+00	 1.79945744E+02
1.68900000E+09	 1.00050062E+00	 1.79945291E+02
1.69000000E+09	 1.00069757E+00	 1.79942342E+02
1.69100000E+09	 1.00063841E+00	 1.79948942E+02
1.69200000E+09	 1.00045048E+00	 1.79946042E+02
1.69300000E+09	 1.00042341E+00	 1.79955469E+02
1.69400000E+09	 1.00045207E+00	 1.79952997E+02
1.69500000E+09	 1.00048819E+00	 1.79954785E+02
1.69600000E+09	 1.00035094E+00	 1.79951917E+02
1.69700000E+09	 1.00050083E+00	 1.79953204E+02
1.69800000E+09	 1.00054597E+00	 1.79955975E+02
1.69900000E+09	 1.00044402E+00	 1.79952955E+02
1.70000000E+09	 1.00044728E+00	 1.79954837E+02
1.70100000E+09	 1.00061866E+00	 1.79957625E+02
1.70200000E+09	 1.00052143E+00	 1.79941777E+02
1.70300000E+09	 1.00059384E+00	 1.79958696E+02
1.70400000E+09	 1.00047931E+00	 1.79950493E+02
1.70500000E+09	 1.00060949E+00	 1.79951985E+02
1.70600000E+09	 1.00046337E+00	 1.79961625E+02
1.70700000E+09	 1.00045377E+00	 1.79957110E+02
1.70800000E+09	 1.00052322E+00	 1.79954180E+02
1.70900000E+09	 1.00040326E+00	 1.79959552E+02
1.71000000E+09	 1.00049132E+00	 1.79956995E+02
1.71100000E+09	 1.00031302E+00	 1.79965898E+02
1.71200000E+09	 1.00056740E+00	 1.79959350E+02
1.71300000E+09	 1.00051392E+00	 1.79956349E+02
1.71400000E+09	 1.00037559E+00	 1.79957582E+02
1.71500000E+09	 1.00049435E+00	 1.79956199E+02
1.71600000E+09	 1.00041581E+00	 1.79961971E+02
1.71700000E+09	 1.00054391E+00	 1.79953548E+02
1.71800000E+09	 1.00041389E+00	 1.79955227E+02
1.71900000E+09	 1.00049723E+00	 1.79955057E+02
1.72000000E+09	 1.00049696E+00	 1.79948884E+02
1.72100000E+09	 1.00038914E+00	 1.79961421E+02
1.72200000E+09	 1.00041968E+00	 1.79963152E+02
1.72300000E+09	 1.00043957E+00	 1.79949863E+02
1.72400000E+09	 1.00050220E+00	 1.79961497E+02
1.72500000E+09	 1.00043062E+00	 1.79968424E+02
1.72600000E+09	 1.00046084E+00	 1.79962623E+02
1.72700000E+09	 1.00047906E+00	 1.79962132E+02
1.72800000E+09	 1.00038959E+00	 1.79955763E+02
1.72900000E+09	 1.00051624E+00	 1.79953122E+02
1.73000000E+09	 1.00041650E+00	 1.79956537E+02
1.73100000E+09	 1.00039360E+00	 1.79958262E+02
1.73200000E+09	 1.00053825E+00	 1.79963031E+02
1.73300000E+09	 1.00057913E+00	 1.79958012E+02
1.73400000E+09	 1.00048965E+00	 1.79961959E+02
1.73500000E+09	 1.00043431E+00	 1.79961181E+02
1.73600000E+09	 1.00044769E+00	 1.79947666E+02
1.73700000E+09	 1.00023636E+00	 1.79954399E+02
1.73800000E+09	 1.00041837E+00	 1.79960487E+02
1.73900000E+09	 1.00038778E+00	 1.79962292E+02
1.74000000E+09	 1.00037133E+00	 1.79963013E+02
1.74100000E+09	 1.00040208E+00	 1.79959338E+02
1.74200000E+09	 1.00022436E+00	 1.79960773E+02
1.74300000E+09	 1.00044671E+00	 1.79963716E+02
1.74400000E+09	 1.00040639E+00	 1.79961700E+02
1.74500000E+09	 1.00050069E+00	 1.79965959E+02
1.74600000E+09	 1.00046209E+00	 1.79967954E+02
1.74700000E+09	 1.00031946E+00	 1.79965655E+02
1.74800000E+09	 1.00033213E+00	 1.79968832E+02
1.74900000E+09	 1.00034994E+00	 1.79967643E+02
1.75000000E+09	 1.00040780E+00	 1.79962464E+02
1.75100000E+09	 1.00035887E+00	 1.79960002E+02
1.75200000E+09	 1.00043013E+00	 1.79957752E+02
1.75300000E+09	 1.00032828E+00	 1.79959904E+02
1.75400000E+09	 1.00029017E+00	 1.79960575E+02
1.75500000E+09	 1.00036077E+00	 1.79964083E+02
1.75600000E+09	 1.00028121E+00	 1.79963907E+02
1.75700000E+09	 1.00033199E+00	 1.79961971E+02
1.75800000E+09	 1.00026629E+00	 1.79963313E+02
1.75900000E+09	 1.00029806E+00	 1.79958350E+02
1.76000000E+09	 1.00018166E+00	 1.79963982E+02
1.76100000E+09	 1.00030143E+00	 1.79955548E+02
1.76200000E+09	 1.00044455E+00	 1.79960541E+02
1.76300000E+09	 1.00028036E+00	 1.79959571E+02
1.76400000E+09	 1.00031429E+00	 1.79963216E+02
1.76500000E+09	 1.00032341E+00	 1.79965449E+02
1.76600000E+09	 1.00031149E+00	 1.79959058E+02
1.76700000E+09	 1.00027751E+00	 1.79963909E+02
1.76800000E+09	 1.00010941E+00	 1.79963779E+02
1.76900000E+09	 1.00037929E+00	 1.79962166E+02
1.77000000E+09	 1.00033872E+00	 1.79959969E+02
1.77100000E+09	 1.00024586E+00	 1.79956979E+02
1.77200000E+09	 1.00018860E+00	 1.79960099E+02
1.77300000E+09	 1.00023931E+00	 1.79964238E+02
1.77400000E+09	 1.00018578E+00	 1.79957926E+02
1.77500000E+09	 1.00023845E+00	 1.79964154E+02
1.77600000E+09	 1.00038570E+00	 1.79956153E+02
1.77700000E+09	 1.00020462E+00	 1.79962147E+02
1.77800000E+09	 1.00021861E+00	 1.79963931E+02
1.77900000E+09	 1.00033096E+00	 1.79965344E+02
1.78000000E+09	 1.00028761E+00	 1.79966604E+02
1.78100000E+09	 1.00024730E+00	 1.79964108E+02
1.78200000E+09	 1.00031278E+00	 1.79958826E+02
1.78300000E+09	 1.00016621E+00	 1.79963161E+02
1.78400000E+09	 1.00013923E+00	 1.79968095E+02
1.78500000E+09	 1.00010035E+00	 1.79962996E+02
1.78600000E+09	 1.00032604E+00	 1.79958504E+02
1.78700000E+09	 1.00006790E+00	 1.79960106E+02
1.78800000E+09	 1.00028894E+00	 1.79964818E+02
1.78900000E+09	 1.00036432E+00	 1.79958824E+02
1.79000000E+09	 1.00034990E+00	 1.79959269E+02
1.79100000E+09	 1.00047393E+00	 1.79956079E+02
1.79200000E+09	 1.00027642E+00	 1.79965529E+02
1.79300000E+09	 1.00018300E+00	 1.79954341E+02
1.79400000E+09	 1.00031879E+00	 1.79954662E+02
1.79500000E+09	 1.00035868E+00	 1.79964721E+02
1.79600000E+09	 1.00017450E+00	 1.79969610E+02
1.79700000E+09	 1.00023841E+00	 1.79969614E+02
1.79800000E+09	 1.00030927E+00	 1.79968293E+02
1.79900000E+09	 1.00022346E+00	 1.79954459E+02
1.80000000E+09	 1.00033099E+00	 1.79950186E+02
1.80100000E+09	 1.00002477E+00	 1.79960070E+02
1.80200000E+09	 1.00028667E+00	 1.79953001E+02
1.80300000E+09	 1.00020737E+00	 1.79960790E+02
1.80400000E+09	 1.00019228E+00	 1.79958274E+02
1.80500000E+09	 1.00016704E+00	 1.79963622E+02
1.80600000E+09	 1.00016062E+00	 1.79952909E+02
1.80700000E+09	 1.00028981E+00	 1.79960821E+02
1.80800000E+09	 1.00016803E+00	 1.79952391E+02
1.80900000E+09	 1.00020200E+00	 1.79956838E+02
1.81000000E+09	 1.00024371E+00	 1.79954802E+02
1.81100000E+09	 1.00028686E+00	 1.79959816E+02
1.81200000E+09	 1.00037357E+00	 1.79947888E+02
1.81300000E+09	 1.00032060E+00	 1.79954991E+02
1.81400000E+09	 1.00031319E+00	 1.79949691E+02
1.81500000E+09	 1.00030275E+00	 1.79955739E+02
1.81600000E+09	 1.00026631E+00	 1.79961093E+02
1.81700000E+09	 1.00028361E+00	 1.79960271E+02
1.81800000E+09	 1.00017127E+00	 1.79962729E+02
1.81900000E+09	 1.00019850E+00	 1.79956656E+02
1.82000000E+09	 1.00015721E+00	 1.79954018E+02
1.82100000E+09	 1.00021739E+00	 1.79953344E+02
1.82200000E+09	 1.00017704E+00	 1.79952514E+02
1.82300000E+09	 1.00019003E+00	 1.79956040E+02
1.82400000E+09	 1.00030050E+00	 1.79950569E+02
1.82500000E+09	 1.00033897E+00	 1.79948176E+02
1.82600000E+09	 1.00017287E+00	 1.79953063E+02
1.82700000E+09	 1.00020977E+00	 1.79955662E+02
1.82800000E+09	 1.00021606E+00	 1.79957948E+02
1.82900000E+09	 1.00036051E+00	 1.79955146E+02
1.83000000E+09	 1.00034708E+00	 1.79953522E+02
1.83100000E+09	 1.00034546E+00	 1.79958812E+02
1.83200000E+09	 1.00034054E+00	 1.79946937E+02
1.83300000E+09	 1.00019786E+00	 1.79953776E+02
1.83400000E+09	 1.00025580E+00	 1.79947177E+02
1.83500000E+09	 1.00016306E+00	 1.79951257E+02
1.83600000E+09	 1.00037628E+00	 1.79952451E+02
1.83700000E+09	 1.00024014E+00	 1.79948371E+02
1.83800000E+09	 1.00038314E+00	 1.79953555E+02
1.83900000E+09	 1.00032297E+00	 1.79955895E+02
1.84000000E+09	 1.00030247E+00	 1.79946773E+02
1.84100000E+09	 1.00035979E+00	 1.79946997E+02
1.84200000E+09	 1.00032528E+00	 1.79945647E+02
1.84300000E+09	 1.00034857E+00	 1.79949973E+02
1.84400000E+09	 1.00030843E+00	 1.79953026E+02
1.84500000E+09	 1.00028401E+00	 1.79947930E+02
1.84600000E+09	 1.00047526E+00	 1.79952394E+02
1.84700000E+09	 1.00044790E+00	 1.79947921E+02
1.84800000E+09	 1.00030842E+00	 1.79950742E+02
1.84900000E+09	 1.00023393E+00	 1.79954405E+02
1.85000000E+09	 1.00039114E+00	 1.79953561E+02
1.85100000E+09	 1.00049448E+00	 1.79950390E+02
1.85200000E+09	 1.00030917E+00	 1.79957226E+02
1.85300000E+09	 1.00038788E+00	 1.79954506E+02
1.85400000E+09	 1.00041841E+00	 1.79949215E+02
1.85500000E+09	 1.00041604E+00	 1.79959325E+02
1.85600000E+09	 1.00034170E+00	 1.79955459E+02
1.85700000E+09	 1.00027028E+00	 1.79951298E+02
1.85800000E+09	 1.00043629E+00	 1.79949914E+02
1.85900000E+09	 1.00039270E+00	 1.79950502E+02
1.86000000E+09	 1.00036382E+00	 1.79951678E+02
1.86100000E+09	 1.00046533E+00	 1.79954205E+02
1.86200000E+09	 1.00054111E+00	 1.79956494E+02
1.86300000E+09	 1.00062776E+00	 1.79943542E+02
1.86400000E+09	 1.00029472E+00	 1.79957405E+02
1.86500000E+09	 1.00046832E+00	 1.79955634E+02
1.86600000E+09	 1.00043885E+00	 1.79954359E+02
1.86700000E+09	 1.00034973E+00	 1.79955928E+02
1.86800000E+09	 1.00032601E+00	 1.79955567E+02
1.86900000E+09	 1.00053938E+00	 1.79957078E+02
1.87000000E+09	 1.00039542E+00	 1.79950116E+02
1.87100000E+09	 1.00052442E+00	 1.79949032E+02
1.87200000E+09	 1.00036080E+00	 1.79952435E+02
1.87300000E+09	 1.00065539E+00	 1.79946543E+02
1.87400000E+09	 1.00054816E+00	 1.79952696E+02
1.87500000E+09	 1.00048286E+00	 1.79955155E+02
1.87600000E+09	 1.00047623E+00	 1.79960202E+02
1.87700000E+09	 1.00079099E+00	 1.79952789E+02
1.87800000E+09	 1.00035833E+00	 1.79964000E+02
1.87900000E+09	 1.00052055E+00	 1.79959620E+02
1.88000000E+09	 1.00062233E+00	 1.79949809E+02
1.88100000E+09	 1.00038930E+00	 1.79959778E+02
1.88200000E+09	 1.00036372E+00	 1.79953250E+02
1.88300000E+09	 1.00061008E+00	 1.79945992E+02
1.88400000E+09	 1.00048732E+00	 1.79969602E+02
1.88500000E+09	 1.00030286E+00	 1.79955041E+02
1.88600000E+09	 1.00037109E+00	 1.79957460E+02
1.88700000E+09	 1.00050084E+00	 1.79951851E+02
1.88800000E+09	 1.00051025E+00	 1.79961408E+02
1.88900000E+09	 1.00037908E+00	 1.79953122E+02
1.89000000E+09	 1.00057074E+00	 1.79964308E+02
1.89100000E+09	 1.00051161E+00	 1.79952517E+02
1.89200000E+09	 1.00040532E+00	 1.79955768E+02
1.89300000E+09	 1.00059858E+00	 1.79958675E+02
1.89400000E+09	 1.00060336E+00	 1.79960144E+02
1.89500000E+09	 1.00029183E+00	 1.79962460E+02
1.89600000E+09	 1.00041422E+00	 1.79962659E+02
1.89700000E+09	 1.00071709E+00	 1.79963182E+02
1.89800000E+09	 1.00045190E+00	 1.79969269E+02
1.89900000E+09	 1.00048767E+00	 1.79961134E+02
1.90000000E+09	 1.00049200E+00	 1.79956644E+02
1.90100000E+09	 1.00043294E+00	 1.79960862E+02
1.90200000E+09	 1.00052089E+00	 1.79967641E+02
1.90300000E+09	 1.00054832E+00	 1.79965577E+02
1.90400000E+09	 1.00065204E+00	 1.79957333E+02
1.90500000E+09	 1.00046628E+00	 1.79961479E+02
1.90600000E+09	 1.00050506E+00	 1.79965783E+02
1.90700000E+09	 1.00052615E+00	 1.79970267E+02
1.90800000E+09	 1.00050688E+00	 1.79967219E+02
1.90900000E+09	 1.00055341E+00	 1.79969525E+02
1.91000000E+09	 1.00048055E+00	 1.79969481E+02
1.91100000E+09	 1.00043674E+00	 1.79966667E+02
1.91200000E+09	 1.00053416E+00	 1.79961901E+02
1.91300000E+09	 1.00045127E+00	 1.79955468E+02
1.91400000E+09	 1.00051003E+00	 1.79964429E+02
1.91500000E+09	 1.00043928E+00	 1.79966576E+02
1.91600000E+09	 1.00048882E+00	 1.79965921E+02
1.91700000E+09	 1.00053893E+00	 1.79966155E+02
1.91800000E+09	 1.00041249E+00	 1.79965761E+02
1.91900000E+09	 1.00055272E+00	 1.79968982E+02
1.92000000E+09	 1.00045424E+00	 1.79964417E+02
1.92100000E+09	 1.00047797E+00	 1.79963307E+02
1.92200000E+09	 1.00050040E+00	 1.79966047E+02
1.92300000E+09	 1.00038998E+00	 1.79957327E+02
1.92400000E+09	 1.00041421E+00	 1.79965300E+02
1.92500000E+09	 1.00037668E+00	 1.79961517E+02
1.92600000E+09	 1.00050234E+00	 1.79970838E+02
1.92700000E+09	 1.00040913E+00	 1.79954730E+02
1.92800000E+09	 1.00060519E+00	 1.79964192E+02
1.92900000E+09	 1.00043628E+00	 1.79970046E+02
1.93000000E+09	 1.00055707E+00	 1.79972321E+02
1.93100000E+09	 1.00034962E+00	 1.79960619E+02
1.93200000E+09	 1.00042819E+00	 1.79962969E+02
1.93300000E+09	 1.00039272E+00	 1.79961226E+02
1.93400000E+09	 1.00057094E+00	 1.79964499E+02
1.93500000E+09	 1.00039834E+00	 1.79961877E+02
1.93600000E+09	 1.00039302E+00	 1.79961781E+02
1.93700000E+09	 1.00047297E+00	 1.79969592E+02
1.93800000E+09	 1.00040625E+00	 1.79965306E+02
1.93900000E+09	 1.00040376E+00	 1.79965514E+02
1.94000000E+09	 1.00049853E+00	 1.79965968E+02
1.94100000E+09	 1.00036870E+00	 1.79971718E+02
1.94200000E+09	 1.00048427E+00	 1.79967997E+02
1.94300000E+09	 1.00040044E+00	 1.79964011E+02
1.94400000E+09	 1.00044211E+00	 1.79959080E+02
1.94500000E+09	 1.00021613E+00	 1.79968308E+02
1.94600000E+09	 1.00044218E+00	 1.79959238E+02
1.94700000E+09	 1.00034745E+00	 1.79962954E+02
1.94800000E+09	 1.00030927E+00	 1.79969805E+02
1.94900000E+09	 1.00029238E+00	 1.79975243E+02
1.95000000E+09	 1.00039234E+00	 1.79965206E+02
1.95100000E+09	 1.00027437E+00	 1.79972189E+02
1.95200000E+09	 1.00031651E+00	 1.79972007E+02
1.95300000E+09	 1.00023379E+00	 1.79969805E+02
1.95400000E+09	 1.00042621E+00	 1.79965856E+02
1.95500000E+09	 1.00021878E+00	 1.79966583E+02
1.95600000E+09	 1.00023712E+00	 1.79971642E+02
1.95700000E+09	 1.00039834E+00	 1.79970933E+02
1.95800000E+09	 1.00044378E+00	 1.79976018E+02
1.95900000E+09	 1.00025239E+00	 1.79972363E+02
1.96000000E+09	 1.00023503E+00	 1.79970532E+02
1.96100000E+09	 1.00023612E+00	 1.79972179E+02
1.96200000E+09	 1.00032396E+00	 1.79966717E+02
1.96300000E+09	 1.00029272E+00	 1.79966207E+02
1.96400000E+09	 1.00022375E+00	 1.79966488E+02
1.96500000E+09	 1.00030118E+00	 1.79963744E+02
1.96600000E+09	 1.00037124E+00	 1.79959005E+02
1.96700000E+09	 1.00028202E+00	 1.79963448E+02
1.96800000E+09	 1.00047080E+00	 1.79963501E+02
1.96900000E+09	 1.00004565E+00	 1.79974420E+02
1.97000000E+09	 1.00035412E+00	 1.79968626E+02
1.97100000E+09	 1.00032649E+00	 1.79973662E+02
1.97200000E+09	 1.00021613E+00	 1.79973328E+02
1.97300000E+09	 1.00028987E+00	 1.79967636E+02
1.97400000E+09	 1.00038206E+00	 1.79961568E+02
1.97500000E+09	 1.00021463E+00	 1.79969704E+02
1.97600000E+09	 1.00022621E+00	 1.79971813E+02
1.97700000E+09	 1.00009366E+00	 1.79970883E+02
1.97800000E+09	 1.00015091E+00	 1.79965867E+02
1.97900000E+09	 1.00002973E+00	 1.79961536E+02
1.98000000E+09	 1.00024419E+00	 1.79967241E+02
1.98100000E+09	 1.00018406E+00	 1.79964088E+02
1.98200000E+09	 1.00024081E+00	 1.79966803E+02
1.98300000E+09	 1.00022893E+00	 1.79968203E+02
1.98400000E+09	 1.00009019E+00	 1.79963763E+02
1.98500000E+09	 1.00029650E+00	 1.79960133E+02
1.98600000E+09	 1.00019326E+00	 1.79964217E+02
1.98700000E+09	 1.00008759E+00	 1.79969146E+02
1.98800000E+09	 1.00020240E+00	 1.79964090E+02
1.98900000E+09	 1.00021238E+00	 1.79963950E+02
1.99000000E+09	 1.00021965E+00	 1.79961952E+02
1.99100000E+09	 1.00021545E+00	 1.79963396E+02
1.99200000E+09	 1.00024300E+00	 1.79966188E+02
1.99300000E+09	 1.00032046E+00	 1.79963278E+02
1.99400000E+09	 1.00017287E+00	 1.79968601E+02
1.99500000E+09	 1.00027323E+00	 1.79968537E+02
1.99600000E+09	 1.00010980E+00	 1.79969875E+02
1.99700000E+09	 1.00016791E+00	 1.79973722E+02
1.99800000E+09	 1.00008470E+00	 1.79969691E+02
1.99900000E+09	 1.00024736E+00	 1.79963436E+02
2.00000000E+09	 1.00023947E+00	 1.79964052E+02
