! TOUCHSTONE file generated by CST MICROWAVE STUDIO
! Date and time: Sun Aug  2 11:31:13 2026
! Project name: Sonda-Coaxial_21mm_DisifixB_v2_Alchol - Isopropilico.cst
! Parameters = {h_recipiente=20; l_conector=50; r_arandela=35; r_ext=10.5; r_int=3; r_recipiente=100; z_recipiente=-30}
! Header version: 2018
! Port assignment regex: !\s*Touchstone port\s*([0-9]+)\s*=\s*(CST MWS port|CST DS port)\s*([0-9]+|Zmin|Zmax)\s*\(\"(.*)\"\)(\s*mode\s*([0-9]+))?.*
! Touchstone port assignment:
! Touchstone port 1 = CST MWS port 1 ("")
# GHz S RI R 50
0.001                    0.93567     -0.00565252
0.002                   0.935683      -0.0113019
0.003                   0.935703      -0.0169451
0.004                    0.93573      -0.0225791
0.005                   0.935764       -0.028201
0.006                   0.935803      -0.0338081
0.007                   0.935845      -0.0393977
0.008                   0.935889      -0.0449674
0.009                   0.935933       -0.050515
0.01                    0.935975      -0.0560386
0.011                   0.936013      -0.0615364
0.012                   0.936045      -0.0670068
0.013                   0.936069      -0.0724486
0.014                   0.936082      -0.0778608
0.015                   0.936082      -0.0832425
0.016                   0.936068      -0.0885932
0.017                   0.936036      -0.0939124
0.018                   0.935985      -0.0991999
0.019                   0.935913       -0.104456
0.02                    0.935818        -0.10968
0.021                   0.935698       -0.114873
0.022                   0.935552       -0.120035
0.023                   0.935378       -0.125166
0.024                   0.935174       -0.130267
0.025                    0.93494        -0.13534
0.026                   0.934674       -0.140383
0.027                   0.934376       -0.145399
0.028                   0.934043       -0.150387
0.029                   0.933676        -0.15535
0.03                    0.933274       -0.160286
0.031                   0.932835       -0.165198
0.032                   0.932361       -0.170086
0.033                   0.931849        -0.17495
0.034                   0.931301       -0.179792
0.035                   0.930715       -0.184613
0.036                   0.930092       -0.189412
0.037                   0.929431        -0.19419
0.038                   0.928733       -0.198949
0.039                   0.927996       -0.203689
0.04                    0.927222       -0.208409
0.041                   0.926411       -0.213112
0.042                   0.925562       -0.217797
0.043                   0.924676       -0.222465
0.044                   0.923752       -0.227116
0.045                   0.922792        -0.23175
0.046                   0.921794       -0.236368
0.047                   0.920761       -0.240971
0.048                   0.919691       -0.245558
0.049                   0.918585       -0.250129
0.05                    0.917444       -0.254686
0.051                   0.916267       -0.259228
0.052                   0.915055       -0.263755
0.053                   0.913808       -0.268267
0.054                   0.912527       -0.272765
0.055                   0.911212       -0.277249
0.056                   0.909863       -0.281719
0.057                    0.90848       -0.286174
0.058                   0.907064       -0.290616
0.059                   0.905615       -0.295043
0.06                    0.904134       -0.299457
0.061                   0.902621       -0.303856
0.062                   0.901075       -0.308241
0.063                   0.899498       -0.312613
0.064                   0.897889        -0.31697
0.065                    0.89625       -0.321313
0.066                   0.894579       -0.325642
0.067                   0.892879       -0.329956
0.068                   0.891148       -0.334256
0.069                   0.889387       -0.338542
0.07                    0.887597       -0.342814
0.071                   0.885778        -0.34707
0.072                   0.883929       -0.351313
0.073                   0.882052        -0.35554
0.074                   0.880147       -0.359752
0.075                   0.878213        -0.36395
0.076                   0.876252       -0.368132
0.077                   0.874263         -0.3723
0.078                   0.872246       -0.376452
0.079                   0.870203       -0.380588
0.08                    0.868133       -0.384709
0.081                   0.866036       -0.388814
0.082                   0.863913       -0.392904
0.083                   0.861764       -0.396977
0.084                   0.859589       -0.401035
0.085                   0.857389       -0.405076
0.086                   0.855163       -0.409101
0.087                   0.852913       -0.413109
0.088                   0.850637       -0.417101
0.089                   0.848337       -0.421076
0.09                    0.846013       -0.425034
0.091                   0.843665       -0.428975
0.092                   0.841293       -0.432899
0.093                   0.838897       -0.436805
0.094                   0.836478       -0.440695
0.095                   0.834036       -0.444566
0.096                   0.831571        -0.44842
0.097                   0.829083       -0.452257
0.098                   0.826573       -0.456075
0.099                    0.82404       -0.459875
0.1                     0.821486       -0.463657
0.101                    0.81891       -0.467421
0.102                   0.816312       -0.471166
0.103                   0.813693       -0.474893
0.104                   0.811053       -0.478601
0.105                   0.808392        -0.48229
0.106                   0.805711       -0.485961
0.107                   0.803009       -0.489612
0.108                   0.800287       -0.493244
0.109                   0.797544       -0.496857
0.11                    0.794782        -0.50045
0.111                   0.792001       -0.504024
0.112                     0.7892       -0.507579
0.113                    0.78638       -0.511113
0.114                   0.783541       -0.514628
0.115                   0.780684       -0.518123
0.116                   0.777808       -0.521598
0.117                   0.774913       -0.525053
0.118                   0.772001       -0.528487
0.119                   0.769071       -0.531901
0.12                    0.766123       -0.535295
0.121                   0.763157       -0.538669
0.122                   0.760175       -0.542021
0.123                   0.757175       -0.545353
0.124                   0.754159       -0.548665
0.125                   0.751126       -0.551955
0.126                   0.748077       -0.555224
0.127                   0.745011       -0.558472
0.128                    0.74193       -0.561699
0.129                   0.738832       -0.564906
0.13                     0.73572        -0.56809
0.131                   0.732592       -0.571253
0.132                   0.729448       -0.574396
0.133                    0.72629       -0.577516
0.134                   0.723117       -0.580614
0.135                    0.71993       -0.583692
0.136                   0.716728       -0.586748
0.137                   0.713512       -0.589781
0.138                   0.710282       -0.592793
0.139                   0.707039       -0.595783
0.14                    0.703782       -0.598751
0.141                   0.700511       -0.601697
0.142                   0.697228       -0.604621
0.143                   0.693932       -0.607523
0.144                   0.690622       -0.610403
0.145                   0.687301       -0.613261
0.146                   0.683967       -0.616096
0.147                   0.680621       -0.618909
0.148                   0.677263         -0.6217
0.149                   0.673894       -0.624468
0.15                    0.670513       -0.627214
0.151                    0.66712       -0.629938
0.152                   0.663717       -0.632638
0.153                   0.660302       -0.635317
0.154                   0.656877       -0.637973
0.155                   0.653442       -0.640606
0.156                   0.649996       -0.643217
0.157                   0.646539       -0.645805
0.158                   0.643073        -0.64837
0.159                   0.639598       -0.650913
0.16                    0.636112       -0.653433
0.161                   0.632617       -0.655931
0.162                   0.629113       -0.658405
0.163                   0.625601       -0.660857
0.164                   0.622079       -0.663286
0.165                   0.618549       -0.665692
0.166                    0.61501       -0.668076
0.167                   0.611463       -0.670436
0.168                   0.607908       -0.672774
0.169                   0.604345       -0.675089
0.17                    0.600774       -0.677382
0.171                   0.597196       -0.679651
0.172                   0.593611       -0.681898
0.173                   0.590018       -0.684122
0.174                   0.586419       -0.686323
0.175                   0.582813       -0.688501
0.176                     0.5792       -0.690657
0.177                   0.575581       -0.692789
0.178                   0.571956       -0.694899
0.179                   0.568325       -0.696986
0.18                    0.564688       -0.699051
0.181                   0.561045       -0.701092
0.182                   0.557397       -0.703111
0.183                   0.553743       -0.705107
0.184                   0.550084       -0.707081
0.185                    0.54642       -0.709032
0.186                   0.542752        -0.71096
0.187                   0.539079       -0.712866
0.188                   0.535401       -0.714749
0.189                   0.531719       -0.716609
0.19                    0.528033       -0.718447
0.191                   0.524343       -0.720263
0.192                   0.520649       -0.722055
0.193                   0.516952       -0.723826
0.194                   0.513251       -0.725574
0.195                   0.509547         -0.7273
0.196                    0.50584       -0.729003
0.197                    0.50213       -0.730684
0.198                   0.498417       -0.732343
0.199                   0.494702        -0.73398
0.2                     0.490984       -0.735594
0.201                   0.487264       -0.737186
0.202                   0.483541       -0.738756
0.203                   0.479817       -0.740305
0.204                   0.476091       -0.741831
0.205                   0.472363       -0.743335
0.206                   0.468634       -0.744817
0.207                   0.464903       -0.746278
0.208                   0.461171       -0.747716
0.209                   0.457438       -0.749133
0.21                    0.453704       -0.750528
0.211                    0.44997       -0.751902
0.212                   0.446235       -0.753254
0.213                   0.442499       -0.754584
0.214                   0.438763       -0.755893
0.215                   0.435026       -0.757181
0.216                    0.43129       -0.758447
0.217                   0.427554       -0.759692
0.218                   0.423818       -0.760915
0.219                   0.420083       -0.762118
0.22                    0.416348       -0.763299
0.221                   0.412614       -0.764459
0.222                   0.408881       -0.765599
0.223                   0.405148       -0.766717
0.224                   0.401417       -0.767815
0.225                   0.397687       -0.768892
0.226                   0.393958       -0.769948
0.227                   0.390231       -0.770984
0.228                   0.386505       -0.771999
0.229                   0.382781       -0.772993
0.23                    0.379059       -0.773967
0.231                   0.375339       -0.774921
0.232                   0.371621       -0.775855
0.233                   0.367905       -0.776768
0.234                   0.364192       -0.777661
0.235                   0.360481       -0.778534
0.236                   0.356773       -0.779388
0.237                   0.353068       -0.780221
0.238                   0.349365       -0.781035
0.239                   0.345666       -0.781828
0.24                     0.34197       -0.782603
0.241                   0.338276       -0.783357
0.242                   0.334586       -0.784093
0.243                     0.3309       -0.784808
0.244                   0.327217       -0.785505
0.245                   0.323538       -0.786182
0.246                   0.319862        -0.78684
0.247                   0.316191        -0.78748
0.248                   0.312523         -0.7881
0.249                    0.30886       -0.788701
0.25                    0.305201       -0.789284
0.251                   0.301546       -0.789847
0.252                   0.297895       -0.790393
0.253                   0.294249       -0.790919
0.254                   0.290607       -0.791428
0.255                   0.286971       -0.791917
0.256                   0.283339       -0.792389
0.257                   0.279712       -0.792843
0.258                    0.27609       -0.793278
0.259                   0.272473       -0.793695
0.26                    0.268861       -0.794095
0.261                   0.265255       -0.794477
0.262                   0.261653       -0.794841
0.263                   0.258058       -0.795187
0.264                   0.254468       -0.795516
0.265                   0.250883       -0.795827
0.266                   0.247304       -0.796122
0.267                   0.243731       -0.796398
0.268                   0.240164       -0.796658
0.269                   0.236603       -0.796901
0.27                    0.233048       -0.797127
0.271                   0.229499       -0.797335
0.272                   0.225957       -0.797528
0.273                   0.222421       -0.797703
0.274                    0.21889       -0.797862
0.275                   0.215367       -0.798004
0.276                    0.21185        -0.79813
0.277                   0.208339        -0.79824
0.278                   0.204835       -0.798333
0.279                   0.201338       -0.798411
0.28                    0.197848       -0.798472
0.281                   0.194365       -0.798518
0.282                   0.190888       -0.798547
0.283                   0.187419       -0.798561
0.284                   0.183957        -0.79856
0.285                   0.180501       -0.798543
0.286                   0.177054        -0.79851
0.287                   0.173613       -0.798462
0.288                   0.170179       -0.798399
0.289                   0.166753       -0.798321
0.29                    0.163335       -0.798228
0.291                   0.159924        -0.79812
0.292                    0.15652       -0.797997
0.293                   0.153124       -0.797859
0.294                   0.149736       -0.797707
0.295                   0.146356        -0.79754
0.296                   0.142983       -0.797358
0.297                   0.139618       -0.797163
0.298                   0.136261       -0.796953
0.299                   0.132912       -0.796729
0.3                     0.129571       -0.796491
0.301                   0.126237       -0.796238
0.302                   0.122913       -0.795973
0.303                   0.119596       -0.795693
0.304                   0.116287         -0.7954
0.305                   0.112986       -0.795093
0.306                   0.109694       -0.794772
0.307                    0.10641       -0.794439
0.308                   0.103134       -0.794091
0.309                  0.0998674       -0.793731
0.31                   0.0966084       -0.793358
0.311                   0.093358       -0.792972
0.312                  0.0901159       -0.792573
0.313                  0.0868826       -0.792161
0.314                  0.0836576       -0.791736
0.315                  0.0804415       -0.791299
0.316                  0.0772338       -0.790849
0.317                  0.0740348       -0.790387
0.318                  0.0708445       -0.789912
0.319                  0.0676628       -0.789425
0.32                   0.0644899       -0.788926
0.321                  0.0613259       -0.788415
0.322                  0.0581706       -0.787893
0.323                  0.0550241       -0.787358
0.324                  0.0518864       -0.786811
0.325                  0.0487577       -0.786253
0.326                  0.0456378       -0.785683
0.327                  0.0425271       -0.785102
0.328                  0.0394249       -0.784509
0.329                   0.036332       -0.783905
0.33                   0.0332478        -0.78329
0.331                  0.0301729       -0.782664
0.332                  0.0271068       -0.782027
0.333                  0.0240501       -0.781378
0.334                  0.0210022       -0.780719
0.335                  0.0179633       -0.780049
0.336                  0.0149338       -0.779369
0.337                   0.011913       -0.778677
0.338                 0.00890167       -0.777976
0.339                 0.00589917       -0.777264
0.34                  0.00290608       -0.776541
0.341               -7.79292e-05       -0.775808
0.342                -0.00305285       -0.775066
0.343                -0.00601829       -0.774313
0.344                -0.00897479        -0.77355
0.345                 -0.0119221       -0.772777
0.346                 -0.0148602       -0.771994
0.347                 -0.0177888       -0.771202
0.348                 -0.0207083         -0.7704
0.349                 -0.0236187       -0.769589
0.35                  -0.0265197       -0.768768
0.351                 -0.0294116       -0.767937
0.352                 -0.0322943       -0.767097
0.353                 -0.0351674       -0.766248
0.354                 -0.0380315        -0.76539
0.355                 -0.0408862       -0.764523
0.356                 -0.0437319       -0.763647
0.357                 -0.0465683       -0.762762
0.358                 -0.0493951       -0.761868
0.359                 -0.0522129       -0.760965
0.36                  -0.0550213       -0.760054
0.361                 -0.0578205       -0.759134
0.362                 -0.0606104       -0.758205
0.363                  -0.063391       -0.757269
0.364                 -0.0661624       -0.756323
0.365                 -0.0689246        -0.75537
0.366                 -0.0716775       -0.754408
0.367                 -0.0744212       -0.753438
0.368                 -0.0771555        -0.75246
0.369                 -0.0798808       -0.751474
0.37                  -0.0825967        -0.75048
0.371                 -0.0853034       -0.749478
0.372                 -0.0880009       -0.748469
0.373                 -0.0906891       -0.747452
0.374                 -0.0933682       -0.746427
0.375                  -0.096038       -0.745394
0.376                 -0.0986987       -0.744354
0.377                   -0.10135       -0.743307
0.378                  -0.103992       -0.742252
0.379                  -0.106626       -0.741191
0.38                    -0.10925       -0.740121
0.381                  -0.111864       -0.739045
0.382                   -0.11447       -0.737962
0.383                  -0.117067       -0.736871
0.384                  -0.119654       -0.735774
0.385                  -0.122233        -0.73467
0.386                  -0.124802       -0.733559
0.387                  -0.127363       -0.732441
0.388                  -0.129914       -0.731316
0.389                  -0.132456       -0.730185
0.39                   -0.134989       -0.729048
0.391                  -0.137513       -0.727904
0.392                  -0.140028       -0.726753
0.393                  -0.142534       -0.725596
0.394                  -0.145032       -0.724433
0.395                   -0.14752       -0.723263
0.396                  -0.149999       -0.722088
0.397                   -0.15247       -0.720906
0.398                  -0.154931       -0.719718
0.399                  -0.157384       -0.718524
0.4                    -0.159828       -0.717324
0.401                  -0.162262       -0.716118
0.402                  -0.164689       -0.714907
0.403                  -0.167106       -0.713689
0.404                  -0.169514       -0.712466
0.405                  -0.171914       -0.711237
0.406                  -0.174305       -0.710003
0.407                  -0.176687       -0.708763
0.408                  -0.179061       -0.707517
0.409                  -0.181425       -0.706266
0.41                   -0.183782        -0.70501
0.411                  -0.186129       -0.703748
0.412                  -0.188468       -0.702481
0.413                  -0.190798       -0.701209
0.414                   -0.19312       -0.699931
0.415                  -0.195433       -0.698649
0.416                  -0.197737       -0.697361
0.417                  -0.200033       -0.696068
0.418                  -0.202321        -0.69477
0.419                  -0.204599       -0.693468
0.42                    -0.20687        -0.69216
0.421                  -0.209132       -0.690847
0.422                  -0.211386        -0.68953
0.423                  -0.213631       -0.688208
0.424                  -0.215868       -0.686881
0.425                  -0.218096        -0.68555
0.426                  -0.220316       -0.684213
0.427                  -0.222528       -0.682873
0.428                  -0.224732       -0.681527
0.429                  -0.226927       -0.680177
0.43                   -0.229114       -0.678823
0.431                  -0.231293       -0.677464
0.432                  -0.233463       -0.676101
0.433                  -0.235625       -0.674734
0.434                   -0.23778       -0.673362
0.435                  -0.239926       -0.671986
0.436                  -0.242064       -0.670606
0.437                  -0.244194       -0.669222
0.438                  -0.246316       -0.667833
0.439                  -0.248429        -0.66644
0.44                   -0.250535       -0.665044
0.441                  -0.252633       -0.663643
0.442                  -0.254723       -0.662238
0.443                  -0.256805       -0.660829
0.444                  -0.258879       -0.659417
0.445                  -0.260945          -0.658
0.446                  -0.263003        -0.65658
0.447                  -0.265053       -0.655156
0.448                  -0.267096       -0.653728
0.449                  -0.269131       -0.652296
0.45                   -0.271158       -0.650861
0.451                  -0.273177       -0.649422
0.452                  -0.275188       -0.647979
0.453                  -0.277192       -0.646533
0.454                  -0.279188       -0.645083
0.455                  -0.281176       -0.643629
0.456                  -0.283157       -0.642172
0.457                   -0.28513       -0.640712
0.458                  -0.287096       -0.639248
0.459                  -0.289054        -0.63778
0.46                   -0.291004       -0.636309
0.461                  -0.292947       -0.634835
0.462                  -0.294882       -0.633358
0.463                   -0.29681       -0.631877
0.464                  -0.298731       -0.630393
0.465                  -0.300643       -0.628905
0.466                  -0.302549       -0.627414
0.467                  -0.304447       -0.625921
0.468                  -0.306338       -0.624423
0.469                  -0.308222       -0.622923
0.47                   -0.310098        -0.62142
0.471                  -0.311967       -0.619913
0.472                  -0.313828       -0.618404
0.473                  -0.315683       -0.616891
0.474                   -0.31753       -0.615376
0.475                   -0.31937       -0.613857
0.476                  -0.321202       -0.612335
0.477                  -0.323028        -0.61081
0.478                  -0.324846       -0.609283
0.479                  -0.326658       -0.607752
0.48                   -0.328462       -0.606219
0.481                  -0.330259       -0.604683
0.482                  -0.332049       -0.603144
0.483                  -0.333832       -0.601602
0.484                  -0.335608       -0.600057
0.485                  -0.337377       -0.598509
0.486                  -0.339139       -0.596959
0.487                  -0.340894       -0.595405
0.488                  -0.342642        -0.59385
0.489                  -0.344383       -0.592291
0.49                   -0.346117        -0.59073
0.491                  -0.347845       -0.589166
0.492                  -0.349565       -0.587599
0.493                  -0.351279        -0.58603
0.494                  -0.352986       -0.584458
0.495                  -0.354686       -0.582883
0.496                  -0.356379       -0.581306
0.497                  -0.358066       -0.579726
0.498                  -0.359746       -0.578144
0.499                  -0.361419       -0.576559
0.5                    -0.363085       -0.574971
0.501                  -0.364745       -0.573381
0.502                  -0.366398       -0.571789
0.503                  -0.368044       -0.570194
0.504                  -0.369684       -0.568597
0.505                  -0.371317       -0.566997
0.506                  -0.372944       -0.565395
0.507                  -0.374564        -0.56379
0.508                  -0.376177       -0.562183
0.509                  -0.377784       -0.560573
0.51                   -0.379384       -0.558962
0.511                  -0.380978       -0.557347
0.512                  -0.382566       -0.555731
0.513                  -0.384147       -0.554112
0.514                  -0.385721       -0.552491
0.515                  -0.387289       -0.550867
0.516                   -0.38885       -0.549241
0.517                  -0.390405       -0.547613
0.518                  -0.391954       -0.545982
0.519                  -0.393496        -0.54435
0.52                   -0.395032       -0.542715
0.521                  -0.396562       -0.541077
0.522                  -0.398085       -0.539438
0.523                  -0.399602       -0.537796
0.524                  -0.401113       -0.536152
0.525                  -0.402617       -0.534506
0.526                  -0.404115       -0.532858
0.527                  -0.405607       -0.531207
0.528                  -0.407092       -0.529554
0.529                  -0.408572         -0.5279
0.53                   -0.410045       -0.526243
0.531                  -0.411511       -0.524584
0.532                  -0.412972       -0.522922
0.533                  -0.414427       -0.521259
0.534                  -0.415875       -0.519593
0.535                  -0.417317       -0.517926
0.536                  -0.418753       -0.516256
0.537                  -0.420182       -0.514584
0.538                  -0.421606       -0.512911
0.539                  -0.423024       -0.511235
0.54                   -0.424435       -0.509557
0.541                   -0.42584       -0.507877
0.542                   -0.42724       -0.506195
0.543                  -0.428633       -0.504511
0.544                   -0.43002       -0.502825
0.545                  -0.431401       -0.501136
0.546                  -0.432776       -0.499446
0.547                  -0.434145       -0.497754
0.548                  -0.435508        -0.49606
0.549                  -0.436865       -0.494364
0.55                   -0.438216       -0.492666
0.551                  -0.439561       -0.490966
0.552                    -0.4409       -0.489264
0.553                  -0.442233        -0.48756
0.554                   -0.44356       -0.485854
0.555                  -0.444881       -0.484147
0.556                  -0.446196       -0.482437
0.557                  -0.447506       -0.480725
0.558                  -0.448809       -0.479012
0.559                  -0.450106       -0.477296
0.56                   -0.451398       -0.475579
0.561                  -0.452683        -0.47386
0.562                  -0.453963       -0.472139
0.563                  -0.455236       -0.470416
0.564                  -0.456504       -0.468691
0.565                  -0.457766       -0.466964
0.566                  -0.459022       -0.465235
0.567                  -0.460273       -0.463505
0.568                  -0.461517       -0.461773
0.569                  -0.462755       -0.460039
0.57                   -0.463988       -0.458303
0.571                  -0.465215       -0.456565
0.572                  -0.466436       -0.454826
0.573                  -0.467651       -0.453084
0.574                   -0.46886       -0.451341
0.575                  -0.470064       -0.449596
0.576                  -0.471262        -0.44785
0.577                  -0.472453       -0.446101
0.578                  -0.473639       -0.444351
0.579                   -0.47482       -0.442599
0.58                   -0.475994       -0.440845
0.581                  -0.477163        -0.43909
0.582                  -0.478326       -0.437332
0.583                  -0.479483       -0.435574
0.584                  -0.480634       -0.433813
0.585                   -0.48178        -0.43205
0.586                   -0.48292       -0.430286
0.587                  -0.484054        -0.42852
0.588                  -0.485182       -0.426753
0.589                  -0.486304       -0.424984
0.59                   -0.487421       -0.423213
0.591                  -0.488532        -0.42144
0.592                  -0.489638       -0.419666
0.593                  -0.490737        -0.41789
0.594                  -0.491831       -0.416112
0.595                  -0.492919       -0.414333
0.596                  -0.494001       -0.412552
0.597                  -0.495078        -0.41077
0.598                  -0.496148       -0.408985
0.599                  -0.497214         -0.4072
0.6                    -0.498273       -0.405412
0.601                  -0.499326       -0.403623
0.602                  -0.500374       -0.401833
0.603                  -0.501416       -0.400041
0.604                  -0.502453       -0.398247
0.605                  -0.503484       -0.396451
0.606                  -0.504509       -0.394655
0.607                  -0.505528       -0.392856
0.608                  -0.506542       -0.391056
0.609                  -0.507549       -0.389255
0.61                   -0.508552       -0.387452
0.611                  -0.509548       -0.385647
0.612                  -0.510539       -0.383841
0.613                  -0.511524       -0.382033
0.614                  -0.512503       -0.380224
0.615                  -0.513476       -0.378413
0.616                  -0.514444       -0.376601
0.617                  -0.515406       -0.374787
0.618                  -0.516363       -0.372972
0.619                  -0.517313       -0.371156
0.62                   -0.518258       -0.369338
0.621                  -0.519198       -0.367518
0.622                  -0.520131       -0.365697
0.623                  -0.521059       -0.363875
0.624                  -0.521981       -0.362051
0.625                  -0.522898       -0.360226
0.626                  -0.523808       -0.358399
0.627                  -0.524713       -0.356571
0.628                  -0.525612       -0.354742
0.629                  -0.526506       -0.352911
0.63                   -0.527394       -0.351079
0.631                  -0.528276       -0.349245
0.632                  -0.529152        -0.34741
0.633                  -0.530023       -0.345574
0.634                  -0.530888       -0.343737
0.635                  -0.531747       -0.341898
0.636                    -0.5326       -0.340058
0.637                  -0.533448       -0.338216
0.638                   -0.53429       -0.336373
0.639                  -0.535126       -0.334529
0.64                   -0.535957       -0.332684
0.641                  -0.536782       -0.330837
0.642                  -0.537601       -0.328989
0.643                  -0.538414        -0.32714
0.644                  -0.539222        -0.32529
0.645                  -0.540023       -0.323439
0.646                  -0.540819       -0.321586
0.647                   -0.54161       -0.319732
0.648                  -0.542395       -0.317876
0.649                  -0.543173        -0.31602
0.65                   -0.543947       -0.314163
0.651                  -0.544714       -0.312304
0.652                  -0.545476       -0.310444
0.653                  -0.546232       -0.308583
0.654                  -0.546982       -0.306721
0.655                  -0.547726       -0.304858
0.656                  -0.548465       -0.302993
0.657                  -0.549198       -0.301128
0.658                  -0.549925       -0.299261
0.659                  -0.550646       -0.297394
0.66                   -0.551362       -0.295525
0.661                  -0.552071       -0.293655
0.662                  -0.552775       -0.291784
0.663                  -0.553474       -0.289912
0.664                  -0.554166        -0.28804
0.665                  -0.554853       -0.286166
0.666                  -0.555534       -0.284291
0.667                  -0.556209       -0.282415
0.668                  -0.556878       -0.280538
0.669                  -0.557542       -0.278661
0.67                     -0.5582       -0.276782
0.671                  -0.558852       -0.274902
0.672                  -0.559498       -0.273022
0.673                  -0.560138        -0.27114
0.674                  -0.560773       -0.269258
0.675                  -0.561402       -0.267375
0.676                  -0.562025        -0.26549
0.677                  -0.562642       -0.263605
0.678                  -0.563254        -0.26172
0.679                  -0.563859       -0.259833
0.68                   -0.564459       -0.257945
0.681                  -0.565053       -0.256057
0.682                  -0.565641       -0.254168
0.683                  -0.566224       -0.252278
0.684                    -0.5668       -0.250388
0.685                  -0.567371       -0.248496
0.686                  -0.567936       -0.246604
0.687                  -0.568495       -0.244711
0.688                  -0.569049       -0.242817
0.689                  -0.569596       -0.240923
0.69                   -0.570138       -0.239028
0.691                  -0.570674       -0.237132
0.692                  -0.571204       -0.235236
0.693                  -0.571728       -0.233339
0.694                  -0.572246       -0.231442
0.695                  -0.572759       -0.229543
0.696                  -0.573265       -0.227645
0.697                  -0.573766       -0.225745
0.698                  -0.574261       -0.223845
0.699                   -0.57475       -0.221944
0.7                    -0.575234       -0.220043
0.701                  -0.575711       -0.218142
0.702                  -0.576183        -0.21624
0.703                  -0.576649       -0.214337
0.704                  -0.577108       -0.212434
0.705                  -0.577563        -0.21053
0.706                  -0.578011       -0.208626
0.707                  -0.578453       -0.206721
0.708                   -0.57889       -0.204816
0.709                   -0.57932       -0.202911
0.71                   -0.579745       -0.201005
0.711                  -0.580164       -0.199099
0.712                  -0.580578       -0.197192
0.713                  -0.580985       -0.195286
0.714                  -0.581386       -0.193378
0.715                  -0.581782       -0.191471
0.716                  -0.582172       -0.189563
0.717                  -0.582555       -0.187654
0.718                  -0.582933       -0.185746
0.719                  -0.583306       -0.183837
0.72                   -0.583672       -0.181928
0.721                  -0.584032       -0.180019
0.722                  -0.584387       -0.178109
0.723                  -0.584736         -0.1762
0.724                  -0.585078        -0.17429
0.725                  -0.585415        -0.17238
0.726                  -0.585747        -0.17047
0.727                  -0.586072       -0.168559
0.728                  -0.586391       -0.166649
0.729                  -0.586705       -0.164738
0.73                   -0.587012       -0.162827
0.731                  -0.587314       -0.160917
0.732                   -0.58761       -0.159006
0.733                    -0.5879       -0.157095
0.734                  -0.588185       -0.155184
0.735                  -0.588463       -0.153273
0.736                  -0.588736       -0.151362
0.737                  -0.589002       -0.149451
0.738                  -0.589263        -0.14754
0.739                  -0.589518        -0.14563
0.74                   -0.589767       -0.143719
0.741                   -0.59001       -0.141808
0.742                  -0.590248       -0.139898
0.743                  -0.590479       -0.137987
0.744                  -0.590705       -0.136077
0.745                  -0.590925       -0.134166
0.746                  -0.591139       -0.132256
0.747                  -0.591347       -0.130346
0.748                  -0.591549       -0.128437
0.749                  -0.591746       -0.126527
0.75                   -0.591936       -0.124618
0.751                  -0.592121       -0.122709
0.752                    -0.5923         -0.1208
0.753                  -0.592473       -0.118892
0.754                  -0.592641       -0.116984
0.755                  -0.592802       -0.115076
0.756                  -0.592958       -0.113168
0.757                  -0.593107       -0.111261
0.758                  -0.593251       -0.109354
0.759                   -0.59339       -0.107448
0.76                   -0.593522       -0.105542
0.761                  -0.593648       -0.103636
0.762                  -0.593769       -0.101731
0.763                  -0.593884      -0.0998258
0.764                  -0.593993      -0.0979216
0.765                  -0.594096      -0.0960177
0.766                  -0.594194      -0.0941143
0.767                  -0.594285      -0.0922113
0.768                  -0.594371      -0.0903089
0.769                  -0.594451       -0.088407
0.77                   -0.594525      -0.0865059
0.771                  -0.594594      -0.0846052
0.772                  -0.594656       -0.082705
0.773                  -0.594713      -0.0808055
0.774                  -0.594764      -0.0789067
0.775                   -0.59481      -0.0770084
0.776                  -0.594849      -0.0751109
0.777                  -0.594883      -0.0732138
0.778                  -0.594911      -0.0713175
0.779                  -0.594933       -0.069422
0.78                   -0.594949      -0.0675272
0.781                   -0.59496      -0.0656331
0.782                  -0.594965      -0.0637397
0.783                  -0.594964      -0.0618473
0.784                  -0.594958      -0.0599556
0.785                  -0.594945      -0.0580645
0.786                  -0.594927      -0.0561743
0.787                  -0.594904      -0.0542851
0.788                  -0.594874      -0.0523966
0.789                  -0.594839      -0.0505091
0.79                   -0.594798      -0.0486223
0.791                  -0.594751      -0.0467365
0.792                  -0.594699      -0.0448516
0.793                  -0.594641      -0.0429677
0.794                  -0.594577      -0.0410846
0.795                  -0.594508      -0.0392024
0.796                  -0.594432      -0.0373214
0.797                  -0.594352      -0.0354414
0.798                  -0.594265      -0.0335624
0.799                  -0.594173      -0.0316844
0.8                    -0.594075      -0.0298073
0.801                  -0.593971      -0.0279313
0.802                  -0.593862      -0.0260565
0.803                  -0.593747      -0.0241829
0.804                  -0.593627      -0.0223102
0.805                  -0.593501      -0.0204386
0.806                  -0.593369      -0.0185684
0.807                  -0.593231      -0.0166991
0.808                  -0.593088      -0.0148311
0.809                   -0.59294      -0.0129641
0.81                   -0.592785      -0.0110985
0.811                  -0.592625     -0.00923422
0.812                   -0.59246     -0.00737105
0.813                  -0.592289     -0.00550917
0.814                  -0.592112     -0.00364848
0.815                   -0.59193     -0.00178912
0.816                  -0.591742     6.89028e-05
0.817                  -0.591548       0.0019257
0.818                  -0.591349      0.00378112
0.819                  -0.591145      0.00563528
0.82                   -0.590935      0.00748791
0.821                  -0.590719      0.00933938
0.822                  -0.590498       0.0111892
0.823                  -0.590271       0.0130376
0.824                  -0.590039       0.0148849
0.825                  -0.589801       0.0167305
0.826                  -0.589558       0.0185747
0.827                  -0.589309       0.0204175
0.828                  -0.589054       0.0222588
0.829                  -0.588795       0.0240985
0.83                   -0.588529       0.0259367
0.831                  -0.588258       0.0277734
0.832                  -0.587982       0.0296088
0.833                    -0.5877       0.0314422
0.834                  -0.587413       0.0332743
0.835                  -0.587121       0.0351047
0.836                  -0.586823       0.0369337
0.837                  -0.586519       0.0387607
0.838                   -0.58621       0.0405864
0.839                  -0.585896       0.0424103
0.84                   -0.585576       0.0442326
0.841                  -0.585251       0.0460531
0.842                   -0.58492        0.047872
0.843                  -0.584584       0.0496893
0.844                  -0.584243       0.0515048
0.845                  -0.583896       0.0533184
0.846                  -0.583544       0.0551304
0.847                  -0.583186       0.0569406
0.848                  -0.582823       0.0587491
0.849                  -0.582455       0.0605557
0.85                   -0.582082       0.0623605
0.851                  -0.581703       0.0641636
0.852                  -0.581319       0.0659647
0.853                  -0.580929        0.067764
0.854                  -0.580534       0.0695615
0.855                  -0.580134       0.0713571
0.856                  -0.579729       0.0731508
0.857                  -0.579318       0.0749426
0.858                  -0.578902       0.0767325
0.859                  -0.578481       0.0785203
0.86                   -0.578054       0.0803065
0.861                  -0.577623       0.0820904
0.862                  -0.577186       0.0838725
0.863                  -0.576744       0.0856526
0.864                  -0.576296       0.0874306
0.865                  -0.575844       0.0892067
0.866                  -0.575386       0.0909806
0.867                  -0.574923       0.0927527
0.868                  -0.574454       0.0945226
0.869                  -0.573981       0.0962904
0.87                   -0.573502       0.0980562
0.871                  -0.573019       0.0998199
0.872                   -0.57253        0.101581
0.873                  -0.572036        0.103341
0.874                  -0.571537        0.105098
0.875                  -0.571032        0.106854
0.876                  -0.570523        0.108606
0.877                  -0.570008        0.110357
0.878                  -0.569489        0.112106
0.879                  -0.568964        0.113852
0.88                   -0.568434        0.115597
0.881                  -0.567899        0.117339
0.882                  -0.567359        0.119078
0.883                  -0.566814        0.120816
0.884                  -0.566264        0.122551
0.885                  -0.565709        0.124284
0.886                  -0.565149        0.126015
0.887                  -0.564584        0.127743
0.888                  -0.564013        0.129469
0.889                  -0.563438        0.131193
0.89                   -0.562858        0.132915
0.891                  -0.562273        0.134634
0.892                  -0.561683        0.136351
0.893                  -0.561087        0.138065
0.894                  -0.560487        0.139777
0.895                  -0.559882        0.141487
0.896                  -0.559272        0.143194
0.897                  -0.558657        0.144898
0.898                  -0.558038        0.146601
0.899                  -0.557413        0.148301
0.9                    -0.556783        0.149998
0.901                  -0.556149        0.151693
0.902                  -0.555509        0.153386
0.903                  -0.554865        0.155076
0.904                  -0.554216        0.156763
0.905                  -0.553562        0.158448
0.906                  -0.552903        0.160131
0.907                  -0.552239        0.161811
0.908                   -0.55157        0.163488
0.909                  -0.550897        0.165163
0.91                   -0.550219        0.166835
0.911                  -0.549536        0.168505
0.912                  -0.548848        0.170172
0.913                  -0.548155        0.171836
0.914                  -0.547458        0.173498
0.915                  -0.546756        0.175157
0.916                  -0.546049        0.176814
0.917                  -0.545337        0.178468
0.918                  -0.544621        0.180119
0.919                    -0.5439        0.181768
0.92                   -0.543174        0.183414
0.921                  -0.542443        0.185057
0.922                  -0.541708        0.186698
0.923                  -0.540968        0.188336
0.924                  -0.540223        0.189971
0.925                  -0.539474        0.191603
0.926                   -0.53872        0.193233
0.927                  -0.537961         0.19486
0.928                  -0.537198        0.196484
0.929                   -0.53643        0.198105
0.93                   -0.535658        0.199724
0.931                  -0.534881         0.20134
0.932                  -0.534099        0.202953
0.933                  -0.533312        0.204563
0.934                  -0.532521         0.20617
0.935                  -0.531726        0.207775
0.936                  -0.530926        0.209376
0.937                  -0.530121        0.210975
0.938                  -0.529312        0.212571
0.939                  -0.528498        0.214164
0.94                    -0.52768        0.215754
0.941                  -0.526857        0.217341
0.942                   -0.52603        0.218926
0.943                  -0.525198        0.220507
0.944                  -0.524361        0.222086
0.945                   -0.52352        0.223661
0.946                  -0.522675        0.225234
0.947                  -0.521825        0.226803
0.948                  -0.520971         0.22837
0.949                  -0.520112        0.229934
0.95                   -0.519249        0.231495
0.951                  -0.518381        0.233052
0.952                  -0.517509        0.234607
0.953                  -0.516633        0.236159
0.954                  -0.515752        0.237707
0.955                  -0.514867        0.239253
0.956                  -0.513977        0.240796
0.957                  -0.513083        0.242335
0.958                  -0.512185        0.243872
0.959                  -0.511282        0.245405
0.96                   -0.510375        0.246935
0.961                  -0.509463        0.248462
0.962                  -0.508547        0.249986
0.963                  -0.507627        0.251507
0.964                  -0.506703        0.253025
0.965                  -0.505774         0.25454
0.966                  -0.504841        0.256052
0.967                  -0.503904         0.25756
0.968                  -0.502962        0.259065
0.969                  -0.502016        0.260567
0.97                   -0.501066        0.262066
0.971                  -0.500112        0.263562
0.972                  -0.499153        0.265054
0.973                   -0.49819        0.266544
0.974                  -0.497223         0.26803
0.975                  -0.496252        0.269513
0.976                  -0.495276        0.270992
0.977                  -0.494296        0.272469
0.978                  -0.493312        0.273942
0.979                  -0.492324        0.275412
0.98                   -0.491332        0.276878
0.981                  -0.490335        0.278341
0.982                  -0.489335        0.279802
0.983                   -0.48833        0.281258
0.984                  -0.487321        0.282712
0.985                  -0.486308        0.284162
0.986                  -0.485291        0.285608
0.987                   -0.48427        0.287052
0.988                  -0.483244        0.288492
0.989                  -0.482215        0.289929
0.99                   -0.481181        0.291362
0.991                  -0.480144        0.292792
0.992                  -0.479102        0.294218
0.993                  -0.478056        0.295642
0.994                  -0.477006        0.297061
0.995                  -0.475953        0.298478
0.996                  -0.474895        0.299891
0.997                  -0.473833          0.3013
0.998                  -0.472767        0.302706
0.999                  -0.471697        0.304109
1                      -0.470623        0.305508
1.001                  -0.469545        0.306903
1.002                  -0.468463        0.308296
1.003                  -0.467377        0.309684
1.004                  -0.466288         0.31107
1.005                  -0.465194        0.312451
1.006                  -0.464096         0.31383
1.007                  -0.462995        0.315204
1.008                  -0.461889        0.316575
1.009                   -0.46078        0.317943
1.01                   -0.459666        0.319307
1.011                  -0.458549        0.320668
1.012                  -0.457428        0.322025
1.013                  -0.456303        0.323378
1.014                  -0.455174        0.324728
1.015                  -0.454041        0.326074
1.016                  -0.452904        0.327417
1.017                  -0.451764        0.328755
1.018                  -0.450619        0.330091
1.019                  -0.449471        0.331423
1.02                   -0.448319        0.332751
1.021                  -0.447163        0.334075
1.022                  -0.446004        0.335396
1.023                   -0.44484        0.336713
1.024                  -0.443673        0.338026
1.025                  -0.442502        0.339336
1.026                  -0.441328        0.340642
1.027                  -0.440149        0.341944
1.028                  -0.438967        0.343243
1.029                  -0.437781        0.344538
1.03                   -0.436591        0.345829
1.031                  -0.435398        0.347116
1.032                  -0.434201          0.3484
1.033                     -0.433         0.34968
1.034                  -0.431795        0.350956
1.035                  -0.430587        0.352229
1.036                  -0.429375        0.353497
1.037                  -0.428159        0.354762
1.038                   -0.42694        0.356023
1.039                  -0.425717         0.35728
1.04                   -0.424491        0.358533
1.041                   -0.42326        0.359783
1.042                  -0.422027        0.361028
1.043                  -0.420789         0.36227
1.044                  -0.419548        0.363508
1.045                  -0.418304        0.364742
1.046                  -0.417055        0.365972
1.047                  -0.415804        0.367199
1.048                  -0.414548        0.368421
1.049                  -0.413289        0.369639
1.05                   -0.412027        0.370854
1.051                  -0.410761        0.372065
1.052                  -0.409491        0.373271
1.053                  -0.408218        0.374474
1.054                  -0.406941        0.375673
1.055                  -0.405661        0.376867
1.056                  -0.404378        0.378058
1.057                  -0.403091        0.379245
1.058                    -0.4018        0.380428
1.059                  -0.400506        0.381607
1.06                   -0.399209        0.382782
1.061                  -0.397908        0.383952
1.062                  -0.396603        0.385119
1.063                  -0.395295        0.386282
1.064                  -0.393984        0.387441
1.065                  -0.392669        0.388595
1.066                  -0.391351        0.389746
1.067                   -0.39003        0.390892
1.068                  -0.388705        0.392035
1.069                  -0.387377        0.393173
1.07                   -0.386045        0.394307
1.071                   -0.38471        0.395437
1.072                  -0.383372        0.396563
1.073                   -0.38203        0.397685
1.074                  -0.380685        0.398802
1.075                  -0.379337        0.399916
1.076                  -0.377985        0.401025
1.077                   -0.37663         0.40213
1.078                  -0.375272        0.403231
1.079                   -0.37391        0.404328
1.08                   -0.372546        0.405421
1.081                  -0.371178        0.406509
1.082                  -0.369806        0.407593
1.083                  -0.368432        0.408673
1.084                  -0.367054        0.409748
1.085                  -0.365673         0.41082
1.086                  -0.364289        0.411887
1.087                  -0.362902         0.41295
1.088                  -0.361511        0.414008
1.089                  -0.360117        0.415062
1.09                    -0.35872        0.416112
1.091                   -0.35732        0.417158
1.092                  -0.355917        0.418199
1.093                  -0.354511        0.419236
1.094                  -0.353101        0.420269
1.095                  -0.351688        0.421297
1.096                  -0.350273        0.422321
1.097                  -0.348854         0.42334
1.098                  -0.347432        0.424355
1.099                  -0.346007        0.425366
1.1                    -0.344579        0.426372
1.101                  -0.343148        0.427374
1.102                  -0.341713        0.428372
1.103                  -0.340276        0.429365
1.104                  -0.338836        0.430353
1.105                  -0.337393        0.431338
1.106                  -0.335946        0.432317
1.107                  -0.334497        0.433292
1.108                  -0.333045        0.434263
1.109                   -0.33159        0.435229
1.11                   -0.330132        0.436191
1.111                   -0.32867        0.437148
1.112                  -0.327206        0.438101
1.113                  -0.325739        0.439049
1.114                  -0.324269        0.439993
1.115                  -0.322797        0.440932
1.116                  -0.321321        0.441866
1.117                  -0.319842        0.442796
1.118                  -0.318361        0.443721
1.119                  -0.316877        0.444642
1.12                    -0.31539        0.445558
1.121                  -0.313899         0.44647
1.122                  -0.312407        0.447377
1.123                  -0.310911        0.448279
1.124                  -0.309413        0.449176
1.125                  -0.307911        0.450069
1.126                  -0.306407        0.450958
1.127                  -0.304901        0.451841
1.128                  -0.303391         0.45272
1.129                  -0.301879        0.453594
1.13                   -0.300364        0.454464
1.131                  -0.298846        0.455329
1.132                  -0.297326        0.456189
1.133                  -0.295803        0.457044
1.134                  -0.294277        0.457895
1.135                  -0.292749         0.45874
1.136                  -0.291217        0.459582
1.137                  -0.289684        0.460418
1.138                  -0.288147        0.461249
1.139                  -0.286608        0.462076
1.14                   -0.285067        0.462898
1.141                  -0.283522        0.463715
1.142                  -0.281976        0.464527
1.143                  -0.280426        0.465335
1.144                  -0.278874        0.466137
1.145                   -0.27732        0.466935
1.146                  -0.275763        0.467728
1.147                  -0.274203        0.468516
1.148                  -0.272642        0.469299
1.149                  -0.271077        0.470077
1.15                    -0.26951        0.470851
1.151                  -0.267941        0.471619
1.152                  -0.266369        0.472383
1.153                  -0.264795        0.473141
1.154                  -0.263218        0.473895
1.155                  -0.261639        0.474644
1.156                  -0.260057        0.475387
1.157                  -0.258473        0.476126
1.158                  -0.256887         0.47686
1.159                  -0.255298        0.477589
1.16                   -0.253707        0.478312
1.161                  -0.252114        0.479031
1.162                  -0.250518        0.479745
1.163                  -0.248921        0.480453
1.164                   -0.24732        0.481157
1.165                  -0.245718        0.481856
1.166                  -0.244113        0.482549
1.167                  -0.242506        0.483238
1.168                  -0.240897        0.483921
1.169                  -0.239285          0.4846
1.17                   -0.237672        0.485273
1.171                  -0.236056        0.485941
1.172                  -0.234438        0.486604
1.173                  -0.232818        0.487262
1.174                  -0.231196        0.487915
1.175                  -0.229571        0.488562
1.176                  -0.227945        0.489205
1.177                  -0.226316        0.489842
1.178                  -0.224686        0.490474
1.179                  -0.223053        0.491101
1.18                   -0.221418        0.491723
1.181                  -0.219781         0.49234
1.182                  -0.218142        0.492951
1.183                  -0.216501        0.493557
1.184                  -0.214858        0.494158
1.185                  -0.213214        0.494754
1.186                  -0.211567        0.495344
1.187                  -0.209918         0.49593
1.188                  -0.208268         0.49651
1.189                  -0.206615        0.497084
1.19                   -0.204961        0.497654
1.191                  -0.203304        0.498218
1.192                  -0.201646        0.498777
1.193                  -0.199986         0.49933
1.194                  -0.198324        0.499879
1.195                   -0.19666        0.500422
1.196                  -0.194995        0.500959
1.197                  -0.193328        0.501492
1.198                  -0.191659        0.502019
1.199                  -0.189988         0.50254
1.2                    -0.188315        0.503056
1.201                  -0.186641        0.503567
1.202                  -0.184965        0.504073
1.203                  -0.183287        0.504573
1.204                  -0.181608        0.505068
1.205                  -0.179927        0.505557
1.206                  -0.178245        0.506041
1.207                   -0.17656         0.50652
1.208                  -0.174875        0.506993
1.209                  -0.173187         0.50746
1.21                   -0.171498        0.507923
1.211                  -0.169808        0.508379
1.212                  -0.168116        0.508831
1.213                  -0.166422        0.509277
1.214                  -0.164727        0.509717
1.215                  -0.163031        0.510152
1.216                  -0.161333        0.510582
1.217                  -0.159633        0.511006
1.218                  -0.157932        0.511424
1.219                   -0.15623        0.511837
1.22                   -0.154526        0.512245
1.221                  -0.152821        0.512646
1.222                  -0.151115        0.513043
1.223                  -0.149407        0.513434
1.224                  -0.147698        0.513819
1.225                  -0.145988        0.514199
1.226                  -0.144276        0.514573
1.227                  -0.142563        0.514942
1.228                  -0.140849        0.515305
1.229                  -0.139134        0.515663
1.23                   -0.137417        0.516015
1.231                  -0.135699        0.516361
1.232                   -0.13398        0.516702
1.233                   -0.13226        0.517038
1.234                  -0.130539        0.517367
1.235                  -0.128816        0.517691
1.236                  -0.127093         0.51801
1.237                  -0.125368        0.518323
1.238                  -0.123643         0.51863
1.239                  -0.121916        0.518931
1.24                   -0.120188        0.519227
1.241                   -0.11846        0.519518
1.242                   -0.11673        0.519802
1.243                  -0.114999        0.520081
1.244                  -0.113267        0.520355
1.245                  -0.111535        0.520623
1.246                  -0.109801        0.520885
1.247                  -0.108067        0.521141
1.248                  -0.106332        0.521392
1.249                  -0.104596        0.521637
1.25                   -0.102859        0.521876
1.251                  -0.101121         0.52211
1.252                 -0.0993824        0.522338
1.253                 -0.0976429         0.52256
1.254                 -0.0959029        0.522776
1.255                 -0.0941619        0.522987
1.256                 -0.0924202        0.523192
1.257                  -0.090678        0.523392
1.258                 -0.0889351        0.523586
1.259                 -0.0871915        0.523774
1.26                  -0.0854471        0.523956
1.261                 -0.0837023        0.524132
1.262                 -0.0819567        0.524303
1.263                 -0.0802107        0.524468
1.264                  -0.078464        0.524627
1.265                 -0.0767168        0.524781
1.266                  -0.074969        0.524929
1.267                 -0.0732209        0.525071
1.268                 -0.0714722        0.525207
1.269                 -0.0697228        0.525337
1.27                  -0.0679732        0.525462
1.271                 -0.0662232        0.525581
1.272                 -0.0644727        0.525694
1.273                  -0.062722        0.525802
1.274                 -0.0609707        0.525903
1.275                 -0.0592191        0.525999
1.276                 -0.0574672        0.526089
1.277                 -0.0557149        0.526174
1.278                 -0.0539625        0.526252
1.279                 -0.0522098        0.526325
1.28                  -0.0504568        0.526392
1.281                 -0.0487037        0.526453
1.282                   -0.04695        0.526509
1.283                 -0.0451965        0.526558
1.284                 -0.0434428        0.526602
1.285                 -0.0416886         0.52664
1.286                 -0.0399346        0.526672
1.287                 -0.0381805        0.526698
1.288                 -0.0364264        0.526719
1.289                 -0.0346723        0.526734
1.29                  -0.0329177        0.526743
1.291                 -0.0311634        0.526746
1.292                 -0.0294091        0.526743
1.293                 -0.0276546        0.526735
1.294                 -0.0259005        0.526721
1.295                 -0.0241465          0.5267
1.296                 -0.0223921        0.526675
1.297                 -0.0206381        0.526643
1.298                  -0.018884        0.526605
1.299                 -0.0171304        0.526562
1.3                   -0.0153769        0.526513
1.301                 -0.0136234        0.526458
1.302                 -0.0118702        0.526397
1.303                 -0.0101172        0.526331
1.304                -0.00836453        0.526258
1.305                -0.00661189         0.52618
1.306                 -0.0048598        0.526096
1.307                -0.00310781        0.526006
1.308                -0.00135617         0.52591
1.309                0.000394843        0.525809
1.31                  0.00214571        0.525702
1.311                 0.00389616        0.525589
1.312                 0.00564619         0.52547
1.313                   0.007396        0.525345
1.314                 0.00914485        0.525215
1.315                  0.0108937        0.525078
1.316                  0.0126418        0.524936
1.317                  0.0143896        0.524788
1.318                  0.0161369        0.524635
1.319                  0.0178833        0.524475
1.32                   0.0196292         0.52431
1.321                  0.0213747        0.524139
1.322                  0.0231193        0.523962
1.323                  0.0248638        0.523779
1.324                  0.0266074         0.52359
1.325                    0.02835        0.523396
1.326                  0.0300922        0.523196
1.327                  0.0318337         0.52299
1.328                  0.0335742        0.522779
1.329                  0.0353141        0.522561
1.33                   0.0370533        0.522338
1.331                  0.0387914        0.522109
1.332                  0.0405293        0.521874
1.333                   0.042266        0.521634
1.334                  0.0440019        0.521388
1.335                  0.0457366        0.521136
1.336                  0.0474707        0.520878
1.337                  0.0492039        0.520614
1.338                  0.0509359        0.520345
1.339                  0.0526672         0.52007
1.34                   0.0543971        0.519789
1.341                  0.0561264        0.519503
1.342                  0.0578548        0.519211
1.343                  0.0595818        0.518913
1.344                  0.0613078        0.518609
1.345                   0.063033        0.518299
1.346                  0.0647567        0.517984
1.347                  0.0664797        0.517663
1.348                  0.0682011        0.517337
1.349                  0.0699216        0.517005
1.35                   0.0716409        0.516666
1.351                  0.0733588        0.516323
1.352                  0.0750758        0.515973
1.353                  0.0767913        0.515618
1.354                  0.0785058        0.515258
1.355                  0.0802186        0.514891
1.356                  0.0819305        0.514519
1.357                  0.0836407        0.514141
1.358                  0.0853501        0.513758
1.359                  0.0870577        0.513369
1.36                   0.0887641        0.512974
1.361                   0.090469        0.512573
1.362                  0.0921722        0.512167
1.363                  0.0938745        0.511756
1.364                  0.0955749        0.511338
1.365                  0.0972743        0.510915
1.366                  0.0989718        0.510487
1.367                   0.100668        0.510053
1.368                   0.102362        0.509613
1.369                   0.104055        0.509168
1.37                    0.105747        0.508717
1.371                   0.107436         0.50826
1.372                   0.109125        0.507798
1.373                   0.110812         0.50733
1.374                   0.112496        0.506857
1.375                    0.11418        0.506378
1.376                   0.115861        0.505894
1.377                   0.117541        0.505404
1.378                   0.119219        0.504908
1.379                   0.120895        0.504407
1.38                     0.12257        0.503901
1.381                   0.124243        0.503388
1.382                   0.125914        0.502871
1.383                   0.127583        0.502348
1.384                    0.12925        0.501819
1.385                   0.130916        0.501285
1.386                   0.132579        0.500745
1.387                   0.134241          0.5002
1.388                   0.135901         0.49965
1.389                   0.137559        0.499094
1.39                    0.139215        0.498532
1.391                   0.140868        0.497966
1.392                    0.14252        0.497393
1.393                    0.14417        0.496815
1.394                   0.145818        0.496232
1.395                   0.147464        0.495644
1.396                   0.149107         0.49505
1.397                   0.150749         0.49445
1.398                   0.152389        0.493845
1.399                   0.154026        0.493235
1.4                     0.155662         0.49262
1.401                   0.157295        0.491999
1.402                   0.158926        0.491373
1.403                   0.160554        0.490741
1.404                   0.162181        0.490104
1.405                   0.163806        0.489462
1.406                   0.165428        0.488814
1.407                   0.167048        0.488161
1.408                   0.168665        0.487503
1.409                   0.170281         0.48684
1.41                    0.171894        0.486171
1.411                   0.173504        0.485497
1.412                   0.175113        0.484817
1.413                   0.176719        0.484133
1.414                   0.178322        0.483443
1.415                   0.179923        0.482748
1.416                   0.181522        0.482048
1.417                   0.183119        0.481342
1.418                   0.184712        0.480631
1.419                   0.186304        0.479916
1.42                    0.187893        0.479194
1.421                    0.18948        0.478468
1.422                   0.191064        0.477737
1.423                   0.192645           0.477
1.424                   0.194224        0.476258
1.425                     0.1958        0.475511
1.426                   0.197374        0.474759
1.427                   0.198945        0.474002
1.428                   0.200514         0.47324
1.429                    0.20208        0.472472
1.43                    0.203643          0.4717
1.431                   0.205204        0.470922
1.432                   0.206762         0.47014
1.433                   0.208317        0.469352
1.434                    0.20987        0.468559
1.435                    0.21142        0.467761
1.436                   0.212967        0.466958
1.437                   0.214511        0.466151
1.438                   0.216053        0.465338
1.439                   0.217591         0.46452
1.44                    0.219127        0.463697
1.441                   0.220661        0.462869
1.442                   0.222191        0.462036
1.443                   0.223719        0.461199
1.444                   0.225243        0.460356
1.445                   0.226765        0.459508
1.446                   0.228284        0.458656
1.447                     0.2298        0.457798
1.448                   0.231313        0.456936
1.449                   0.232823        0.456068
1.45                    0.234331        0.455196
1.451                   0.235835        0.454319
1.452                   0.237336        0.453437
1.453                   0.238834         0.45255
1.454                    0.24033        0.451659
1.455                   0.241822        0.450762
1.456                   0.243311        0.449861
1.457                   0.244797        0.448955
1.458                    0.24628        0.448044
1.459                    0.24776        0.447129
1.46                    0.249237        0.446208
1.461                   0.250711        0.445283
1.462                   0.252182        0.444353
1.463                    0.25365        0.443418
1.464                   0.255114        0.442479
1.465                   0.256575        0.441535
1.466                   0.258033        0.440586
1.467                   0.259488        0.439632
1.468                    0.26094        0.438674
1.469                   0.262388        0.437711
1.47                    0.263834        0.436744
1.471                   0.265276        0.435772
1.472                   0.266714        0.434795
1.473                    0.26815        0.433813
1.474                   0.269582        0.432827
1.475                   0.271011        0.431836
1.476                   0.272436        0.430841
1.477                   0.273859        0.429841
1.478                   0.275277        0.428837
1.479                   0.276693        0.427828
1.48                    0.278105        0.426814
1.481                   0.279514        0.425796
1.482                    0.28092        0.424773
1.483                   0.282321        0.423746
1.484                    0.28372        0.422715
1.485                   0.285115        0.421678
1.486                   0.286507        0.420638
1.487                   0.287895        0.419593
1.488                    0.28928        0.418543
1.489                   0.290661        0.417489
1.49                    0.292039        0.416431
1.491                   0.293413        0.415368
1.492                   0.294784          0.4143
1.493                   0.296151        0.413229
1.494                   0.297515        0.412153
1.495                   0.298875        0.411072
1.496                   0.300232        0.409987
1.497                   0.301585        0.408898
1.498                   0.302934        0.407805
1.499                    0.30428        0.406707
1.5                     0.305622        0.405605
1.501                   0.306961        0.404498
1.502                   0.308296        0.403387
1.503                   0.309627        0.402272
1.504                   0.310955        0.401153
1.505                   0.312279         0.40003
1.506                   0.313599        0.398902
1.507                   0.314915         0.39777
1.508                   0.316228        0.396633
1.509                   0.317537        0.395493
1.51                    0.318843        0.394348
1.511                   0.320144        0.393199
1.512                   0.321442        0.392046
1.513                   0.322736        0.390889
1.514                   0.324026        0.389727
1.515                   0.325313        0.388562
1.516                   0.326595        0.387392
1.517                   0.327874        0.386218
1.518                   0.329149         0.38504
1.519                   0.330421        0.383858
1.52                    0.331688        0.382672
1.521                   0.332951        0.381482
1.522                   0.334211        0.380288
1.523                   0.335467        0.379089
1.524                   0.336718        0.377887
1.525                   0.337966         0.37668
1.526                    0.33921         0.37547
1.527                    0.34045        0.374256
1.528                   0.341687        0.373037
1.529                   0.342919        0.371815
1.53                    0.344147        0.370588
1.531                   0.345371        0.369358
1.532                   0.346591        0.368124
1.533                   0.347807        0.366885
1.534                    0.34902        0.365643
1.535                   0.350228        0.364397
1.536                   0.351432        0.363147
1.537                   0.352632        0.361893
1.538                   0.353828        0.360636
1.539                    0.35502        0.359374
1.54                    0.356208        0.358108
1.541                   0.357392        0.356839
1.542                   0.358571        0.355566
1.543                   0.359747        0.354289
1.544                   0.360919        0.353008
1.545                   0.362086        0.351724
1.546                   0.363249        0.350435
1.547                   0.364408        0.349143
1.548                   0.365563        0.347847
1.549                   0.366714        0.346548
1.55                     0.36786        0.345244
1.551                   0.369003        0.343937
1.552                   0.370141        0.342626
1.553                   0.371275        0.341312
1.554                   0.372404        0.339994
1.555                    0.37353        0.338672
1.556                   0.374651        0.337346
1.557                   0.375768        0.336017
1.558                   0.376881        0.334684
1.559                   0.377989        0.333347
1.56                    0.379093        0.332007
1.561                   0.380193        0.330663
1.562                   0.381288        0.329316
1.563                   0.382379        0.327965
1.564                   0.383466        0.326611
1.565                   0.384548        0.325253
1.566                   0.385627        0.323891
1.567                     0.3867        0.322526
1.568                    0.38777        0.321157
1.569                   0.388835        0.319785
1.57                    0.389895        0.318409
1.571                   0.390951         0.31703
1.572                   0.392003        0.315647
1.573                    0.39305        0.314261
1.574                   0.394093        0.312871
1.575                   0.395131        0.311478
1.576                   0.396165        0.310082
1.577                   0.397195        0.308682
1.578                    0.39822        0.307278
1.579                    0.39924        0.305872
1.58                    0.400256        0.304461
1.581                   0.401267        0.303048
1.582                   0.402274        0.301631
1.583                   0.403277        0.300211
1.584                   0.404274        0.298787
1.585                   0.405268         0.29736
1.586                   0.406256         0.29593
1.587                    0.40724        0.294497
1.588                    0.40822         0.29306
1.589                   0.409195         0.29162
1.59                    0.410165        0.290176
1.591                   0.411131         0.28873
1.592                   0.412092         0.28728
1.593                   0.413048        0.285827
1.594                      0.414         0.28437
1.595                   0.414947        0.282911
1.596                   0.415889        0.281448
1.597                   0.416827        0.279982
1.598                   0.417759        0.278513
1.599                   0.418688        0.277041
1.6                     0.419611        0.275566
1.601                    0.42053        0.274087
1.602                   0.421444        0.272606
1.603                   0.422353        0.271121
1.604                   0.423258        0.269633
1.605                   0.424157        0.268142
1.606                   0.425052        0.266648
1.607                   0.425942        0.265151
1.608                   0.426828        0.263651
1.609                   0.427708        0.262148
1.61                    0.428584        0.260642
1.611                   0.429455        0.259133
1.612                   0.430321        0.257621
1.613                   0.431182        0.256106
1.614                   0.432038        0.254587
1.615                   0.432889        0.253066
1.616                   0.433736        0.251542
1.617                   0.434577        0.250016
1.618                   0.435414        0.248486
1.619                   0.436246        0.246953
1.62                    0.437072        0.245417
1.621                   0.437894        0.243879
1.622                   0.438711        0.242338
1.623                   0.439523        0.240793
1.624                   0.440329        0.239246
1.625                   0.441131        0.237696
1.626                   0.441928        0.236144
1.627                    0.44272        0.234588
1.628                   0.443507         0.23303
1.629                   0.444288        0.231469
1.63                    0.445065        0.229905
1.631                   0.445837        0.228339
1.632                   0.446603        0.226769
1.633                   0.447365        0.225197
1.634                   0.448121        0.223623
1.635                   0.448872        0.222045
1.636                   0.449618        0.220465
1.637                   0.450359        0.218883
1.638                   0.451095        0.217297
1.639                   0.451826        0.215709
1.64                    0.452551        0.214119
1.641                   0.453272        0.212526
1.642                   0.453987         0.21093
1.643                   0.454697        0.209331
1.644                   0.455402         0.20773
1.645                   0.456101        0.206127
1.646                   0.456795        0.204521
1.647                   0.457484        0.202912
1.648                   0.458168        0.201301
1.649                   0.458847        0.199688
1.65                     0.45952        0.198072
1.651                   0.460188        0.196454
1.652                   0.460851        0.194833
1.653                   0.461508        0.193209
1.654                    0.46216        0.191584
1.655                   0.462807        0.189955
1.656                   0.463448        0.188325
1.657                   0.464084        0.186692
1.658                   0.464715        0.185057
1.659                    0.46534        0.183419
1.66                     0.46596        0.181779
1.661                   0.466574        0.180137
1.662                   0.467183        0.178493
1.663                   0.467787        0.176846
1.664                   0.468385        0.175197
1.665                   0.468978        0.173546
1.666                   0.469565        0.171892
1.667                   0.470147        0.170237
1.668                   0.470723        0.168579
1.669                   0.471294        0.166919
1.67                    0.471859        0.165257
1.671                   0.472419        0.163592
1.672                   0.472973        0.161926
1.673                   0.473522        0.160257
1.674                   0.474065        0.158586
1.675                   0.474603        0.156914
1.676                   0.475135        0.155239
1.677                   0.475662        0.153562
1.678                   0.476183        0.151883
1.679                   0.476698        0.150202
1.68                    0.477208        0.148519
1.681                   0.477712        0.146834
1.682                    0.47821        0.145148
1.683                   0.478703        0.143459
1.684                    0.47919        0.141768
1.685                   0.479672        0.140076
1.686                   0.480147        0.138381
1.687                   0.480618        0.136685
1.688                   0.481082        0.134987
1.689                   0.481541        0.133287
1.69                    0.481994        0.131585
1.691                   0.482441        0.129881
1.692                   0.482882        0.128176
1.693                   0.483318        0.126469
1.694                   0.483748         0.12476
1.695                   0.484173        0.123049
1.696                   0.484591        0.121337
1.697                   0.485004        0.119623
1.698                   0.485411        0.117907
1.699                   0.485812         0.11619
1.7                     0.486207        0.114471
1.701                   0.486596         0.11275
1.702                    0.48698        0.111028
1.703                   0.487358        0.109304
1.704                   0.487729        0.107579
1.705                   0.488095        0.105852
1.706                   0.488455        0.104124
1.707                    0.48881        0.102394
1.708                   0.489158        0.100663
1.709                     0.4895       0.0989305
1.71                    0.489837       0.0971963
1.711                   0.490167       0.0954608
1.712                   0.490492       0.0937239
1.713                   0.490811       0.0919856
1.714                   0.491123        0.090246
1.715                    0.49143       0.0885051
1.716                   0.491731       0.0867628
1.717                   0.492025       0.0850193
1.718                   0.492314       0.0832745
1.719                   0.492597       0.0815284
1.72                    0.492874       0.0797812
1.721                   0.493144       0.0780327
1.722                   0.493409       0.0762831
1.723                   0.493667       0.0745323
1.724                    0.49392       0.0727804
1.725                   0.494167       0.0710274
1.726                   0.494407       0.0692733
1.727                   0.494641       0.0675181
1.728                    0.49487       0.0657618
1.729                   0.495092       0.0640046
1.73                    0.495308       0.0622463
1.731                   0.495518       0.0604871
1.732                   0.495722       0.0587269
1.733                   0.495919       0.0569658
1.734                   0.496111       0.0552038
1.735                   0.496296       0.0534409
1.736                   0.496476       0.0516771
1.737                   0.496649       0.0499125
1.738                   0.496816        0.048147
1.739                   0.496977       0.0463808
1.74                    0.497131       0.0446138
1.741                    0.49728       0.0428461
1.742                   0.497422       0.0410776
1.743                   0.497558       0.0393084
1.744                   0.497688       0.0375386
1.745                   0.497811       0.0357681
1.746                   0.497929       0.0339969
1.747                    0.49804       0.0322252
1.748                   0.498145       0.0304529
1.749                   0.498243         0.02868
1.75                    0.498336       0.0269066
1.751                   0.498422       0.0251327
1.752                   0.498502       0.0233583
1.753                   0.498576       0.0215835
1.754                   0.498643       0.0198082
1.755                   0.498704       0.0180325
1.756                   0.498759       0.0162564
1.757                   0.498808         0.01448
1.758                    0.49885       0.0127032
1.759                   0.498886       0.0109262
1.76                    0.498916       0.0091488
1.761                   0.498939      0.00737118
1.762                   0.498956      0.00559333
1.763                   0.498967      0.00381528
1.764                   0.498971      0.00203705
1.765                   0.498969     0.000258656
1.766                   0.498961     -0.00151986
1.767                   0.498946     -0.00329849
1.768                   0.498925     -0.00507719
1.769                   0.498898     -0.00685594
1.77                    0.498865     -0.00863472
1.771                   0.498825      -0.0104135
1.772                   0.498778      -0.0121922
1.773                   0.498726      -0.0139709
1.774                   0.498667      -0.0157496
1.775                   0.498601      -0.0175281
1.776                    0.49853      -0.0193064
1.777                   0.498452      -0.0210847
1.778                   0.498367      -0.0228627
1.779                   0.498276      -0.0246405
1.78                    0.498179      -0.0264181
1.781                   0.498076      -0.0281954
1.782                   0.497966      -0.0299724
1.783                   0.497849      -0.0317491
1.784                   0.497727      -0.0335255
1.785                   0.497598      -0.0353015
1.786                   0.497462       -0.037077
1.787                    0.49732      -0.0388522
1.788                   0.497172      -0.0406269
1.789                   0.497017      -0.0424011
1.79                    0.496857      -0.0441748
1.791                   0.496689       -0.045948
1.792                   0.496515      -0.0477205
1.793                   0.496335      -0.0494926
1.794                   0.496149      -0.0512639
1.795                   0.495956      -0.0530347
1.796                   0.495757      -0.0548047
1.797                   0.495551      -0.0565741
1.798                   0.495339      -0.0583427
1.799                   0.495121      -0.0601106
1.8                     0.494896      -0.0618776
1.801                   0.494665      -0.0636439
1.802                   0.494427      -0.0654093
1.803                   0.494183      -0.0671739
1.804                   0.493933      -0.0689375
1.805                   0.493677      -0.0707002
1.806                   0.493414       -0.072462
1.807                   0.493144      -0.0742228
1.808                   0.492868      -0.0759825
1.809                   0.492587      -0.0777413
1.81                    0.492298      -0.0794989
1.811                   0.492003      -0.0812555
1.812                   0.491702       -0.083011
1.813                   0.491395      -0.0847653
1.814                   0.491081      -0.0865184
1.815                   0.490761      -0.0882703
1.816                   0.490435       -0.090021
1.817                   0.490102      -0.0917704
1.818                   0.489763      -0.0935185
1.819                   0.489417      -0.0952654
1.82                    0.489066      -0.0970108
1.821                   0.488708      -0.0987549
1.822                   0.488344       -0.100498
1.823                   0.487973       -0.102239
1.824                   0.487596       -0.103979
1.825                   0.487213       -0.105717
1.826                   0.486824       -0.107454
1.827                   0.486428       -0.109189
1.828                   0.486026       -0.110923
1.829                   0.485618       -0.112655
1.83                    0.485203       -0.114385
1.831                   0.484783       -0.116114
1.832                   0.484356       -0.117841
1.833                   0.483923       -0.119567
1.834                   0.483483        -0.12129
1.835                   0.483038       -0.123012
1.836                   0.482586       -0.124732
1.837                   0.482128        -0.12645
1.838                   0.481664       -0.128167
1.839                   0.481194       -0.129882
1.84                    0.480718       -0.131594
1.841                   0.480235       -0.133305
1.842                   0.479746       -0.135014
1.843                   0.479252        -0.13672
1.844                   0.478751       -0.138425
1.845                   0.478244       -0.140128
1.846                    0.47773       -0.141829
1.847                   0.477211       -0.143527
1.848                   0.476686       -0.145224
1.849                   0.476154       -0.146918
1.85                    0.475617        -0.14861
1.851                   0.475073         -0.1503
1.852                   0.474524       -0.151988
1.853                   0.473968       -0.153673
1.854                   0.473407       -0.155356
1.855                   0.472839       -0.157037
1.856                   0.472266       -0.158716
1.857                   0.471686       -0.160392
1.858                   0.471101       -0.162066
1.859                   0.470509       -0.163737
1.86                    0.469912       -0.165406
1.861                   0.469309       -0.167072
1.862                     0.4687       -0.168736
1.863                   0.468085       -0.170398
1.864                   0.467464       -0.172057
1.865                   0.466837       -0.173713
1.866                   0.466204       -0.175367
1.867                   0.465566       -0.177018
1.868                   0.464921       -0.178666
1.869                   0.464271       -0.180312
1.87                    0.463615       -0.181955
1.871                   0.462954       -0.183596
1.872                   0.462286       -0.185233
1.873                   0.461613       -0.186868
1.874                   0.460934         -0.1885
1.875                    0.46025        -0.19013
1.876                   0.459559       -0.191756
1.877                   0.458863        -0.19338
1.878                   0.458162          -0.195
1.879                   0.457454       -0.196618
1.88                    0.456741       -0.198233
1.881                   0.456023       -0.199845
1.882                   0.455299       -0.201454
1.883                   0.454569        -0.20306
1.884                   0.453834       -0.204663
1.885                   0.453093       -0.206262
1.886                   0.452347       -0.207859
1.887                   0.451595       -0.209453
1.888                   0.450837       -0.211043
1.889                   0.450075       -0.212631
1.89                    0.449306       -0.214215
1.891                   0.448533       -0.215796
1.892                   0.447753       -0.217374
1.893                   0.446969       -0.218949
1.894                   0.446179        -0.22052
1.895                   0.445384       -0.222088
1.896                   0.444583       -0.223653
1.897                   0.443777       -0.225215
1.898                   0.442966       -0.226773
1.899                    0.44215       -0.228328
1.9                     0.441328       -0.229879
1.901                   0.440501       -0.231427
1.902                   0.439669       -0.232972
1.903                   0.438832       -0.234513
1.904                   0.437989       -0.236051
1.905                   0.437141       -0.237585
1.906                   0.436289       -0.239116
1.907                   0.435431       -0.240643
1.908                   0.434568       -0.242167
1.909                   0.433699       -0.243687
1.91                    0.432826       -0.245204
1.911                   0.431948       -0.246717
1.912                   0.431065       -0.248227
1.913                   0.430177       -0.249733
1.914                   0.429283       -0.251235
1.915                   0.428385       -0.252734
1.916                   0.427482       -0.254229
1.917                   0.426574        -0.25572
1.918                   0.425662       -0.257207
1.919                   0.424744       -0.258691
1.92                    0.423821       -0.260171
1.921                   0.422894       -0.261648
1.922                   0.421962        -0.26312
1.923                   0.421025       -0.264589
1.924                   0.420084       -0.266054
1.925                   0.419137       -0.267516
1.926                   0.418186       -0.268973
1.927                   0.417231       -0.270426
1.928                    0.41627       -0.271876
1.929                   0.415305       -0.273322
1.93                    0.414336       -0.274764
1.931                   0.413361       -0.276202
1.932                   0.412383       -0.277636
1.933                   0.411399       -0.279066
1.934                   0.410412       -0.280493
1.935                   0.409419       -0.281915
1.936                   0.408423       -0.283334
1.937                   0.407421       -0.284748
1.938                   0.406416       -0.286158
1.939                   0.405406       -0.287565
1.94                    0.404391       -0.288967
1.941                   0.403372       -0.290366
1.942                   0.402349        -0.29176
1.943                   0.401322        -0.29315
1.944                    0.40029       -0.294537
1.945                   0.399254       -0.295919
1.946                   0.398214       -0.297297
1.947                    0.39717       -0.298671
1.948                   0.396121       -0.300041
1.949                   0.395068       -0.301407
1.95                    0.394012       -0.302769
1.951                   0.392951       -0.304127
1.952                   0.391885        -0.30548
1.953                   0.390816        -0.30683
1.954                   0.389743       -0.308175
1.955                   0.388666       -0.309516
1.956                   0.387584       -0.310853
1.957                   0.386499       -0.312186
1.958                    0.38541       -0.313514
1.959                   0.384317       -0.314839
1.96                     0.38322       -0.316159
1.961                   0.382119       -0.317475
1.962                   0.381014       -0.318787
1.963                   0.379905       -0.320095
1.964                   0.378793       -0.321398
1.965                   0.377677       -0.322697
1.966                   0.376557       -0.323992
1.967                   0.375433       -0.325283
1.968                   0.374305        -0.32657
1.969                   0.373174       -0.327852
1.97                    0.372039        -0.32913
1.971                   0.370901       -0.330404
1.972                   0.369758       -0.331673
1.973                   0.368613       -0.332939
1.974                   0.367463         -0.3342
1.975                    0.36631       -0.335457
1.976                   0.365154       -0.336709
1.977                   0.363994       -0.337957
1.978                    0.36283       -0.339201
1.979                   0.361663       -0.340441
1.98                    0.360493       -0.341676
1.981                   0.359319       -0.342908
1.982                   0.358141       -0.344135
1.983                    0.35696       -0.345357
1.984                   0.355776       -0.346576
1.985                   0.354589        -0.34779
1.986                   0.353398       -0.348999
1.987                   0.352204       -0.350205
1.988                   0.351006       -0.351406
1.989                   0.349806       -0.352603
1.99                    0.348602       -0.353796
1.991                   0.347394       -0.354984
1.992                   0.346184       -0.356168
1.993                    0.34497       -0.357348
1.994                   0.343754       -0.358523
1.995                   0.342534       -0.359695
1.996                   0.341311       -0.360862
1.997                   0.340084       -0.362024
1.998                   0.338855       -0.363183
1.999                   0.337623       -0.364337
2                       0.336387       -0.365487
