! TOUCHSTONE file generated by CST MICROWAVE STUDIO
! Date and time: Sun Aug  2 20:04:10 2026
! Project name: Sonda-Coaxial_21mm_DisifixB_v2_Alchol - Isopropilico.cst
! Parameters = {h_recipiente=20; l_conector=50; r_arandela=35; r_ext=10.5; r_int=3; r_recipiente=100; z_recipiente=-50}
! Header version: 2018
! Port assignment regex: !\s*Touchstone port\s*([0-9]+)\s*=\s*(CST MWS port|CST DS port)\s*([0-9]+|Zmin|Zmax)\s*\(\"(.*)\"\)(\s*mode\s*([0-9]+))?.*
! Touchstone port assignment:
! Touchstone port 1 = CST MWS port 1 ("")
# GHz S RI R 50
0.001                   0.999259     -0.00491357
0.002                   0.999224     -0.00982707
0.003                   0.999166      -0.0147404
0.004                   0.999085      -0.0196536
0.005                   0.998981      -0.0245665
0.006                   0.998854      -0.0294791
0.007                   0.998703      -0.0343912
0.008                    0.99853      -0.0393029
0.009                   0.998333       -0.044214
0.01                    0.998112      -0.0491245
0.011                   0.997869      -0.0540343
0.012                   0.997602      -0.0589433
0.013                   0.997312      -0.0638515
0.014                   0.996998      -0.0687588
0.015                   0.996661       -0.073665
0.016                     0.9963      -0.0785701
0.017                   0.995916      -0.0834741
0.018                   0.995508      -0.0883767
0.019                   0.995076       -0.093278
0.02                    0.994621      -0.0981779
0.021                   0.994142       -0.103076
0.022                    0.99364       -0.107973
0.023                   0.993113       -0.112868
0.024                   0.992563       -0.117761
0.025                   0.991988       -0.122651
0.026                    0.99139        -0.12754
0.027                   0.990768       -0.132427
0.028                   0.990121       -0.137311
0.029                   0.989451       -0.142193
0.03                    0.988756       -0.147072
0.031                   0.988037       -0.151949
0.032                   0.987294       -0.156822
0.033                   0.986527       -0.161693
0.034                   0.985735        -0.16656
0.035                   0.984919       -0.171424
0.036                   0.984079       -0.176285
0.037                   0.983214       -0.181142
0.038                   0.982325       -0.185995
0.039                   0.981412       -0.190844
0.04                    0.980474       -0.195689
0.041                   0.979511        -0.20053
0.042                   0.978524       -0.205366
0.043                   0.977512       -0.210198
0.044                   0.976476       -0.215025
0.045                   0.975416       -0.219847
0.046                   0.974331       -0.224664
0.047                   0.973221       -0.229476
0.048                   0.972087       -0.234282
0.049                   0.970928       -0.239083
0.05                    0.969746       -0.243878
0.051                   0.968538       -0.248667
0.052                   0.967306       -0.253449
0.053                    0.96605       -0.258226
0.054                    0.96477       -0.262995
0.055                   0.963465       -0.267758
0.056                   0.962136       -0.272515
0.057                   0.960783       -0.277264
0.058                   0.959406       -0.282006
0.059                   0.958004        -0.28674
0.06                    0.956579       -0.291467
0.061                    0.95513       -0.296186
0.062                   0.953657       -0.300897
0.063                    0.95216       -0.305601
0.064                   0.950639       -0.310295
0.065                   0.949094       -0.314982
0.066                   0.947526        -0.31966
0.067                   0.945935       -0.324329
0.068                    0.94432        -0.32899
0.069                   0.942682       -0.333641
0.07                    0.941021       -0.338283
0.071                   0.939336       -0.342916
0.072                   0.937629       -0.347539
0.073                   0.935898       -0.352153
0.074                   0.934145       -0.356758
0.075                   0.932369       -0.361352
0.076                    0.93057       -0.365936
0.077                   0.928749        -0.37051
0.078                   0.926906       -0.375075
0.079                    0.92504       -0.379628
0.08                    0.923152       -0.384172
0.081                   0.921241       -0.388704
0.082                   0.919309       -0.393227
0.083                   0.917355       -0.397738
0.084                   0.915379       -0.402238
0.085                   0.913382       -0.406728
0.086                   0.911362       -0.411207
0.087                   0.909322       -0.415674
0.088                    0.90726        -0.42013
0.089                   0.905176       -0.424575
0.09                    0.903072       -0.429009
0.091                   0.900946       -0.433431
0.092                     0.8988       -0.437842
0.093                   0.896632       -0.442241
0.094                   0.894444       -0.446628
0.095                   0.892235       -0.451004
0.096                   0.890005       -0.455368
0.097                   0.887755        -0.45972
0.098                   0.885484        -0.46406
0.099                   0.883193       -0.468388
0.1                     0.880882       -0.472704
0.101                    0.87855       -0.477008
0.102                   0.876198         -0.4813
0.103                   0.873826       -0.485579
0.104                   0.871435       -0.489847
0.105                   0.869023       -0.494101
0.106                   0.866591       -0.498344
0.107                   0.864139       -0.502574
0.108                   0.861668       -0.506791
0.109                   0.859177       -0.510996
0.11                    0.856666       -0.515188
0.111                   0.854136       -0.519368
0.112                   0.851586       -0.523535
0.113                   0.849017       -0.527689
0.114                   0.846428        -0.53183
0.115                    0.84382       -0.535958
0.116                   0.841192       -0.540073
0.117                   0.838545       -0.544174
0.118                   0.835879       -0.548263
0.119                   0.833194       -0.552338
0.12                    0.830489         -0.5564
0.121                   0.827765       -0.560449
0.122                   0.825023       -0.564484
0.123                   0.822261       -0.568506
0.124                    0.81948       -0.572514
0.125                    0.81668       -0.576508
0.126                   0.813862       -0.580488
0.127                   0.811024       -0.584454
0.128                   0.808167       -0.588407
0.129                   0.805292       -0.592345
0.13                    0.802398       -0.596269
0.131                   0.799485       -0.600179
0.132                   0.796554       -0.604075
0.133                   0.793604       -0.607956
0.134                   0.790635       -0.611822
0.135                   0.787648       -0.615674
0.136                   0.784642        -0.61951
0.137                   0.781618       -0.623332
0.138                   0.778576       -0.627139
0.139                   0.775515       -0.630931
0.14                    0.772436       -0.634707
0.141                   0.769339       -0.638468
0.142                   0.766224       -0.642214
0.143                    0.76309       -0.645944
0.144                   0.759939       -0.649658
0.145                    0.75677       -0.653357
0.146                   0.753582        -0.65704
0.147                   0.750377       -0.660706
0.148                   0.747155       -0.664356
0.149                   0.743915        -0.66799
0.15                    0.740657       -0.671608
0.151                   0.737382        -0.67521
0.152                    0.73409       -0.678794
0.153                    0.73078       -0.682362
0.154                   0.727454       -0.685913
0.155                    0.72411       -0.689447
0.156                   0.720749       -0.692964
0.157                   0.717371       -0.696464
0.158                   0.713977       -0.699947
0.159                   0.710566       -0.703412
0.16                    0.707139       -0.706859
0.161                   0.703695       -0.710289
0.162                   0.700234       -0.713702
0.163                   0.696758       -0.717097
0.164                   0.693266       -0.720474
0.165                   0.689757       -0.723833
0.166                   0.686233       -0.727173
0.167                   0.682693       -0.730496
0.168                   0.679138         -0.7338
0.169                   0.675567       -0.737086
0.17                     0.67198       -0.740354
0.171                   0.668379       -0.743603
0.172                   0.664762       -0.746834
0.173                   0.661131       -0.750046
0.174                   0.657485        -0.75324
0.175                   0.653824       -0.756414
0.176                   0.650148        -0.75957
0.177                   0.646458       -0.762707
0.178                   0.642754       -0.765825
0.179                   0.639036       -0.768924
0.18                    0.635303       -0.772004
0.181                   0.631556       -0.775065
0.182                   0.627796       -0.778106
0.183                   0.624022       -0.781129
0.184                   0.620235       -0.784132
0.185                   0.616434       -0.787116
0.186                    0.61262        -0.79008
0.187                   0.608792       -0.793025
0.188                   0.604952       -0.795951
0.189                   0.601098       -0.798858
0.19                    0.597232       -0.801744
0.191                   0.593353       -0.804612
0.192                   0.589462       -0.807459
0.193                   0.585558       -0.810288
0.194                   0.581641       -0.813096
0.195                   0.577713       -0.815885
0.196                   0.573772       -0.818654
0.197                   0.569819       -0.821404
0.198                   0.565854       -0.824134
0.199                   0.561878       -0.826844
0.2                     0.557889       -0.829534
0.201                   0.553889       -0.832205
0.202                   0.549878       -0.834856
0.203                   0.545855       -0.837487
0.204                    0.54182       -0.840097
0.205                   0.537775       -0.842689
0.206                   0.533718        -0.84526
0.207                    0.52965       -0.847811
0.208                   0.525571       -0.850342
0.209                   0.521482       -0.852854
0.21                    0.517381       -0.855345
0.211                    0.51327       -0.857816
0.212                   0.509148       -0.860267
0.213                   0.505015       -0.862698
0.214                   0.500872       -0.865109
0.215                   0.496719         -0.8675
0.216                   0.492556        -0.86987
0.217                   0.488382        -0.87222
0.218                   0.484198        -0.87455
0.219                   0.480004        -0.87686
0.22                      0.4758       -0.879149
0.221                   0.471586       -0.881418
0.222                   0.467362       -0.883666
0.223                   0.463129       -0.885894
0.224                   0.458886       -0.888102
0.225                   0.454633       -0.890289
0.226                   0.450371       -0.892455
0.227                     0.4461       -0.894601
0.228                   0.441819       -0.896725
0.229                   0.437529        -0.89883
0.23                     0.43323       -0.900913
0.231                   0.428922       -0.902975
0.232                   0.424605       -0.905017
0.233                   0.420279       -0.907038
0.234                   0.415944       -0.909038
0.235                   0.411601       -0.911016
0.236                   0.407249       -0.912974
0.237                   0.402889        -0.91491
0.238                    0.39852       -0.916826
0.239                   0.394143        -0.91872
0.24                    0.389758       -0.920592
0.241                   0.385364       -0.922444
0.242                   0.380963       -0.924274
0.243                   0.376554       -0.926082
0.244                   0.372137        -0.92787
0.245                   0.367713       -0.929635
0.246                   0.363281       -0.931379
0.247                   0.358842       -0.933101
0.248                   0.354395       -0.934802
0.249                   0.349941       -0.936481
0.25                     0.34548       -0.938138
0.251                   0.341012       -0.939774
0.252                   0.336538       -0.941387
0.253                   0.332056       -0.942979
0.254                   0.327568       -0.944548
0.255                   0.323073       -0.946096
0.256                   0.318573       -0.947622
0.257                   0.314066       -0.949126
0.258                   0.309553       -0.950607
0.259                   0.305033       -0.952067
0.26                    0.300509       -0.953504
0.261                   0.295978       -0.954919
0.262                   0.291442       -0.956312
0.263                     0.2869       -0.957683
0.264                   0.282354       -0.959032
0.265                   0.277802       -0.960358
0.266                   0.273245       -0.961662
0.267                   0.268683       -0.962944
0.268                   0.264116       -0.964204
0.269                   0.259545       -0.965441
0.27                    0.254968       -0.966656
0.271                   0.250388       -0.967849
0.272                   0.245804        -0.96902
0.273                   0.241215       -0.970168
0.274                   0.236623       -0.971294
0.275                   0.232026       -0.972397
0.276                   0.227426       -0.973479
0.277                   0.222822       -0.974538
0.278                   0.218214       -0.975574
0.279                   0.213604       -0.976589
0.28                     0.20899       -0.977581
0.281                   0.204373       -0.978551
0.282                   0.199753       -0.979499
0.283                    0.19513       -0.980424
0.284                   0.190504       -0.981328
0.285                   0.185876       -0.982209
0.286                   0.181245       -0.983068
0.287                   0.176612       -0.983905
0.288                   0.171976       -0.984719
0.289                   0.167338       -0.985512
0.29                    0.162698       -0.986282
0.291                   0.158056       -0.987031
0.292                   0.153413       -0.987757
0.293                   0.148767       -0.988462
0.294                    0.14412       -0.989144
0.295                   0.139471       -0.989805
0.296                   0.134821       -0.990443
0.297                   0.130169        -0.99106
0.298                   0.125516       -0.991655
0.299                   0.120862       -0.992227
0.3                     0.116207       -0.992778
0.301                   0.111551       -0.993307
0.302                   0.106894       -0.993815
0.303                   0.102236         -0.9943
0.304                  0.0975775       -0.994764
0.305                  0.0929181       -0.995206
0.306                  0.0882586       -0.995627
0.307                  0.0835981       -0.996025
0.308                  0.0789377       -0.996402
0.309                   0.074277       -0.996758
0.31                   0.0696156       -0.997091
0.311                  0.0649547       -0.997403
0.312                  0.0602932       -0.997693
0.313                  0.0556321       -0.997962
0.314                  0.0509713       -0.998209
0.315                  0.0463104       -0.998435
0.316                  0.0416498       -0.998639
0.317                  0.0369897       -0.998822
0.318                  0.0323299       -0.998983
0.319                  0.0276708       -0.999122
0.32                    0.023012        -0.99924
0.321                  0.0183542       -0.999336
0.322                  0.0136973       -0.999411
0.323                 0.00904108       -0.999464
0.324                 0.00438603       -0.999496
0.325               -0.000268217       -0.999507
0.326                -0.00492107       -0.999496
0.327                -0.00957292       -0.999463
0.328                 -0.0142237       -0.999409
0.329                 -0.0188727       -0.999333
0.33                  -0.0235202       -0.999236
0.331                 -0.0281664       -0.999118
0.332                 -0.0328107       -0.998978
0.333                  -0.037453       -0.998816
0.334                 -0.0420941       -0.998633
0.335                 -0.0467327       -0.998429
0.336                 -0.0513694       -0.998203
0.337                 -0.0560043       -0.997956
0.338                 -0.0606366       -0.997687
0.339                 -0.0652668       -0.997397
0.34                  -0.0698941       -0.997085
0.341                 -0.0745193       -0.996752
0.342                 -0.0791416       -0.996397
0.343                 -0.0837615       -0.996021
0.344                 -0.0883782       -0.995624
0.345                 -0.0929921       -0.995205
0.346                 -0.0976032       -0.994765
0.347                  -0.102211       -0.994303
0.348                  -0.106815        -0.99382
0.349                  -0.111416       -0.993316
0.35                   -0.116014        -0.99279
0.351                  -0.120608       -0.992243
0.352                  -0.125199       -0.991674
0.353                  -0.129785       -0.991085
0.354                  -0.134368       -0.990473
0.355                  -0.138946       -0.989841
0.356                  -0.143521       -0.989187
0.357                  -0.148091       -0.988513
0.358                  -0.152657       -0.987816
0.359                  -0.157218       -0.987099
0.36                   -0.161775       -0.986361
0.361                  -0.166327       -0.985601
0.362                  -0.170874       -0.984821
0.363                  -0.175417       -0.984019
0.364                  -0.179954       -0.983196
0.365                  -0.184486       -0.982352
0.366                  -0.189013       -0.981487
0.367                  -0.193535       -0.980602
0.368                  -0.198051       -0.979695
0.369                  -0.202561       -0.978768
0.37                   -0.207066       -0.977819
0.371                  -0.211565        -0.97685
0.372                  -0.216058        -0.97586
0.373                  -0.220545        -0.97485
0.374                  -0.225026       -0.973819
0.375                  -0.229501       -0.972767
0.376                  -0.233969       -0.971695
0.377                  -0.238431       -0.970602
0.378                  -0.242887       -0.969489
0.379                  -0.247335       -0.968355
0.38                   -0.251777       -0.967201
0.381                  -0.256213       -0.966027
0.382                  -0.260641       -0.964832
0.383                  -0.265062       -0.963617
0.384                  -0.269476       -0.962382
0.385                  -0.273883       -0.961128
0.386                  -0.278283       -0.959853
0.387                  -0.282675       -0.958558
0.388                   -0.28706       -0.957243
0.389                  -0.291437       -0.955908
0.39                   -0.295806       -0.954553
0.391                  -0.300168       -0.953179
0.392                  -0.304522       -0.951785
0.393                  -0.308867       -0.950371
0.394                  -0.313205       -0.948938
0.395                  -0.317535       -0.947486
0.396                  -0.321857       -0.946014
0.397                   -0.32617       -0.944522
0.398                  -0.330475       -0.943011
0.399                  -0.334771       -0.941481
0.4                    -0.339059       -0.939931
0.401                  -0.343338       -0.938363
0.402                  -0.347609       -0.936775
0.403                  -0.351871       -0.935168
0.404                  -0.356124       -0.933543
0.405                  -0.360368       -0.931898
0.406                  -0.364603       -0.930234
0.407                  -0.368829       -0.928552
0.408                  -0.373046       -0.926851
0.409                  -0.377253       -0.925131
0.41                   -0.381452       -0.923392
0.411                  -0.385641       -0.921635
0.412                   -0.38982       -0.919859
0.413                   -0.39399       -0.918064
0.414                  -0.398151       -0.916252
0.415                  -0.402301       -0.914421
0.416                  -0.406442       -0.912571
0.417                  -0.410573       -0.910703
0.418                  -0.414694       -0.908817
0.419                  -0.418805       -0.906913
0.42                   -0.422907       -0.904991
0.421                  -0.426998        -0.90305
0.422                  -0.431078       -0.901092
0.423                  -0.435149       -0.899115
0.424                  -0.439209       -0.897121
0.425                  -0.443259       -0.895109
0.426                  -0.447298       -0.893079
0.427                  -0.451326       -0.891031
0.428                  -0.455344       -0.888966
0.429                  -0.459352       -0.886883
0.43                   -0.463348       -0.884782
0.431                  -0.467333       -0.882664
0.432                  -0.471308       -0.880528
0.433                  -0.475272       -0.878375
0.434                  -0.479224       -0.876205
0.435                  -0.483165       -0.874017
0.436                  -0.487095       -0.871812
0.437                  -0.491013        -0.86959
0.438                   -0.49492       -0.867351
0.439                  -0.498816       -0.865095
0.44                     -0.5027       -0.862822
0.441                  -0.506572       -0.860532
0.442                  -0.510432       -0.858225
0.443                  -0.514281       -0.855901
0.444                  -0.518118       -0.853561
0.445                  -0.521943       -0.851204
0.446                  -0.525755        -0.84883
0.447                  -0.529556        -0.84644
0.448                  -0.533344       -0.844033
0.449                  -0.537121        -0.84161
0.45                   -0.540885       -0.839171
0.451                  -0.544636       -0.836716
0.452                  -0.548375       -0.834244
0.453                  -0.552101       -0.831757
0.454                  -0.555815       -0.829253
0.455                  -0.559516       -0.826733
0.456                  -0.563204       -0.824198
0.457                   -0.56688       -0.821647
0.458                  -0.570542        -0.81908
0.459                  -0.574192       -0.816497
0.46                   -0.577828       -0.813899
0.461                  -0.581452       -0.811286
0.462                  -0.585062       -0.808657
0.463                  -0.588659       -0.806013
0.464                  -0.592243       -0.803353
0.465                  -0.595813       -0.800678
0.466                   -0.59937       -0.797989
0.467                  -0.602914       -0.795284
0.468                  -0.606444       -0.792565
0.469                   -0.60996       -0.789831
0.47                   -0.613463       -0.787082
0.471                  -0.616953       -0.784318
0.472                  -0.620429        -0.78154
0.473                   -0.62389       -0.778747
0.474                  -0.627338        -0.77594
0.475                  -0.630772       -0.773119
0.476                  -0.634192       -0.770283
0.477                  -0.637599       -0.767433
0.478                  -0.640991       -0.764569
0.479                  -0.644369       -0.761691
0.48                   -0.647733         -0.7588
0.481                  -0.651083       -0.755894
0.482                  -0.654419       -0.752975
0.483                   -0.65774       -0.750042
0.484                  -0.661048       -0.747095
0.485                  -0.664341       -0.744135
0.486                   -0.66762       -0.741162
0.487                  -0.670884       -0.738175
0.488                  -0.674134       -0.735174
0.489                   -0.67737       -0.732161
0.49                    -0.68059       -0.729134
0.491                  -0.683797       -0.726095
0.492                  -0.686989       -0.723042
0.493                  -0.690167       -0.719976
0.494                  -0.693329       -0.716898
0.495                  -0.696478       -0.713807
0.496                  -0.699611       -0.710703
0.497                   -0.70273       -0.707587
0.498                  -0.705835       -0.704457
0.499                  -0.708924       -0.701316
0.5                    -0.711998       -0.698162
0.501                  -0.715058       -0.694995
0.502                  -0.718103       -0.691816
0.503                  -0.721133       -0.688625
0.504                  -0.724148       -0.685422
0.505                  -0.727149       -0.682207
0.506                  -0.730134       -0.678979
0.507                  -0.733104        -0.67574
0.508                  -0.736059       -0.672489
0.509                  -0.738999       -0.669225
0.51                   -0.741924        -0.66595
0.511                  -0.744834       -0.662664
0.512                  -0.747729       -0.659365
0.513                  -0.750608       -0.656055
0.514                  -0.753472       -0.652734
0.515                  -0.756321         -0.6494
0.516                  -0.759154       -0.646056
0.517                  -0.761972         -0.6427
0.518                  -0.764775       -0.639333
0.519                  -0.767562       -0.635954
0.52                   -0.770334       -0.632565
0.521                   -0.77309       -0.629164
0.522                  -0.775831       -0.625752
0.523                  -0.778556       -0.622329
0.524                  -0.781265       -0.618895
0.525                  -0.783959        -0.61545
0.526                  -0.786637       -0.611994
0.527                  -0.789299       -0.608528
0.528                  -0.791945       -0.605051
0.529                  -0.794576       -0.601563
0.53                   -0.797191       -0.598065
0.531                  -0.799789       -0.594556
0.532                  -0.802372       -0.591036
0.533                  -0.804939       -0.587507
0.534                   -0.80749       -0.583967
0.535                  -0.810024       -0.580417
0.536                  -0.812542       -0.576856
0.537                  -0.815045       -0.573286
0.538                   -0.81753       -0.569705
0.539                      -0.82       -0.566115
0.54                   -0.822454       -0.562514
0.541                  -0.824891       -0.558904
0.542                  -0.827311       -0.555284
0.543                  -0.829715       -0.551655
0.544                  -0.832103       -0.548015
0.545                  -0.834474       -0.544367
0.546                  -0.836829       -0.540708
0.547                  -0.839167       -0.537041
0.548                  -0.841488       -0.533364
0.549                  -0.843793       -0.529678
0.55                   -0.846081       -0.525983
0.551                  -0.848352       -0.522278
0.552                  -0.850607       -0.518565
0.553                  -0.852845       -0.514843
0.554                  -0.855065       -0.511112
0.555                  -0.857269       -0.507373
0.556                  -0.859456       -0.503624
0.557                  -0.861626       -0.499867
0.558                  -0.863779       -0.496102
0.559                  -0.865915       -0.492328
0.56                   -0.868034       -0.488546
0.561                  -0.870136       -0.484756
0.562                  -0.872221       -0.480957
0.563                  -0.874289       -0.477151
0.564                   -0.87634       -0.473336
0.565                  -0.878373       -0.469514
0.566                   -0.88039       -0.465684
0.567                  -0.882389       -0.461845
0.568                  -0.884371          -0.458
0.569                  -0.886335       -0.454147
0.57                   -0.888282       -0.450286
0.571                  -0.890213       -0.446418
0.572                  -0.892125       -0.442542
0.573                  -0.894021       -0.438659
0.574                  -0.895899       -0.434769
0.575                   -0.89776       -0.430872
0.576                  -0.899603       -0.426968
0.577                   -0.90143       -0.423057
0.578                  -0.903238        -0.41914
0.579                   -0.90503       -0.415215
0.58                   -0.906804       -0.411284
0.581                   -0.90856       -0.407346
0.582                  -0.910299       -0.403401
0.583                  -0.912021        -0.39945
0.584                  -0.913725       -0.395493
0.585                  -0.915412       -0.391529
0.586                  -0.917082       -0.387559
0.587                  -0.918733       -0.383583
0.588                  -0.920368       -0.379601
0.589                  -0.921985       -0.375612
0.59                   -0.923584       -0.371618
0.591                  -0.925166       -0.367618
0.592                   -0.92673       -0.363612
0.593                  -0.928277         -0.3596
0.594                  -0.929807       -0.355583
0.595                  -0.931318       -0.351559
0.596                  -0.932813        -0.34753
0.597                   -0.93429       -0.343496
0.598                  -0.935749       -0.339456
0.599                  -0.937191       -0.335411
0.6                    -0.938614       -0.331361
0.601                  -0.940021       -0.327305
0.602                   -0.94141       -0.323244
0.603                  -0.942781       -0.319179
0.604                  -0.944135       -0.315107
0.605                  -0.945471       -0.311032
0.606                  -0.946789        -0.30695
0.607                   -0.94809       -0.302865
0.608                  -0.949373       -0.298774
0.609                  -0.950638       -0.294678
0.61                   -0.951886       -0.290578
0.611                  -0.953116       -0.286474
0.612                  -0.954328       -0.282364
0.613                  -0.955522        -0.27825
0.614                  -0.956699       -0.274132
0.615                  -0.957858        -0.27001
0.616                  -0.958999       -0.265882
0.617                  -0.960122       -0.261751
0.618                  -0.961228       -0.257616
0.619                  -0.962316       -0.253476
0.62                   -0.963385       -0.249333
0.621                  -0.964437       -0.245185
0.622                  -0.965471       -0.241033
0.623                  -0.966487       -0.236878
0.624                  -0.967485       -0.232719
0.625                  -0.968466       -0.228556
0.626                  -0.969428       -0.224389
0.627                  -0.970372       -0.220218
0.628                  -0.971298       -0.216045
0.629                  -0.972206       -0.211867
0.63                   -0.973097       -0.207686
0.631                  -0.973969       -0.203502
0.632                  -0.974823       -0.199315
0.633                  -0.975658       -0.195125
0.634                  -0.976476       -0.190931
0.635                  -0.977276       -0.186734
0.636                  -0.978057       -0.182534
0.637                   -0.97882       -0.178332
0.638                  -0.979565       -0.174126
0.639                  -0.980292       -0.169918
0.64                      -0.981       -0.165707
0.641                   -0.98169       -0.161493
0.642                  -0.982362       -0.157278
0.643                  -0.983016       -0.153059
0.644                  -0.983651       -0.148838
0.645                  -0.984268       -0.144615
0.646                  -0.984867        -0.14039
0.647                  -0.985447       -0.136162
0.648                  -0.986009       -0.131932
0.649                  -0.986552       -0.127701
0.65                   -0.987078       -0.123467
0.651                  -0.987584       -0.119232
0.652                  -0.988073       -0.114995
0.653                  -0.988543       -0.110756
0.654                  -0.988994       -0.106516
0.655                  -0.989427       -0.102274
0.656                  -0.989842      -0.0980315
0.657                  -0.990238      -0.0937867
0.658                  -0.990616       -0.089541
0.659                  -0.990975       -0.085294
0.66                   -0.991316      -0.0810459
0.661                  -0.991638      -0.0767965
0.662                  -0.991942      -0.0725466
0.663                  -0.992227      -0.0682955
0.664                  -0.992494       -0.064044
0.665                  -0.992742      -0.0597916
0.666                  -0.992972      -0.0555386
0.667                  -0.993184      -0.0512848
0.668                  -0.993376      -0.0470309
0.669                  -0.993551      -0.0427764
0.67                   -0.993707      -0.0385217
0.671                  -0.993845      -0.0342667
0.672                  -0.993964      -0.0300112
0.673                  -0.994064      -0.0257561
0.674                  -0.994146      -0.0215008
0.675                   -0.99421      -0.0172456
0.676                  -0.994255      -0.0129905
0.677                  -0.994282     -0.00873556
0.678                   -0.99429     -0.00448107
0.679                   -0.99428    -0.000226674
0.68                   -0.994251      0.00402732
0.681                  -0.994204      0.00828039
0.682                  -0.994139       0.0125334
0.683                  -0.994054       0.0167855
0.684                  -0.993952       0.0210369
0.685                  -0.993831       0.0252877
0.686                  -0.993692       0.0295375
0.687                  -0.993534       0.0337865
0.688                  -0.993358       0.0380343
0.689                  -0.993163       0.0422812
0.69                    -0.99295        0.046527
0.691                  -0.992719       0.0507717
0.692                  -0.992469       0.0550148
0.693                  -0.992201        0.059257
0.694                  -0.991914       0.0634975
0.695                  -0.991609       0.0677369
0.696                  -0.991285       0.0719744
0.697                  -0.990943       0.0762106
0.698                  -0.990582       0.0804451
0.699                  -0.990203       0.0846779
0.7                    -0.989806       0.0889089
0.701                   -0.98939       0.0931379
0.702                  -0.988955        0.097365
0.703                  -0.988503         0.10159
0.704                  -0.988031        0.105813
0.705                  -0.987541        0.110034
0.706                  -0.987033        0.114253
0.707                  -0.986506         0.11847
0.708                   -0.98596        0.122684
0.709                  -0.985396        0.126896
0.71                   -0.984813        0.131105
0.711                  -0.984212        0.135311
0.712                  -0.983592        0.139515
0.713                  -0.982954        0.143717
0.714                  -0.982297        0.147915
0.715                  -0.981621        0.152111
0.716                  -0.980927        0.156304
0.717                  -0.980214        0.160493
0.718                  -0.979482         0.16468
0.719                  -0.978732        0.168863
0.72                   -0.977962        0.173043
0.721                  -0.977175         0.17722
0.722                  -0.976368        0.181393
0.723                  -0.975542        0.185563
0.724                  -0.974698        0.189729
0.725                  -0.973835        0.193891
0.726                  -0.972953        0.198049
0.727                  -0.972052        0.202204
0.728                  -0.971133        0.206354
0.729                  -0.970194          0.2105
0.73                   -0.969237        0.214642
0.731                   -0.96826         0.21878
0.732                  -0.967265        0.222913
0.733                  -0.966251        0.227042
0.734                  -0.965218        0.231166
0.735                  -0.964166        0.235285
0.736                  -0.963095        0.239399
0.737                  -0.962005        0.243509
0.738                  -0.960895        0.247613
0.739                  -0.959767        0.251712
0.74                    -0.95862        0.255805
0.741                  -0.957454        0.259893
0.742                  -0.956269        0.263975
0.743                  -0.955065        0.268052
0.744                  -0.953842        0.272123
0.745                  -0.952599        0.276187
0.746                  -0.951338        0.280246
0.747                  -0.950058        0.284298
0.748                  -0.948759        0.288344
0.749                  -0.947441        0.292383
0.75                   -0.946104        0.296416
0.751                  -0.944747        0.300442
0.752                  -0.943372         0.30446
0.753                  -0.941978        0.308472
0.754                  -0.940565        0.312476
0.755                  -0.939134        0.316474
0.756                  -0.937683        0.320463
0.757                  -0.936214        0.324445
0.758                  -0.934725        0.328419
0.759                  -0.933218        0.332384
0.76                   -0.931693        0.336342
0.761                  -0.930149        0.340292
0.762                  -0.928586        0.344233
0.763                  -0.927004        0.348165
0.764                  -0.925404        0.352089
0.765                  -0.923786        0.356004
0.766                  -0.922149        0.359909
0.767                  -0.920494        0.363806
0.768                  -0.918821        0.367693
0.769                   -0.91713         0.37157
0.77                    -0.91542        0.375439
0.771                  -0.913692        0.379297
0.772                  -0.911947        0.383145
0.773                  -0.910183        0.386983
0.774                  -0.908402        0.390811
0.775                  -0.906603        0.394628
0.776                  -0.904787        0.398435
0.777                  -0.902953        0.402231
0.778                  -0.901102        0.406017
0.779                  -0.899233        0.409791
0.78                   -0.897347        0.413555
0.781                  -0.895445        0.417307
0.782                  -0.893525        0.421048
0.783                  -0.891588        0.424777
0.784                  -0.889635        0.428494
0.785                  -0.887666          0.4322
0.786                  -0.885679        0.435894
0.787                  -0.883677        0.439575
0.788                  -0.881658        0.443245
0.789                  -0.879623        0.446903
0.79                   -0.877573        0.450548
0.791                  -0.875507         0.45418
0.792                  -0.873425          0.4578
0.793                  -0.871328        0.461408
0.794                  -0.869216        0.465002
0.795                  -0.867088        0.468584
0.796                  -0.864946        0.472152
0.797                  -0.862788        0.475708
0.798                  -0.860616         0.47925
0.799                   -0.85843        0.482779
0.8                    -0.856229        0.486295
0.801                  -0.854015        0.489798
0.802                  -0.851786        0.493287
0.803                  -0.849544        0.496762
0.804                  -0.847288        0.500224
0.805                  -0.845018        0.503673
0.806                  -0.842736        0.507107
0.807                   -0.84044        0.510528
0.808                  -0.838131        0.513935
0.809                   -0.83581        0.517329
0.81                   -0.833476        0.520708
0.811                   -0.83113        0.524074
0.812                  -0.828772        0.527426
0.813                  -0.826401        0.530765
0.814                  -0.824019        0.534089
0.815                  -0.821626        0.537399
0.816                   -0.81922        0.540696
0.817                  -0.816804        0.543978
0.818                  -0.814376        0.547247
0.819                  -0.811938        0.550502
0.82                   -0.809488        0.553744
0.821                  -0.807029        0.556971
0.822                  -0.804558        0.560185
0.823                  -0.802077        0.563385
0.824                  -0.799587        0.566572
0.825                  -0.797086        0.569745
0.826                  -0.794575        0.572904
0.827                  -0.792055         0.57605
0.828                  -0.789525        0.579183
0.829                  -0.786986        0.582302
0.83                   -0.784438        0.585408
0.831                  -0.781881        0.588501
0.832                  -0.779315        0.591581
0.833                   -0.77674        0.594647
0.834                  -0.774156        0.597701
0.835                  -0.771563        0.600742
0.836                  -0.768962         0.60377
0.837                  -0.766353        0.606786
0.838                  -0.763735        0.609789
0.839                   -0.76111        0.612779
0.84                   -0.758476        0.615758
0.841                  -0.755834        0.618724
0.842                  -0.753184        0.621677
0.843                  -0.750526        0.624619
0.844                  -0.747861        0.627549
0.845                  -0.745188        0.630467
0.846                  -0.742507        0.633373
0.847                  -0.739818        0.636268
0.848                  -0.737122        0.639152
0.849                  -0.734419        0.642024
0.85                   -0.731708        0.644884
0.851                  -0.728989        0.647734
0.852                  -0.726263        0.650573
0.853                  -0.723529        0.653401
0.854                  -0.720788        0.656217
0.855                   -0.71804        0.659024
0.856                  -0.715284        0.661819
0.857                  -0.712521        0.664605
0.858                   -0.70975        0.667379
0.859                  -0.706972        0.670144
0.86                   -0.704187        0.672898
0.861                  -0.701393        0.675643
0.862                  -0.698593        0.678377
0.863                  -0.695784        0.681102
0.864                  -0.692968        0.683816
0.865                  -0.690144        0.686521
0.866                  -0.687313        0.689216
0.867                  -0.684473        0.691901
0.868                  -0.681625        0.694577
0.869                   -0.67877        0.697244
0.87                   -0.675907        0.699901
0.871                  -0.673036        0.702549
0.872                  -0.670156        0.705187
0.873                  -0.667268        0.707816
0.874                  -0.664372        0.710436
0.875                  -0.661467        0.713046
0.876                  -0.658554        0.715648
0.877                  -0.655632         0.71824
0.878                  -0.652701        0.720823
0.879                  -0.649762        0.723396
0.88                   -0.646814         0.72596
0.881                  -0.643857        0.728516
0.882                  -0.640891        0.731062
0.883                  -0.637916        0.733599
0.884                  -0.634931        0.736126
0.885                  -0.631937        0.738645
0.886                  -0.628934        0.741153
0.887                  -0.625921        0.743653
0.888                  -0.622899        0.746143
0.889                  -0.619867        0.748624
0.89                   -0.616825        0.751095
0.891                  -0.613774        0.753556
0.892                  -0.610713        0.756007
0.893                  -0.607641         0.75845
0.894                   -0.60456        0.760882
0.895                  -0.601468        0.763304
0.896                  -0.598366        0.765716
0.897                  -0.595255        0.768118
0.898                  -0.592132         0.77051
0.899                     -0.589        0.772892
0.9                    -0.585857        0.775263
0.901                  -0.582704        0.777624
0.902                   -0.57954        0.779974
0.903                  -0.576365        0.782313
0.904                   -0.57318        0.784641
0.905                  -0.569985        0.786959
0.906                  -0.566779        0.789265
0.907                  -0.563562         0.79156
0.908                  -0.560336        0.793844
0.909                  -0.557098        0.796116
0.91                    -0.55385        0.798377
0.911                  -0.550591        0.800626
0.912                  -0.547321        0.802863
0.913                  -0.544041        0.805088
0.914                   -0.54075        0.807301
0.915                  -0.537449        0.809502
0.916                  -0.534138         0.81169
0.917                  -0.530816        0.813866
0.918                  -0.527483        0.816029
0.919                  -0.524141         0.81818
0.92                   -0.520788        0.820318
0.921                  -0.517424        0.822442
0.922                  -0.514051        0.824554
0.923                  -0.510667        0.826653
0.924                  -0.507273        0.828738
0.925                   -0.50387         0.83081
0.926                  -0.500456        0.832868
0.927                  -0.497033        0.834913
0.928                    -0.4936        0.836944
0.929                  -0.490157        0.838961
0.93                   -0.486705        0.840964
0.931                  -0.483242        0.842953
0.932                  -0.479771        0.844928
0.933                  -0.476291        0.846889
0.934                  -0.472801        0.848836
0.935                  -0.469302        0.850768
0.936                  -0.465794        0.852686
0.937                  -0.462277         0.85459
0.938                  -0.458751        0.856479
0.939                  -0.455216        0.858354
0.94                   -0.451673        0.860214
0.941                  -0.448121        0.862059
0.942                  -0.444561         0.86389
0.943                  -0.440992        0.865705
0.944                  -0.437415        0.867507
0.945                   -0.43383        0.869293
0.946                  -0.430237        0.871064
0.947                  -0.426636         0.87282
0.948                  -0.423027        0.874562
0.949                   -0.41941        0.876288
0.95                   -0.415786           0.878
0.951                  -0.412153        0.879696
0.952                  -0.408514        0.881378
0.953                  -0.404866        0.883044
0.954                  -0.401212        0.884696
0.955                   -0.39755        0.886332
0.956                   -0.39388        0.887954
0.957                  -0.390204         0.88956
0.958                   -0.38652        0.891151
0.959                   -0.38283        0.892727
0.96                   -0.379132        0.894288
0.961                  -0.375427        0.895834
0.962                  -0.371716        0.897365
0.963                  -0.367998         0.89888
0.964                  -0.364272        0.900381
0.965                  -0.360541        0.901866
0.966                  -0.356802        0.903336
0.967                  -0.353057        0.904791
0.968                  -0.349305        0.906231
0.969                  -0.345547        0.907656
0.97                   -0.341782        0.909065
0.971                   -0.33801        0.910459
0.972                  -0.334232        0.911838
0.973                  -0.330448        0.913202
0.974                  -0.326657         0.91455
0.975                  -0.322859        0.915884
0.976                  -0.319056        0.917201
0.977                  -0.315246        0.918504
0.978                   -0.31143        0.919791
0.979                  -0.307607        0.921062
0.98                   -0.303778        0.922318
0.981                  -0.299943        0.923559
0.982                  -0.296101        0.924784
0.983                  -0.292254        0.925993
0.984                    -0.2884        0.927187
0.985                   -0.28454        0.928365
0.986                  -0.280673        0.929527
0.987                  -0.276801        0.930673
0.988                  -0.272923        0.931803
0.989                  -0.269038        0.932918
0.99                   -0.265148        0.934016
0.991                  -0.261251        0.935098
0.992                  -0.257349        0.936164
0.993                   -0.25344        0.937214
0.994                  -0.249526        0.938248
0.995                  -0.245606        0.939265
0.996                   -0.24168        0.940265
0.997                  -0.237749        0.941249
0.998                  -0.233811        0.942216
0.999                  -0.229868        0.943167
1                      -0.225919        0.944101
1.001                  -0.221966        0.945017
1.002                  -0.218006        0.945917
1.003                  -0.214041          0.9468
1.004                  -0.210071        0.947665
1.005                  -0.206095        0.948513
1.006                  -0.202115        0.949344
1.007                  -0.198129        0.950157
1.008                  -0.194139        0.950953
1.009                  -0.190144        0.951731
1.01                   -0.186143        0.952492
1.011                  -0.182138        0.953234
1.012                  -0.178129        0.953959
1.013                  -0.174115        0.954666
1.014                  -0.170097        0.955354
1.015                  -0.166075        0.956025
1.016                  -0.162048        0.956677
1.017                  -0.158018        0.957312
1.018                  -0.153983        0.957928
1.019                  -0.149945        0.958525
1.02                   -0.145904        0.959104
1.021                  -0.141858        0.959665
1.022                   -0.13781        0.960207
1.023                  -0.133758        0.960731
1.024                  -0.129703        0.961236
1.025                  -0.125646        0.961722
1.026                  -0.121585        0.962189
1.027                  -0.117522        0.962638
1.028                  -0.113456        0.963068
1.029                  -0.109388         0.96348
1.03                   -0.105318        0.963872
1.031                  -0.101246        0.964246
1.032                 -0.0971712        0.964601
1.033                 -0.0930949        0.964937
1.034                  -0.089017        0.965254
1.035                 -0.0849374        0.965553
1.036                 -0.0808565        0.965833
1.037                 -0.0767742        0.966094
1.038                 -0.0726907        0.966336
1.039                 -0.0686064        0.966559
1.04                  -0.0645211        0.966764
1.041                 -0.0604348         0.96695
1.042                 -0.0563479        0.967117
1.043                 -0.0522603        0.967265
1.044                 -0.0481724        0.967395
1.045                  -0.044084        0.967507
1.046                 -0.0399952          0.9676
1.047                 -0.0359065        0.967674
1.048                 -0.0318177         0.96773
1.049                 -0.0277287        0.967767
1.05                  -0.0236396        0.967786
1.051                 -0.0195511        0.967786
1.052                 -0.0154627        0.967768
1.053                 -0.0113745        0.967732
1.054                -0.00728666        0.967678
1.055                -0.00319919        0.967605
1.056                0.000887797        0.967514
1.057                 0.00497399        0.967405
1.058                 0.00905976        0.967278
1.059                   0.013145        0.967132
1.06                   0.0172295        0.966969
1.061                  0.0213132        0.966787
1.062                  0.0253963        0.966588
1.063                  0.0294785         0.96637
1.064                    0.03356        0.966134
1.065                  0.0376404         0.96588
1.066                  0.0417201        0.965608
1.067                   0.045799        0.965318
1.068                  0.0498769         0.96501
1.069                  0.0539539        0.964684
1.07                     0.05803        0.964339
1.071                   0.062105        0.963977
1.072                  0.0661791        0.963596
1.073                  0.0702522        0.963197
1.074                  0.0743239         0.96278
1.075                   0.078395        0.962344
1.076                  0.0824648         0.96189
1.077                  0.0865337        0.961418
1.078                  0.0906012        0.960927
1.079                  0.0946675        0.960417
1.08                   0.0987327        0.959889
1.081                   0.102797        0.959341
1.082                   0.106859        0.958775
1.083                    0.11092         0.95819
1.084                    0.11498        0.957586
1.085                   0.119038        0.956962
1.086                   0.123095         0.95632
1.087                    0.12715        0.955657
1.088                   0.131203        0.954975
1.089                   0.135254        0.954274
1.09                    0.139304        0.953552
1.091                   0.143351        0.952811
1.092                   0.147396        0.952049
1.093                   0.151439        0.951267
1.094                    0.15548        0.950465
1.095                   0.159517        0.949642
1.096                   0.163553        0.948799
1.097                   0.167585        0.947935
1.098                   0.171614        0.947049
1.099                    0.17564        0.946143
1.1                     0.179662        0.945215
1.101                    0.18368        0.944266
1.102                   0.187695        0.943295
1.103                   0.191705        0.942303
1.104                   0.195711        0.941289
1.105                   0.199713        0.940253
1.106                   0.203709        0.939195
1.107                     0.2077        0.938115
1.108                   0.211686        0.937013
1.109                   0.215665        0.935889
1.11                    0.219639        0.934742
1.111                   0.223606        0.933573
1.112                   0.227567        0.932381
1.113                    0.23152        0.931166
1.114                   0.235466        0.929929
1.115                   0.239404         0.92867
1.116                   0.243334        0.927388
1.117                   0.247255        0.926083
1.118                   0.251167        0.924755
1.119                    0.25507        0.923405
1.12                    0.258964        0.922032
1.121                   0.262847        0.920637
1.122                    0.26672         0.91922
1.123                   0.270582         0.91778
1.124                   0.274433        0.916318
1.125                   0.278272        0.914833
1.126                   0.282099        0.913327
1.127                   0.285914        0.911798
1.128                   0.289716        0.910249
1.129                   0.293504        0.908677
1.13                    0.297279        0.907084
1.131                    0.30104         0.90547
1.132                   0.304787        0.903836
1.133                   0.308518         0.90218
1.134                   0.312235        0.900505
1.135                   0.315935        0.898809
1.136                    0.31962        0.897093
1.137                   0.323289        0.895358
1.138                   0.326941        0.893604
1.139                   0.330576        0.891831
1.14                    0.334194         0.89004
1.141                   0.337794        0.888231
1.142                   0.341377        0.886404
1.143                   0.344941         0.88456
1.144                   0.348487        0.882699
1.145                   0.352013        0.880822
1.146                   0.355522        0.878929
1.147                   0.359011        0.877021
1.148                    0.36248        0.875097
1.149                    0.36593        0.873159
1.15                     0.36936        0.871207
1.151                   0.372771        0.869242
1.152                   0.376161        0.867263
1.153                   0.379532        0.865273
1.154                   0.382881         0.86327
1.155                   0.386211        0.861255
1.156                   0.389521         0.85923
1.157                    0.39281        0.857195
1.158                   0.396078        0.855149
1.159                   0.399327        0.853094
1.16                    0.402555        0.851031
1.161                   0.405762        0.848959
1.162                    0.40895        0.846879
1.163                   0.412117        0.844793
1.164                   0.415265        0.842699
1.165                   0.418393          0.8406
1.166                   0.421501        0.838494
1.167                    0.42459        0.836384
1.168                   0.427659        0.834269
1.169                    0.43071         0.83215
1.17                    0.433741        0.830027
1.171                   0.436754        0.827901
1.172                   0.439749        0.825772
1.173                   0.442726        0.823641
1.174                   0.445686        0.821508
1.175                   0.448628        0.819373
1.176                   0.451553        0.817237
1.177                   0.454462        0.815101
1.178                   0.457355        0.812964
1.179                   0.460232        0.810827
1.18                    0.463093         0.80869
1.181                    0.46594        0.806554
1.182                   0.468773        0.804419
1.183                   0.471591        0.802285
1.184                   0.474396        0.800152
1.185                   0.477188        0.798021
1.186                   0.479967        0.795892
1.187                   0.482734        0.793765
1.188                    0.48549         0.79164
1.189                   0.488235        0.789517
1.19                    0.490968        0.787396
1.191                   0.493692        0.785278
1.192                   0.496407        0.783163
1.193                   0.499112         0.78105
1.194                   0.501808         0.77894
1.195                   0.504497        0.776832
1.196                   0.507178        0.774727
1.197                   0.509852        0.772624
1.198                   0.512519        0.770523
1.199                    0.51518        0.768425
1.2                     0.517836         0.76633
1.201                   0.520486        0.764236
1.202                   0.523132        0.762144
1.203                   0.525773        0.760054
1.204                    0.52841        0.757966
1.205                   0.531044        0.755878
1.206                   0.533676        0.753792
1.207                   0.536304        0.751707
1.208                    0.53893        0.749622
1.209                   0.541555        0.747538
1.21                    0.544178        0.745453
1.211                   0.546799        0.743368
1.212                    0.54942        0.741283
1.213                   0.552041        0.739196
1.214                   0.554661        0.737108
1.215                   0.557281        0.735018
1.216                   0.559902        0.732927
1.217                   0.562523        0.730832
1.218                   0.565144        0.728735
1.219                   0.567767        0.726634
1.22                     0.57039         0.72453
1.221                   0.573015        0.722421
1.222                   0.575641        0.720308
1.223                   0.578269         0.71819
1.224                   0.580898        0.716067
1.225                   0.583529        0.713937
1.226                   0.586161        0.711802
1.227                   0.588795         0.70966
1.228                    0.59143         0.70751
1.229                   0.594068        0.705353
1.23                    0.596707        0.703188
1.231                   0.599347        0.701015
1.232                   0.601989        0.698833
1.233                   0.604632        0.696641
1.234                   0.607277         0.69444
1.235                   0.609922        0.692229
1.236                   0.612569        0.690008
1.237                   0.615216        0.687776
1.238                   0.617865        0.685533
1.239                   0.620513        0.683278
1.24                    0.623162        0.681012
1.241                   0.625811        0.678734
1.242                    0.62846        0.676443
1.243                   0.631108        0.674139
1.244                   0.633755        0.671823
1.245                   0.636402        0.669493
1.246                   0.639047        0.667149
1.247                    0.64169        0.664792
1.248                   0.644332        0.662421
1.249                   0.646972        0.660035
1.25                    0.649608        0.657636
1.251                   0.652243        0.655221
1.252                   0.654874        0.652792
1.253                   0.657501        0.650348
1.254                   0.660125        0.647888
1.255                   0.662744        0.645414
1.256                   0.665359        0.642924
1.257                   0.667969        0.640419
1.258                   0.670574        0.637899
1.259                   0.673174        0.635363
1.26                    0.675767        0.632811
1.261                   0.678355        0.630244
1.262                   0.680935        0.627662
1.263                   0.683509        0.625063
1.264                   0.686076         0.62245
1.265                   0.688635         0.61982
1.266                   0.691186        0.617176
1.267                   0.693729        0.614516
1.268                   0.696264         0.61184
1.269                    0.69879         0.60915
1.27                    0.701306        0.606444
1.271                   0.703814        0.603723
1.272                   0.706312        0.600987
1.273                   0.708799        0.598237
1.274                   0.711277        0.595471
1.275                   0.713744        0.592692
1.276                   0.716201        0.589898
1.277                   0.718646        0.587089
1.278                   0.721081        0.584267
1.279                   0.723504        0.581431
1.28                    0.725916        0.578581
1.281                   0.728316        0.575717
1.282                   0.730705         0.57284
1.283                   0.733081         0.56995
1.284                   0.735445        0.567048
1.285                   0.737797        0.564131
1.286                   0.740135        0.561204
1.287                   0.742462        0.558263
1.288                   0.744776         0.55531
1.289                   0.747077        0.552345
1.29                    0.749365        0.549369
1.291                   0.751641        0.546381
1.292                   0.753903        0.543381
1.293                   0.756152         0.54037
1.294                   0.758388        0.537348
1.295                   0.760611        0.534316
1.296                    0.76282        0.531272
1.297                   0.765016        0.528219
1.298                   0.767199        0.525155
1.299                   0.769369         0.52208
1.3                     0.771525        0.518996
1.301                   0.773668        0.515902
1.302                   0.775798        0.512798
1.303                   0.777914        0.509684
1.304                   0.780017        0.506561
1.305                   0.782107        0.503429
1.306                   0.784183        0.500288
1.307                   0.786247        0.497138
1.308                   0.788297        0.493978
1.309                   0.790334         0.49081
1.31                    0.792357        0.487633
1.311                   0.794368        0.484448
1.312                   0.796365        0.481253
1.313                    0.79835        0.478051
1.314                   0.800321         0.47484
1.315                    0.80228        0.471621
1.316                   0.804225        0.468392
1.317                   0.806158        0.465157
1.318                   0.808078        0.461912
1.319                   0.809985         0.45866
1.32                    0.811879        0.455399
1.321                    0.81376         0.45213
1.322                   0.815629        0.448853
1.323                   0.817485        0.445568
1.324                   0.819328        0.442275
1.325                   0.821158        0.438974
1.326                   0.822976        0.435665
1.327                    0.82478        0.432348
1.328                   0.826572        0.429023
1.329                   0.828352        0.425689
1.33                    0.830118        0.422348
1.331                   0.831872        0.418998
1.332                   0.833613        0.415641
1.333                   0.835341        0.412275
1.334                   0.837057        0.408902
1.335                   0.838759         0.40552
1.336                   0.840449         0.40213
1.337                   0.842125        0.398732
1.338                   0.843788        0.395326
1.339                   0.845439        0.391912
1.34                    0.847076        0.388489
1.341                     0.8487        0.385059
1.342                    0.85031         0.38162
1.343                   0.851907        0.378173
1.344                   0.853491        0.374718
1.345                   0.855061        0.371255
1.346                   0.856617        0.367784
1.347                    0.85816        0.364305
1.348                   0.859689        0.360818
1.349                   0.861204        0.357322
1.35                    0.862705        0.353819
1.351                   0.864192        0.350308
1.352                   0.865664        0.346789
1.353                   0.867123        0.343261
1.354                   0.868566        0.339727
1.355                   0.869996        0.336184
1.356                    0.87141        0.332633
1.357                    0.87281        0.329075
1.358                   0.874195         0.32551
1.359                   0.875565        0.321936
1.36                     0.87692        0.318356
1.361                    0.87826        0.314768
1.362                   0.879585        0.311172
1.363                   0.880894         0.30757
1.364                   0.882188         0.30396
1.365                   0.883466        0.300344
1.366                   0.884729        0.296721
1.367                   0.885976        0.293091
1.368                   0.887207        0.289454
1.369                   0.888422        0.285811
1.37                    0.889622        0.282161
1.371                   0.890805        0.278505
1.372                   0.891972        0.274843
1.373                   0.893124        0.271175
1.374                   0.894259        0.267501
1.375                   0.895378        0.263822
1.376                   0.896481        0.260136
1.377                   0.897567        0.256445
1.378                   0.898637        0.252749
1.379                   0.899691        0.249048
1.38                    0.900728        0.245341
1.381                   0.901749         0.24163
1.382                   0.902754        0.237914
1.383                   0.903743        0.234193
1.384                   0.904715        0.230467
1.385                   0.905671        0.226737
1.386                    0.90661        0.223003
1.387                   0.907533        0.219265
1.388                    0.90844        0.215522
1.389                   0.909331        0.211775
1.39                    0.910205        0.208025
1.391                   0.911064         0.20427
1.392                   0.911906        0.200512
1.393                   0.912732        0.196751
1.394                   0.913542        0.192986
1.395                   0.914337        0.189217
1.396                   0.915115        0.185445
1.397                   0.915877         0.18167
1.398                   0.916624        0.177891
1.399                   0.917355        0.174109
1.4                      0.91807        0.170324
1.401                    0.91877        0.166536
1.402                   0.919454        0.162745
1.403                   0.920123         0.15895
1.404                   0.920776        0.155153
1.405                   0.921414        0.151352
1.406                   0.922036        0.147549
1.407                   0.922643        0.143742
1.408                   0.923235        0.139932
1.409                   0.923812        0.136119
1.41                    0.924373        0.132303
1.411                   0.924919        0.128483
1.412                   0.925451        0.124661
1.413                   0.925967        0.120834
1.414                   0.926468        0.117005
1.415                   0.926953        0.113172
1.416                   0.927424        0.109336
1.417                    0.92788        0.105496
1.418                    0.92832        0.101653
1.419                   0.928745       0.0978053
1.42                    0.929155       0.0939542
1.421                   0.929549       0.0900992
1.422                   0.929929       0.0862402
1.423                   0.930292       0.0823772
1.424                   0.930641         0.07851
1.425                   0.930973       0.0746386
1.426                    0.93129       0.0707628
1.427                   0.931591       0.0668826
1.428                   0.931876       0.0629979
1.429                   0.932144       0.0591086
1.43                    0.932397       0.0552147
1.431                   0.932633        0.051316
1.432                   0.932852       0.0474125
1.433                   0.933054       0.0435042
1.434                   0.933239       0.0395909
1.435                   0.933407       0.0356727
1.436                   0.933557       0.0317494
1.437                    0.93369       0.0278212
1.438                   0.933804       0.0238878
1.439                     0.9339       0.0199494
1.44                    0.933978        0.016006
1.441                   0.934036       0.0120575
1.442                   0.934076      0.00810398
1.443                   0.934096       0.0041455
1.444                   0.934096     0.000182113
1.445                   0.934076     -0.00378612
1.446                   0.934036     -0.00775911
1.447                   0.933975      -0.0117367
1.448                   0.933892      -0.0157189
1.449                   0.933789      -0.0197055
1.45                    0.933664      -0.0236962
1.451                   0.933516      -0.0276911
1.452                   0.933346      -0.0316898
1.453                   0.933153      -0.0356922
1.454                   0.932938      -0.0396979
1.455                   0.932698      -0.0437069
1.456                   0.932435      -0.0477187
1.457                   0.932148      -0.0517331
1.458                   0.931836      -0.0557498
1.459                   0.931499      -0.0597685
1.46                    0.931137      -0.0637887
1.461                   0.930749      -0.0678102
1.462                   0.930336      -0.0718325
1.463                   0.929897      -0.0758552
1.464                   0.929431      -0.0798779
1.465                   0.928939      -0.0839002
1.466                    0.92842      -0.0879214
1.467                   0.927874      -0.0919413
1.468                     0.9273      -0.0959592
1.469                   0.926699      -0.0999746
1.47                     0.92607       -0.103987
1.471                   0.925413       -0.107996
1.472                   0.924728       -0.112001
1.473                   0.924014       -0.116001
1.474                   0.923273       -0.119995
1.475                   0.922503       -0.123984
1.476                   0.921704       -0.127966
1.477                   0.920877       -0.131941
1.478                   0.920022       -0.135908
1.479                   0.919138       -0.139866
1.48                    0.918225       -0.143816
1.481                   0.917284       -0.147755
1.482                   0.916315       -0.151684
1.483                   0.915317       -0.155602
1.484                   0.914292       -0.159508
1.485                   0.913238       -0.163401
1.486                   0.912157       -0.167281
1.487                   0.911048       -0.171147
1.488                   0.909913       -0.174999
1.489                    0.90875       -0.178835
1.49                    0.907561       -0.182656
1.491                   0.906346        -0.18646
1.492                   0.905105       -0.190246
1.493                   0.903838       -0.194015
1.494                   0.902547       -0.197765
1.495                   0.901231       -0.201497
1.496                   0.899892       -0.205208
1.497                   0.898528       -0.208899
1.498                   0.897142        -0.21257
1.499                   0.895734       -0.216219
1.5                     0.894304       -0.219846
1.501                   0.892854       -0.223451
1.502                   0.891382       -0.227034
1.503                   0.889891       -0.230592
1.504                   0.888381       -0.234128
1.505                   0.886853       -0.237639
1.506                   0.885308       -0.241126
1.507                   0.883745       -0.244588
1.508                   0.882167       -0.248025
1.509                   0.880573       -0.251436
1.51                    0.878965       -0.254822
1.511                   0.877344       -0.258183
1.512                    0.87571       -0.261517
1.513                   0.874064       -0.264825
1.514                   0.872407       -0.268108
1.515                    0.87074       -0.271364
1.516                   0.869063       -0.274593
1.517                   0.867378       -0.277797
1.518                   0.865685       -0.280974
1.519                   0.863986       -0.284125
1.52                     0.86228        -0.28725
1.521                    0.86057       -0.290349
1.522                   0.858855       -0.293423
1.523                   0.857137       -0.296471
1.524                   0.855417       -0.299494
1.525                   0.853695       -0.302492
1.526                   0.851972       -0.305466
1.527                   0.850249       -0.308416
1.528                   0.848526       -0.311342
1.529                   0.846805       -0.314244
1.53                    0.845086       -0.317124
1.531                    0.84337       -0.319982
1.532                   0.841657       -0.322817
1.533                   0.839949       -0.325632
1.534                   0.838246       -0.328426
1.535                   0.836547         -0.3312
1.536                   0.834855       -0.333955
1.537                    0.83317       -0.336691
1.538                   0.831491       -0.339409
1.539                   0.829821       -0.342109
1.54                    0.828158       -0.344794
1.541                   0.826503       -0.347462
1.542                   0.824858       -0.350116
1.543                   0.823222       -0.352755
1.544                   0.821595       -0.355381
1.545                   0.819978       -0.357995
1.546                   0.818371       -0.360596
1.547                   0.816774       -0.363187
1.548                   0.815187       -0.365768
1.549                   0.813611       -0.368339
1.55                    0.812046       -0.370903
1.551                   0.810491       -0.373458
1.552                   0.808946       -0.376007
1.553                   0.807413        -0.37855
1.554                   0.805889       -0.381088
1.555                   0.804376       -0.383622
1.556                   0.802874       -0.386152
1.557                   0.801381        -0.38868
1.558                   0.799898       -0.391206
1.559                   0.798425       -0.393731
1.56                     0.79696       -0.396256
1.561                   0.795505       -0.398781
1.562                   0.794058       -0.401308
1.563                   0.792619       -0.403836
1.564                   0.791188       -0.406367
1.565                   0.789764       -0.408902
1.566                   0.788347        -0.41144
1.567                   0.786936       -0.413983
1.568                   0.785531        -0.41653
1.569                   0.784131       -0.419084
1.57                    0.782735       -0.421643
1.571                   0.781343       -0.424209
1.572                   0.779954       -0.426783
1.573                   0.778569       -0.429363
1.574                   0.777185       -0.431952
1.575                   0.775802       -0.434549
1.576                   0.774419       -0.437154
1.577                   0.773037       -0.439768
1.578                   0.771654       -0.442391
1.579                   0.770269       -0.445024
1.58                    0.768882       -0.447665
1.581                   0.767491       -0.450317
1.582                   0.766097       -0.452978
1.583                   0.764699       -0.455649
1.584                   0.763295       -0.458329
1.585                   0.761886       -0.461019
1.586                   0.760469       -0.463719
1.587                   0.759046       -0.466429
1.588                   0.757614       -0.469147
1.589                   0.756174       -0.471876
1.59                    0.754724       -0.474613
1.591                   0.753264       -0.477359
1.592                   0.751793       -0.480114
1.593                   0.750311       -0.482877
1.594                   0.748816       -0.485649
1.595                    0.74731       -0.488428
1.596                    0.74579       -0.491214
1.597                   0.744257       -0.494008
1.598                   0.742709       -0.496808
1.599                   0.741147       -0.499614
1.6                     0.739569       -0.502426
1.601                   0.737976       -0.505244
1.602                   0.736367       -0.508066
1.603                   0.734742       -0.510892
1.604                   0.733099       -0.513722
1.605                    0.73144       -0.516555
1.606                   0.729763       -0.519391
1.607                   0.728069       -0.522229
1.608                   0.726357       -0.525068
1.609                   0.724627       -0.527908
1.61                    0.722878       -0.530749
1.611                   0.721111        -0.53359
1.612                   0.719326        -0.53643
1.613                   0.717522       -0.539268
1.614                   0.715699       -0.542105
1.615                   0.713858        -0.54494
1.616                   0.711998       -0.547771
1.617                    0.71012       -0.550599
1.618                   0.708223       -0.553422
1.619                   0.706307       -0.556241
1.62                    0.704373       -0.559055
1.621                   0.702421       -0.561863
1.622                   0.700451       -0.564665
1.623                   0.698463       -0.567461
1.624                   0.696458       -0.570249
1.625                   0.694435        -0.57303
1.626                   0.692395       -0.575803
1.627                   0.690337       -0.578567
1.628                   0.688264       -0.581323
1.629                   0.686174       -0.584069
1.63                    0.684068       -0.586806
1.631                   0.681947       -0.589534
1.632                    0.67981       -0.592251
1.633                   0.677658       -0.594958
1.634                   0.675492       -0.597654
1.635                   0.673312        -0.60034
1.636                   0.671117       -0.603014
1.637                    0.66891       -0.605677
1.638                   0.666689       -0.608329
1.639                   0.664456        -0.61097
1.64                     0.66221       -0.613599
1.641                   0.659953       -0.616216
1.642                   0.657683       -0.618821
1.643                   0.655403       -0.621415
1.644                   0.653112       -0.623997
1.645                   0.650811       -0.626567
1.646                     0.6485       -0.629125
1.647                   0.646179       -0.631672
1.648                   0.643848       -0.634208
1.649                   0.641509       -0.636732
1.65                    0.639161       -0.639244
1.651                   0.636805       -0.641745
1.652                    0.63444       -0.644235
1.653                   0.632068       -0.646714
1.654                   0.629688       -0.649183
1.655                   0.627301       -0.651641
1.656                   0.624906       -0.654088
1.657                   0.622505       -0.656526
1.658                   0.620097       -0.658953
1.659                   0.617682       -0.661371
1.66                    0.615261        -0.66378
1.661                   0.612834       -0.666179
1.662                     0.6104       -0.668569
1.663                   0.607961       -0.670951
1.664                   0.605515       -0.673324
1.665                   0.603064       -0.675689
1.666                   0.600606       -0.678046
1.667                   0.598143       -0.680395
1.668                   0.595673       -0.682737
1.669                   0.593198       -0.685072
1.67                    0.590716         -0.6874
1.671                   0.588229       -0.689722
1.672                   0.585735       -0.692037
1.673                   0.583235       -0.694345
1.674                   0.580729       -0.696648
1.675                   0.578216       -0.698945
1.676                   0.575696       -0.701236
1.677                    0.57317       -0.703522
1.678                   0.570636       -0.705803
1.679                   0.568096       -0.708078
1.68                    0.565548       -0.710349
1.681                   0.562992       -0.712615
1.682                   0.560429       -0.714876
1.683                   0.557857       -0.717133
1.684                   0.555277       -0.719385
1.685                   0.552689       -0.721633
1.686                   0.550092       -0.723876
1.687                   0.547485       -0.726115
1.688                    0.54487       -0.728349
1.689                   0.542245        -0.73058
1.69                     0.53961       -0.732805
1.691                   0.536965       -0.735027
1.692                   0.534309       -0.737244
1.693                   0.531643       -0.739457
1.694                   0.528966       -0.741664
1.695                   0.526278       -0.743868
1.696                   0.523579       -0.746066
1.697                   0.520868        -0.74826
1.698                   0.518146       -0.750448
1.699                   0.515411       -0.752631
1.7                     0.512664       -0.754809
1.701                   0.509904       -0.756981
1.702                   0.507132       -0.759147
1.703                   0.504347       -0.761307
1.704                   0.501549       -0.763461
1.705                   0.498737       -0.765609
1.706                   0.495912       -0.767749
1.707                   0.493074       -0.769883
1.708                   0.490221        -0.77201
1.709                   0.487356       -0.774129
1.71                    0.484476        -0.77624
1.711                   0.481582       -0.778343
1.712                   0.478675       -0.780438
1.713                   0.475752       -0.782524
1.714                   0.472817       -0.784601
1.715                   0.469866       -0.786669
1.716                   0.466902       -0.788728
1.717                   0.463923       -0.790776
1.718                    0.46093       -0.792815
1.719                   0.457923       -0.794843
1.72                    0.454902       -0.796861
1.721                   0.451867       -0.798867
1.722                   0.448817       -0.800863
1.723                   0.445754       -0.802847
1.724                   0.442677       -0.804819
1.725                   0.439586       -0.806779
1.726                   0.436481       -0.808727
1.727                   0.433363       -0.810663
1.728                   0.430231       -0.812585
1.729                   0.427086       -0.814495
1.73                    0.423928       -0.816392
1.731                   0.420757       -0.818275
1.732                   0.417573       -0.820144
1.733                   0.414377          -0.822
1.734                   0.411167       -0.823842
1.735                   0.407946       -0.825669
1.736                   0.404712       -0.827483
1.737                   0.401466       -0.829282
1.738                   0.398209       -0.831066
1.739                    0.39494       -0.832836
1.74                    0.391659       -0.834591
1.741                   0.388367        -0.83633
1.742                   0.385065       -0.838055
1.743                   0.381751       -0.839765
1.744                   0.378426        -0.84146
1.745                   0.375091       -0.843139
1.746                   0.371746       -0.844803
1.747                    0.36839       -0.846452
1.748                   0.365025       -0.848086
1.749                   0.361648       -0.849704
1.75                    0.358263       -0.851307
1.751                   0.354868       -0.852894
1.752                   0.351463       -0.854466
1.753                    0.34805       -0.856023
1.754                   0.344626       -0.857564
1.755                   0.341194        -0.85909
1.756                   0.337752         -0.8606
1.757                   0.334302       -0.862095
1.758                   0.330843       -0.863575
1.759                   0.327374       -0.865039
1.76                    0.323897       -0.866488
1.761                   0.320411       -0.867922
1.762                   0.316917        -0.86934
1.763                   0.313414       -0.870743
1.764                   0.309902       -0.872131
1.765                   0.306382       -0.873504
1.766                   0.302853       -0.874861
1.767                   0.299315       -0.876204
1.768                   0.295768       -0.877531
1.769                   0.292213       -0.878842
1.77                    0.288649       -0.880139
1.771                   0.285076        -0.88142
1.772                   0.281495       -0.882685
1.773                   0.277905       -0.883936
1.774                   0.274305       -0.885171
1.775                   0.270696        -0.88639
1.776                   0.267079       -0.887594
1.777                   0.263452       -0.888782
1.778                   0.259816       -0.889955
1.779                   0.256171       -0.891111
1.78                    0.252516       -0.892252
1.781                   0.248851       -0.893376
1.782                   0.245177       -0.894484
1.783                   0.241493       -0.895575
1.784                     0.2378        -0.89665
1.785                   0.234097       -0.897708
1.786                   0.230383       -0.898749
1.787                   0.226659       -0.899772
1.788                   0.222926       -0.900778
1.789                   0.219182       -0.901767
1.79                    0.215429       -0.902737
1.791                   0.211665       -0.903689
1.792                   0.207891       -0.904622
1.793                   0.204106       -0.905536
1.794                   0.200311       -0.906431
1.795                   0.196506       -0.907307
1.796                    0.19269       -0.908163
1.797                   0.188864       -0.908998
1.798                   0.185028       -0.909813
1.799                   0.181181       -0.910607
1.8                     0.177325       -0.911379
1.801                   0.173458       -0.912129
1.802                   0.169582       -0.912858
1.803                   0.165695       -0.913564
1.804                   0.161799       -0.914247
1.805                   0.157894       -0.914907
1.806                   0.153979       -0.915543
1.807                   0.150055       -0.916154
1.808                   0.146122       -0.916741
1.809                   0.142181       -0.917303
1.81                     0.13823        -0.91784
1.811                   0.134272        -0.91835
1.812                   0.130306       -0.918835
1.813                   0.126332       -0.919292
1.814                   0.122351       -0.919723
1.815                   0.118363       -0.920126
1.816                    0.11437         -0.9205
1.817                   0.110369       -0.920847
1.818                   0.106364       -0.921165
1.819                   0.102353       -0.921453
1.82                   0.0983379       -0.921713
1.821                   0.094318       -0.921942
1.822                  0.0902948       -0.922142
1.823                  0.0862689        -0.92231
1.824                  0.0822401       -0.922448
1.825                   0.078209       -0.922555
1.826                  0.0741773       -0.922631
1.827                  0.0701446       -0.922675
1.828                  0.0661118       -0.922687
1.829                   0.062079       -0.922667
1.83                   0.0580478       -0.922615
1.831                  0.0540189        -0.92253
1.832                  0.0499922       -0.922413
1.833                  0.0459684       -0.922263
1.834                  0.0419494        -0.92208
1.835                  0.0379351       -0.921865
1.836                  0.0339253       -0.921616
1.837                  0.0299225       -0.921335
1.838                  0.0259266       -0.921021
1.839                  0.0219382       -0.920674
1.84                   0.0179584       -0.920294
1.841                  0.0139881       -0.919881
1.842                  0.0100273       -0.919436
1.843                 0.00607784       -0.918958
1.844                 0.00213936       -0.918448
1.845                -0.00178653       -0.917906
1.846                 -0.0056989       -0.917332
1.847                -0.00959774       -0.916726
1.848                 -0.0134817       -0.916089
1.849                 -0.0173504       -0.915422
1.85                  -0.0212027       -0.914724
1.851                 -0.0250384       -0.913995
1.852                 -0.0288563       -0.913237
1.853                  -0.032656        -0.91245
1.854                 -0.0364367       -0.911634
1.855                 -0.0401974       -0.910789
1.856                 -0.0439379       -0.909917
1.857                 -0.0476572       -0.909018
1.858                 -0.0513549       -0.908092
1.859                 -0.0550301        -0.90714
1.86                  -0.0586826       -0.906163
1.861                 -0.0623116       -0.905161
1.862                 -0.0659166       -0.904136
1.863                 -0.0694969       -0.903087
1.864                 -0.0730522       -0.902015
1.865                  -0.076582       -0.900922
1.866                 -0.0800858       -0.899808
1.867                 -0.0835632       -0.898674
1.868                 -0.0870139        -0.89752
1.869                 -0.0904374       -0.896348
1.87                  -0.0938335       -0.895158
1.871                 -0.0972015       -0.893952
1.872                  -0.100542       -0.892729
1.873                  -0.103854       -0.891492
1.874                  -0.107138        -0.89024
1.875                  -0.110393       -0.888975
1.876                  -0.113619       -0.887698
1.877                  -0.116816        -0.88641
1.878                  -0.119985       -0.885111
1.879                  -0.123125       -0.883803
1.88                   -0.126235       -0.882486
1.881                  -0.129317       -0.881161
1.882                  -0.132371       -0.879829
1.883                  -0.135395       -0.878492
1.884                  -0.138392        -0.87715
1.885                   -0.14136       -0.875804
1.886                    -0.1443       -0.874455
1.887                  -0.147212       -0.873103
1.888                  -0.150097        -0.87175
1.889                  -0.152956       -0.870397
1.89                   -0.155787       -0.869044
1.891                  -0.158592       -0.867693
1.892                  -0.161371       -0.866343
1.893                  -0.164125       -0.864996
1.894                  -0.166854       -0.863653
1.895                  -0.169559       -0.862314
1.896                  -0.172241        -0.86098
1.897                  -0.174899       -0.859652
1.898                  -0.177534       -0.858331
1.899                  -0.180148       -0.857017
1.9                    -0.182741        -0.85571
1.901                  -0.185313       -0.854412
1.902                  -0.187866       -0.853122
1.903                    -0.1904       -0.851842
1.904                  -0.192915       -0.850572
1.905                  -0.195413       -0.849312
1.906                  -0.197895       -0.848064
1.907                  -0.200361       -0.846826
1.908                  -0.202812         -0.8456
1.909                  -0.205249       -0.844385
1.91                   -0.207672       -0.843183
1.911                  -0.210084       -0.841993
1.912                  -0.212484       -0.840816
1.913                  -0.214873       -0.839651
1.914                  -0.217253       -0.838499
1.915                  -0.219623        -0.83736
1.916                  -0.221986       -0.836234
1.917                  -0.224342       -0.835121
1.918                  -0.226692       -0.834021
1.919                  -0.229036       -0.832934
1.92                   -0.231376       -0.831859
1.921                  -0.233713       -0.830797
1.922                  -0.236046       -0.829748
1.923                  -0.238378        -0.82871
1.924                  -0.240708       -0.827684
1.925                  -0.243039        -0.82667
1.926                   -0.24537       -0.825667
1.927                  -0.247702       -0.824675
1.928                  -0.250036       -0.823694
1.929                  -0.252373       -0.822722
1.93                   -0.254713        -0.82176
1.931                  -0.257058       -0.820807
1.932                  -0.259407       -0.819862
1.933                  -0.261761       -0.818925
1.934                  -0.264122       -0.817995
1.935                  -0.266488       -0.817072
1.936                  -0.268862       -0.816156
1.937                  -0.271244       -0.815244
1.938                  -0.273633       -0.814338
1.939                   -0.27603       -0.813435
1.94                   -0.278436       -0.812536
1.941                  -0.280851       -0.811639
1.942                  -0.283275       -0.810745
1.943                  -0.285709       -0.809851
1.944                  -0.288153       -0.808958
1.945                  -0.290606       -0.808064
1.946                   -0.29307       -0.807169
1.947                  -0.295544       -0.806273
1.948                  -0.298028       -0.805374
1.949                  -0.300522       -0.804471
1.95                   -0.303027       -0.803564
1.951                  -0.305541       -0.802652
1.952                  -0.308066       -0.801735
1.953                  -0.310601       -0.800811
1.954                  -0.313146        -0.79988
1.955                    -0.3157       -0.798941
1.956                  -0.318263       -0.797994
1.957                  -0.320836       -0.797037
1.958                  -0.323417       -0.796071
1.959                  -0.326007       -0.795094
1.96                   -0.328605       -0.794106
1.961                   -0.33121       -0.793106
1.962                  -0.333823       -0.792094
1.963                  -0.336442        -0.79107
1.964                  -0.339068       -0.790032
1.965                  -0.341699        -0.78898
1.966                  -0.344336       -0.787914
1.967                  -0.346977       -0.786833
1.968                  -0.349622       -0.785738
1.969                  -0.352271       -0.784627
1.97                   -0.354923         -0.7835
1.971                  -0.357577       -0.782357
1.972                  -0.360233       -0.781199
1.973                  -0.362889       -0.780024
1.974                  -0.365546       -0.778832
1.975                  -0.368203       -0.777624
1.976                  -0.370859       -0.776399
1.977                  -0.373513       -0.775157
1.978                  -0.376165       -0.773898
1.979                  -0.378815       -0.772622
1.98                    -0.38146        -0.77133
1.981                  -0.384102       -0.770021
1.982                  -0.386739       -0.768696
1.983                   -0.38937       -0.767354
1.984                  -0.391996       -0.765996
1.985                  -0.394615       -0.764622
1.986                  -0.397227       -0.763232
1.987                  -0.399831       -0.761827
1.988                  -0.402427       -0.760407
1.989                  -0.405015       -0.758972
1.99                   -0.407593       -0.757522
1.991                  -0.410162       -0.756059
1.992                  -0.412721       -0.754583
1.993                  -0.415269       -0.753093
1.994                  -0.417807        -0.75159
1.995                  -0.420333       -0.750076
1.996                  -0.422848        -0.74855
1.997                  -0.425351       -0.747012
1.998                  -0.427843       -0.745464
1.999                  -0.430322       -0.743907
2                      -0.432789       -0.742339
