! TOUCHSTONE file generated by CST MICROWAVE STUDIO
! Date and time: Sun Aug  2 11:31:15 2026
! Project name: Sonda-Coaxial_21mm_DisifixB_v2_Alchol - Isopropilico.cst
! Parameters = {h_recipiente=20; l_conector=50; r_arandela=35; r_ext=10.5; r_int=3; r_recipiente=100; z_recipiente=-100}
! Header version: 2018
! Port assignment regex: !\s*Touchstone port\s*([0-9]+)\s*=\s*(CST MWS port|CST DS port)\s*([0-9]+|Zmin|Zmax)\s*\(\"(.*)\"\)(\s*mode\s*([0-9]+))?.*
! Touchstone port assignment:
! Touchstone port 1 = CST MWS port 1 ("")
# GHz S RI R 50
0.001                   0.931695     -0.00572124
0.002                    0.93171      -0.0114392
0.003                   0.931737      -0.0171505
0.004                   0.931772      -0.0228521
0.005                   0.931815      -0.0285409
0.006                   0.931865      -0.0342139
0.007                   0.931921      -0.0398683
0.008                   0.931981      -0.0455017
0.009                   0.932042      -0.0511116
0.01                    0.932103      -0.0566961
0.011                   0.932161      -0.0622531
0.012                   0.932215      -0.0677812
0.013                   0.932261      -0.0732789
0.014                   0.932298      -0.0787453
0.015                   0.932322      -0.0841793
0.016                   0.932333      -0.0895804
0.017                   0.932327      -0.0949482
0.018                   0.932302       -0.100283
0.019                   0.932257       -0.105583
0.02                    0.932188        -0.11085
0.021                   0.932095       -0.116085
0.022                   0.931976       -0.121286
0.023                   0.931828       -0.126455
0.024                    0.93165       -0.131593
0.025                   0.931442       -0.136699
0.026                   0.931201       -0.141776
0.027                   0.930927       -0.146823
0.028                   0.930619       -0.151841
0.029                   0.930276       -0.156832
0.03                    0.929896       -0.161796
0.031                    0.92948       -0.166734
0.032                   0.929027       -0.171646
0.033                   0.928537       -0.176535
0.034                   0.928008       -0.181399
0.035                   0.927442       -0.186241
0.036                   0.926837       -0.191061
0.037                   0.926193       -0.195859
0.038                   0.925512       -0.200637
0.039                   0.924791       -0.205394
0.04                    0.924032       -0.210132
0.041                   0.923234       -0.214852
0.042                   0.922399       -0.219553
0.043                   0.921525       -0.224236
0.044                   0.920612       -0.228901
0.045                   0.919663        -0.23355
0.046                   0.918675       -0.238182
0.047                   0.917651       -0.242797
0.048                   0.916589       -0.247397
0.049                   0.915491       -0.251981
0.05                    0.914356       -0.256549
0.051                   0.913185       -0.261103
0.052                   0.911978       -0.265641
0.053                   0.910735       -0.270164
0.054                   0.909458       -0.274673
0.055                   0.908146       -0.279167
0.056                   0.906799       -0.283646
0.057                   0.905417       -0.288112
0.058                   0.904002       -0.292562
0.059                   0.902554       -0.296999
0.06                    0.901072       -0.301421
0.061                   0.899557       -0.305829
0.062                    0.89801       -0.310223
0.063                   0.896431       -0.314602
0.064                   0.894819       -0.318968
0.065                   0.893176       -0.323319
0.066                   0.891502       -0.327655
0.067                   0.889797       -0.331977
0.068                   0.888061       -0.336285
0.069                   0.886295       -0.340578
0.07                    0.884498       -0.344856
0.071                   0.882672        -0.34912
0.072                   0.880817       -0.353369
0.073                   0.878932       -0.357603
0.074                   0.877019       -0.361822
0.075                   0.875077       -0.366026
0.076                   0.873106       -0.370214
0.077                   0.871108       -0.374387
0.078                   0.869082       -0.378545
0.079                   0.867028       -0.382687
0.08                    0.864947       -0.386814
0.081                    0.86284       -0.390924
0.082                   0.860705       -0.395019
0.083                   0.858544       -0.399098
0.084                   0.856357        -0.40316
0.085                   0.854145       -0.407206
0.086                   0.851906       -0.411235
0.087                   0.849643       -0.415248
0.088                   0.847354       -0.419244
0.089                    0.84504       -0.423223
0.09                    0.842701       -0.427186
0.091                   0.840339       -0.431131
0.092                   0.837952       -0.435058
0.093                   0.835541       -0.438969
0.094                   0.833106       -0.442861
0.095                   0.830649       -0.446736
0.096                   0.828167       -0.450594
0.097                   0.825664       -0.454433
0.098                   0.823137       -0.458254
0.099                   0.820588       -0.462057
0.1                     0.818016       -0.465841
0.101                   0.815423       -0.469608
0.102                   0.812808       -0.473355
0.103                   0.810171       -0.477084
0.104                   0.807513       -0.480794
0.105                   0.804834       -0.484485
0.106                   0.802134       -0.488157
0.107                   0.799413       -0.491809
0.108                   0.796672       -0.495443
0.109                   0.793911       -0.499056
0.11                    0.791129       -0.502651
0.111                   0.788328       -0.506225
0.112                   0.785508        -0.50978
0.113                   0.782668       -0.513315
0.114                   0.779809        -0.51683
0.115                   0.776931       -0.520325
0.116                   0.774034         -0.5238
0.117                   0.771119       -0.527254
0.118                   0.768186       -0.530688
0.119                   0.765235       -0.534101
0.12                    0.762266       -0.537494
0.121                   0.759279       -0.540866
0.122                   0.756275       -0.544217
0.123                   0.753254       -0.547547
0.124                   0.750216       -0.550857
0.125                    0.74716       -0.554145
0.126                   0.744089       -0.557412
0.127                   0.741001       -0.560658
0.128                   0.737898       -0.563883
0.129                   0.734778       -0.567086
0.13                    0.731643       -0.570267
0.131                   0.728492       -0.573427
0.132                   0.725326       -0.576566
0.133                   0.722145       -0.579683
0.134                   0.718949       -0.582778
0.135                   0.715738       -0.585851
0.136                   0.712513       -0.588902
0.137                   0.709274       -0.591931
0.138                    0.70602       -0.594938
0.139                   0.702753       -0.597923
0.14                    0.699473       -0.600886
0.141                   0.696179       -0.603827
0.142                   0.692871       -0.606745
0.143                   0.689551       -0.609642
0.144                   0.686218       -0.612515
0.145                   0.682872       -0.615367
0.146                   0.679514       -0.618195
0.147                   0.676144       -0.621002
0.148                   0.672762       -0.623786
0.149                   0.669368       -0.626547
0.15                    0.665963       -0.629285
0.151                   0.662546       -0.632001
0.152                   0.659118       -0.634695
0.153                   0.655679       -0.637365
0.154                   0.652229       -0.640012
0.155                   0.648769       -0.642637
0.156                   0.645298       -0.645239
0.157                   0.641817       -0.647818
0.158                   0.638327       -0.650374
0.159                   0.634826       -0.652908
0.16                    0.631316       -0.655418
0.161                   0.627796       -0.657905
0.162                   0.624267        -0.66037
0.163                    0.62073       -0.662811
0.164                   0.617183        -0.66523
0.165                   0.613628       -0.667625
0.166                   0.610064       -0.669998
0.167                   0.606492       -0.672347
0.168                   0.602912       -0.674674
0.169                   0.599324       -0.676977
0.17                    0.595729       -0.679257
0.171                   0.592126       -0.681515
0.172                   0.588516       -0.683749
0.173                   0.584899        -0.68596
0.174                   0.581274       -0.688148
0.175                   0.577643       -0.690313
0.176                   0.574006       -0.692455
0.177                   0.570362       -0.694574
0.178                   0.566712        -0.69667
0.179                   0.563056       -0.698743
0.18                    0.559394       -0.700794
0.181                   0.555726       -0.702821
0.182                   0.552053       -0.704825
0.183                   0.548375       -0.706806
0.184                   0.544691       -0.708764
0.185                   0.541003         -0.7107
0.186                    0.53731       -0.712612
0.187                   0.533612       -0.714502
0.188                    0.52991       -0.716369
0.189                   0.526204       -0.718213
0.19                    0.522493       -0.720034
0.191                   0.518779       -0.721833
0.192                   0.515061       -0.723609
0.193                    0.51134       -0.725362
0.194                   0.507615       -0.727092
0.195                   0.503887         -0.7288
0.196                   0.500156       -0.730486
0.197                   0.496422       -0.732149
0.198                   0.492685       -0.733789
0.199                   0.488946       -0.735407
0.2                     0.485204       -0.737002
0.201                    0.48146       -0.738575
0.202                   0.477714       -0.740126
0.203                   0.473966       -0.741655
0.204                   0.470217       -0.743161
0.205                   0.466466       -0.744645
0.206                   0.462713       -0.746107
0.207                   0.458959       -0.747547
0.208                   0.455204       -0.748965
0.209                   0.451448       -0.750361
0.21                    0.447692       -0.751736
0.211                   0.443934       -0.753088
0.212                   0.440176       -0.754418
0.213                   0.436418       -0.755727
0.214                    0.43266       -0.757014
0.215                   0.428901       -0.758279
0.216                   0.425143       -0.759523
0.217                   0.421385       -0.760745
0.218                   0.417627       -0.761946
0.219                    0.41387       -0.763126
0.22                    0.410113       -0.764284
0.221                   0.406357       -0.765421
0.222                   0.402602       -0.766536
0.223                   0.398849       -0.767631
0.224                   0.395096       -0.768705
0.225                   0.391345       -0.769757
0.226                   0.387595       -0.770789
0.227                   0.383847         -0.7718
0.228                   0.380101        -0.77279
0.229                   0.376356        -0.77376
0.23                    0.372614       -0.774709
0.231                   0.368873       -0.775637
0.232                   0.365135       -0.776545
0.233                   0.361399       -0.777432
0.234                   0.357666         -0.7783
0.235                   0.353936       -0.779147
0.236                   0.350208       -0.779974
0.237                   0.346483        -0.78078
0.238                   0.342762       -0.781567
0.239                   0.339043       -0.782334
0.24                    0.335327       -0.783081
0.241                   0.331616       -0.783809
0.242                   0.327907       -0.784516
0.243                   0.324202       -0.785205
0.244                   0.320501       -0.785873
0.245                   0.316803       -0.786523
0.246                    0.31311       -0.787153
0.247                   0.309421       -0.787763
0.248                   0.305735       -0.788355
0.249                   0.302054       -0.788928
0.25                    0.298378       -0.789481
0.251                   0.294706       -0.790016
0.252                   0.291038       -0.790532
0.253                   0.287375       -0.791029
0.254                   0.283717       -0.791508
0.255                   0.280064       -0.791968
0.256                   0.276416        -0.79241
0.257                   0.272773       -0.792834
0.258                   0.269135       -0.793239
0.259                   0.265502       -0.793626
0.26                    0.261875       -0.793995
0.261                   0.258253       -0.794346
0.262                   0.254637       -0.794679
0.263                   0.251026       -0.794995
0.264                   0.247421       -0.795292
0.265                   0.243822       -0.795573
0.266                   0.240229       -0.795835
0.267                   0.236642       -0.796081
0.268                   0.233061       -0.796309
0.269                   0.229486        -0.79652
0.27                    0.225918       -0.796713
0.271                   0.222355        -0.79689
0.272                   0.218799        -0.79705
0.273                    0.21525       -0.797193
0.274                   0.211707        -0.79732
0.275                   0.208171       -0.797429
0.276                   0.204642       -0.797523
0.277                   0.201119       -0.797599
0.278                   0.197603        -0.79766
0.279                   0.194095       -0.797704
0.28                    0.190593       -0.797732
0.281                   0.187098       -0.797744
0.282                    0.18361       -0.797741
0.283                    0.18013       -0.797721
0.284                   0.176657       -0.797686
0.285                   0.173191       -0.797635
0.286                   0.169733       -0.797568
0.287                   0.166282       -0.797486
0.288                   0.162839       -0.797389
0.289                   0.159403       -0.797277
0.29                    0.155975       -0.797149
0.291                   0.152555       -0.797007
0.292                   0.149143       -0.796849
0.293                   0.145738       -0.796677
0.294                   0.142341        -0.79649
0.295                   0.138953       -0.796288
0.296                   0.135572       -0.796072
0.297                   0.132199       -0.795841
0.298                   0.128834       -0.795596
0.299                   0.125478       -0.795337
0.3                     0.122129       -0.795063
0.301                   0.118789       -0.794776
0.302                   0.115458       -0.794475
0.303                   0.112135       -0.794159
0.304                   0.108819       -0.793831
0.305                   0.105513       -0.793488
0.306                   0.102215       -0.793132
0.307                  0.0989251       -0.792762
0.308                  0.0956443       -0.792379
0.309                  0.0923717       -0.791983
0.31                   0.0891079       -0.791574
0.311                  0.0858528       -0.791151
0.312                  0.0826065       -0.790716
0.313                  0.0793689       -0.790268
0.314                    0.07614       -0.789807
0.315                    0.07292       -0.789333
0.316                  0.0697088       -0.788847
0.317                  0.0665067       -0.788349
0.318                  0.0633133       -0.787838
0.319                   0.060129       -0.787314
0.32                   0.0569533       -0.786779
0.321                  0.0537868       -0.786231
0.322                  0.0506295       -0.785672
0.323                  0.0474814         -0.7851
0.324                  0.0443419       -0.784517
0.325                  0.0412118       -0.783922
0.326                  0.0380909       -0.783315
0.327                  0.0349791       -0.782697
0.328                  0.0318764       -0.782068
0.329                  0.0287829       -0.781427
0.33                   0.0256986       -0.780775
0.331                  0.0226237       -0.780111
0.332                  0.0195578       -0.779437
0.333                  0.0165015       -0.778752
0.334                  0.0134542       -0.778056
0.335                  0.0104165       -0.777349
0.336                 0.00738788       -0.776631
0.337                 0.00436884       -0.775903
0.338                   0.001359       -0.775164
0.339                -0.00164126       -0.774415
0.34                 -0.00463227       -0.773655
0.341                -0.00761384       -0.772885
0.342                 -0.0105861       -0.772105
0.343                  -0.013549       -0.771315
0.344                 -0.0165023       -0.770515
0.345                 -0.0194461       -0.769705
0.346                 -0.0223808       -0.768885
0.347                 -0.0253057       -0.768056
0.348                 -0.0282213       -0.767217
0.349                 -0.0311273       -0.766368
0.35                  -0.0340239        -0.76551
0.351                 -0.0369109       -0.764642
0.352                 -0.0397884       -0.763766
0.353                 -0.0426566        -0.76288
0.354                 -0.0455153       -0.761984
0.355                 -0.0483646        -0.76108
0.356                  -0.051204       -0.760167
0.357                 -0.0540343       -0.759245
0.358                 -0.0568548       -0.758314
0.359                 -0.0596659       -0.757374
0.36                  -0.0624676       -0.756426
0.361                 -0.0652597       -0.755469
0.362                 -0.0680424       -0.754504
0.363                 -0.0708155        -0.75353
0.364                 -0.0735791       -0.752548
0.365                 -0.0763334       -0.751557
0.366                 -0.0790781       -0.750559
0.367                 -0.0818133       -0.749552
0.368                 -0.0845389       -0.748538
0.369                 -0.0872554       -0.747515
0.37                  -0.0899619       -0.746484
0.371                 -0.0926593       -0.745446
0.372                 -0.0953472         -0.7444
0.373                 -0.0980257       -0.743346
0.374                  -0.100695       -0.742285
0.375                  -0.103355       -0.741216
0.376                  -0.106005        -0.74014
0.377                  -0.108645       -0.739056
0.378                  -0.111277       -0.737966
0.379                  -0.113899       -0.736868
0.38                   -0.116512       -0.735762
0.381                  -0.119115        -0.73465
0.382                  -0.121709       -0.733531
0.383                  -0.124293       -0.732404
0.384                  -0.126869       -0.731271
0.385                  -0.129435       -0.730131
0.386                  -0.131991       -0.728984
0.387                  -0.134539       -0.727831
0.388                  -0.137077       -0.726671
0.389                  -0.139606       -0.725504
0.39                   -0.142125       -0.724332
0.391                  -0.144636       -0.723152
0.392                  -0.147137       -0.721966
0.393                  -0.149629       -0.720774
0.394                  -0.152112       -0.719576
0.395                  -0.154586       -0.718371
0.396                   -0.15705       -0.717161
0.397                  -0.159505       -0.715944
0.398                  -0.161952       -0.714721
0.399                  -0.164389       -0.713493
0.4                    -0.166817       -0.712258
0.401                  -0.169236       -0.711018
0.402                  -0.171646       -0.709772
0.403                  -0.174047        -0.70852
0.404                  -0.176439       -0.707263
0.405                  -0.178823          -0.706
0.406                  -0.181197       -0.704732
0.407                  -0.183562       -0.703458
0.408                  -0.185918       -0.702178
0.409                  -0.188266       -0.700894
0.41                   -0.190604       -0.699604
0.411                  -0.192934       -0.698309
0.412                  -0.195255       -0.697008
0.413                  -0.197567       -0.695703
0.414                   -0.19987       -0.694392
0.415                  -0.202164       -0.693076
0.416                   -0.20445       -0.691755
0.417                  -0.206727        -0.69043
0.418                  -0.208995       -0.689099
0.419                  -0.211255       -0.687764
0.42                   -0.213506       -0.686424
0.421                  -0.215748       -0.685079
0.422                  -0.217982       -0.683729
0.423                  -0.220207       -0.682375
0.424                  -0.222424       -0.681016
0.425                  -0.224632       -0.679652
0.426                  -0.226831       -0.678284
0.427                  -0.229022       -0.676912
0.428                  -0.231205       -0.675535
0.429                  -0.233379       -0.674154
0.43                   -0.235545       -0.672768
0.431                  -0.237702       -0.671378
0.432                  -0.239851       -0.669984
0.433                  -0.241992       -0.668586
0.434                  -0.244124       -0.667183
0.435                  -0.246248       -0.665777
0.436                  -0.248364       -0.664366
0.437                  -0.250471       -0.662951
0.438                   -0.25257       -0.661532
0.439                  -0.254661        -0.66011
0.44                   -0.256744       -0.658683
0.441                  -0.258819       -0.657252
0.442                  -0.260886       -0.655818
0.443                  -0.262944        -0.65438
0.444                  -0.264994       -0.652938
0.445                  -0.267037       -0.651492
0.446                  -0.269071       -0.650042
0.447                  -0.271097       -0.648589
0.448                  -0.273115       -0.647132
0.449                  -0.275126       -0.645672
0.45                   -0.277128       -0.644208
0.451                  -0.279123        -0.64274
0.452                  -0.281109       -0.641269
0.453                  -0.283088       -0.639795
0.454                  -0.285059       -0.638317
0.455                  -0.287022       -0.636836
0.456                  -0.288978       -0.635351
0.457                  -0.290925       -0.633863
0.458                  -0.292865       -0.632371
0.459                  -0.294797       -0.630877
0.46                   -0.296722       -0.629379
0.461                  -0.298638       -0.627878
0.462                  -0.300548       -0.626373
0.463                  -0.302449       -0.624866
0.464                  -0.304343       -0.623355
0.465                   -0.30623       -0.621842
0.466                  -0.308108       -0.620325
0.467                   -0.30998       -0.618805
0.468                  -0.311844       -0.617282
0.469                    -0.3137       -0.615756
0.47                   -0.315549       -0.614227
0.471                   -0.31739       -0.612695
0.472                  -0.319225        -0.61116
0.473                  -0.321051       -0.609623
0.474                  -0.322871       -0.608082
0.475                  -0.324683       -0.606539
0.476                  -0.326488       -0.604992
0.477                  -0.328285       -0.603443
0.478                  -0.330075       -0.601892
0.479                  -0.331858       -0.600337
0.48                   -0.333634        -0.59878
0.481                  -0.335403        -0.59722
0.482                  -0.337164       -0.595657
0.483                  -0.338918       -0.594091
0.484                  -0.340665       -0.592523
0.485                  -0.342406       -0.590952
0.486                  -0.344138       -0.589379
0.487                  -0.345864       -0.587803
0.488                  -0.347583       -0.586225
0.489                  -0.349295       -0.584644
0.49                      -0.351        -0.58306
0.491                  -0.352698       -0.581474
0.492                  -0.354389       -0.579885
0.493                  -0.356073       -0.578294
0.494                   -0.35775         -0.5767
0.495                   -0.35942       -0.575104
0.496                  -0.361083       -0.573506
0.497                   -0.36274       -0.571905
0.498                   -0.36439       -0.570302
0.499                  -0.366032       -0.568696
0.5                    -0.367668       -0.567088
0.501                  -0.369298       -0.565478
0.502                   -0.37092       -0.563865
0.503                  -0.372536        -0.56225
0.504                  -0.374145       -0.560633
0.505                  -0.375748       -0.559013
0.506                  -0.377343       -0.557392
0.507                  -0.378933       -0.555767
0.508                  -0.380515       -0.554141
0.509                  -0.382091       -0.552512
0.51                    -0.38366       -0.550882
0.511                  -0.385223       -0.549249
0.512                  -0.386779       -0.547614
0.513                  -0.388328       -0.545976
0.514                  -0.389871       -0.544337
0.515                  -0.391408       -0.542695
0.516                  -0.392938       -0.541051
0.517                  -0.394462       -0.539405
0.518                  -0.395979       -0.537757
0.519                  -0.397489       -0.536107
0.52                   -0.398993       -0.534455
0.521                  -0.400491       -0.532801
0.522                  -0.401983       -0.531144
0.523                  -0.403468       -0.529486
0.524                  -0.404946       -0.527825
0.525                  -0.406419       -0.526163
0.526                  -0.407884       -0.524498
0.527                  -0.409344       -0.522832
0.528                  -0.410798       -0.521163
0.529                  -0.412245       -0.519493
0.53                   -0.413685        -0.51782
0.531                   -0.41512       -0.516146
0.532                  -0.416548       -0.514469
0.533                   -0.41797       -0.512791
0.534                  -0.419386       -0.511111
0.535                  -0.420796       -0.509428
0.536                  -0.422199       -0.507744
0.537                  -0.423596       -0.506058
0.538                  -0.424987        -0.50437
0.539                  -0.426372        -0.50268
0.54                   -0.427751       -0.500988
0.541                  -0.429123       -0.499295
0.542                   -0.43049       -0.497599
0.543                  -0.431851       -0.495901
0.544                  -0.433205       -0.494202
0.545                  -0.434553       -0.492501
0.546                  -0.435895       -0.490798
0.547                  -0.437231       -0.489093
0.548                  -0.438561       -0.487387
0.549                  -0.439885       -0.485678
0.55                   -0.441204       -0.483968
0.551                  -0.442515       -0.482256
0.552                  -0.443821       -0.480542
0.553                  -0.445121       -0.478826
0.554                  -0.446416       -0.477109
0.555                  -0.447703        -0.47539
0.556                  -0.448985       -0.473669
0.557                  -0.450262       -0.471946
0.558                  -0.451532       -0.470222
0.559                  -0.452796       -0.468496
0.56                   -0.454054       -0.466768
0.561                  -0.455307       -0.465038
0.562                  -0.456553       -0.463307
0.563                  -0.457794       -0.461574
0.564                  -0.459028       -0.459839
0.565                  -0.460257       -0.458102
0.566                   -0.46148       -0.456364
0.567                  -0.462697       -0.454624
0.568                  -0.463908       -0.452883
0.569                  -0.465113        -0.45114
0.57                   -0.466312       -0.449395
0.571                  -0.467506       -0.447648
0.572                  -0.468694         -0.4459
0.573                  -0.469876        -0.44415
0.574                  -0.471052       -0.442399
0.575                  -0.472222       -0.440645
0.576                  -0.473386       -0.438891
0.577                  -0.474545       -0.437134
0.578                  -0.475698       -0.435376
0.579                  -0.476845       -0.433617
0.58                   -0.477986       -0.431855
0.581                  -0.479122       -0.430092
0.582                  -0.480251       -0.428328
0.583                  -0.481375       -0.426562
0.584                  -0.482493       -0.424795
0.585                  -0.483605       -0.423025
0.586                  -0.484712       -0.421255
0.587                  -0.485813       -0.419482
0.588                  -0.486908       -0.417709
0.589                  -0.487997       -0.415933
0.59                   -0.489081       -0.414156
0.591                  -0.490159       -0.412378
0.592                  -0.491231       -0.410598
0.593                  -0.492297       -0.408816
0.594                  -0.493358       -0.407033
0.595                  -0.494413       -0.405249
0.596                  -0.495462       -0.403463
0.597                  -0.496505       -0.401675
0.598                  -0.497543       -0.399886
0.599                  -0.498575       -0.398096
0.6                    -0.499601       -0.396304
0.601                  -0.500622        -0.39451
0.602                  -0.501637       -0.392716
0.603                  -0.502646       -0.390919
0.604                   -0.50365       -0.389121
0.605                  -0.504647       -0.387322
0.606                  -0.505639       -0.385521
0.607                  -0.506626       -0.383719
0.608                  -0.507607       -0.381916
0.609                  -0.508581       -0.380111
0.61                   -0.509551       -0.378305
0.611                  -0.510514       -0.376497
0.612                  -0.511472       -0.374688
0.613                  -0.512425       -0.372877
0.614                  -0.513371       -0.371066
0.615                  -0.514312       -0.369252
0.616                  -0.515247       -0.367438
0.617                  -0.516177       -0.365622
0.618                    -0.5171       -0.363804
0.619                  -0.518018       -0.361986
0.62                   -0.518931       -0.360166
0.621                  -0.519838       -0.358345
0.622                  -0.520739       -0.356522
0.623                  -0.521634       -0.354698
0.624                  -0.522524       -0.352873
0.625                  -0.523408       -0.351046
0.626                  -0.524286       -0.349219
0.627                  -0.525158        -0.34739
0.628                  -0.526025       -0.345559
0.629                  -0.526886       -0.343728
0.63                   -0.527742       -0.341895
0.631                  -0.528592       -0.340061
0.632                  -0.529436       -0.338226
0.633                  -0.530275       -0.336389
0.634                  -0.531107       -0.334551
0.635                  -0.531935       -0.332712
0.636                  -0.532756       -0.330872
0.637                  -0.533572       -0.329031
0.638                  -0.534382       -0.327189
0.639                  -0.535186       -0.325345
0.64                   -0.535985         -0.3235
0.641                  -0.536778       -0.321654
0.642                  -0.537565       -0.319807
0.643                  -0.538346       -0.317959
0.644                  -0.539122       -0.316109
0.645                  -0.539892       -0.314259
0.646                  -0.540657       -0.312407
0.647                  -0.541416       -0.310555
0.648                  -0.542169       -0.308701
0.649                  -0.542916       -0.306846
0.65                   -0.543658        -0.30499
0.651                  -0.544394       -0.303133
0.652                  -0.545124       -0.301275
0.653                  -0.545848       -0.299416
0.654                  -0.546567       -0.297556
0.655                   -0.54728       -0.295695
0.656                  -0.547987       -0.293833
0.657                  -0.548689        -0.29197
0.658                  -0.549385       -0.290106
0.659                  -0.550075       -0.288241
0.66                    -0.55076       -0.286375
0.661                  -0.551438       -0.284508
0.662                  -0.552111        -0.28264
0.663                  -0.552779       -0.280771
0.664                   -0.55344       -0.278901
0.665                  -0.554096       -0.277031
0.666                  -0.554746       -0.275159
0.667                   -0.55539       -0.273287
0.668                  -0.556029       -0.271413
0.669                  -0.556662       -0.269539
0.67                   -0.557289       -0.267664
0.671                   -0.55791       -0.265788
0.672                  -0.558526       -0.263912
0.673                  -0.559136       -0.262034
0.674                   -0.55974       -0.260156
0.675                  -0.560339       -0.258277
0.676                  -0.560931       -0.256397
0.677                  -0.561518       -0.254517
0.678                  -0.562099       -0.252635
0.679                  -0.562675       -0.250753
0.68                   -0.563244        -0.24887
0.681                  -0.563808       -0.246987
0.682                  -0.564366       -0.245103
0.683                  -0.564918       -0.243218
0.684                  -0.565465       -0.241332
0.685                  -0.566005       -0.239446
0.686                   -0.56654       -0.237559
0.687                   -0.56707       -0.235671
0.688                  -0.567593       -0.233783
0.689                  -0.568111       -0.231894
0.69                   -0.568623       -0.230005
0.691                  -0.569129       -0.228115
0.692                  -0.569629       -0.226224
0.693                  -0.570123       -0.224333
0.694                  -0.570612       -0.222441
0.695                  -0.571095       -0.220549
0.696                  -0.571572       -0.218657
0.697                  -0.572044       -0.216763
0.698                  -0.572509        -0.21487
0.699                  -0.572969       -0.212975
0.7                    -0.573423       -0.211081
0.701                  -0.573871       -0.209186
0.702                  -0.574314        -0.20729
0.703                   -0.57475       -0.205394
0.704                  -0.575181       -0.203498
0.705                  -0.575606       -0.201601
0.706                  -0.576025       -0.199704
0.707                  -0.576438       -0.197806
0.708                  -0.576846       -0.195908
0.709                  -0.577248        -0.19401
0.71                   -0.577644       -0.192112
0.711                  -0.578034       -0.190213
0.712                  -0.578418       -0.188314
0.713                  -0.578797       -0.186414
0.714                  -0.579169       -0.184514
0.715                  -0.579536       -0.182615
0.716                  -0.579897       -0.180714
0.717                  -0.580253       -0.178814
0.718                  -0.580602       -0.176913
0.719                  -0.580946       -0.175012
0.72                   -0.581284       -0.173112
0.721                  -0.581616        -0.17121
0.722                  -0.581942       -0.169309
0.723                  -0.582262       -0.167408
0.724                  -0.582577       -0.165506
0.725                  -0.582885       -0.163605
0.726                  -0.583188       -0.161703
0.727                  -0.583486       -0.159801
0.728                  -0.583777       -0.157899
0.729                  -0.584062       -0.155998
0.73                   -0.584342       -0.154096
0.731                  -0.584616       -0.152194
0.732                  -0.584884       -0.150292
0.733                  -0.585146        -0.14839
0.734                  -0.585402       -0.146488
0.735                  -0.585653       -0.144586
0.736                  -0.585898       -0.142685
0.737                  -0.586137       -0.140783
0.738                   -0.58637       -0.138882
0.739                  -0.586597        -0.13698
0.74                   -0.586819       -0.135079
0.741                  -0.587034       -0.133178
0.742                  -0.587244       -0.131277
0.743                  -0.587448       -0.129377
0.744                  -0.587647       -0.127476
0.745                  -0.587839       -0.125576
0.746                  -0.588026       -0.123676
0.747                  -0.588207       -0.121776
0.748                  -0.588382       -0.119876
0.749                  -0.588551       -0.117977
0.75                   -0.588714       -0.116078
0.751                  -0.588872       -0.114179
0.752                  -0.589024       -0.112281
0.753                   -0.58917       -0.110383
0.754                   -0.58931       -0.108485
0.755                  -0.589445       -0.106588
0.756                  -0.589573       -0.104691
0.757                  -0.589696       -0.102795
0.758                  -0.589813       -0.100899
0.759                  -0.589925       -0.099003
0.76                    -0.59003      -0.0971079
0.761                   -0.59013      -0.0952133
0.762                  -0.590224      -0.0933192
0.763                  -0.590312      -0.0914254
0.764                  -0.590395      -0.0895322
0.765                  -0.590471      -0.0876396
0.766                  -0.590542      -0.0857477
0.767                  -0.590607      -0.0838562
0.768                  -0.590667      -0.0819653
0.769                   -0.59072       -0.080075
0.77                   -0.590768      -0.0781855
0.771                   -0.59081      -0.0762964
0.772                  -0.590846      -0.0744081
0.773                  -0.590877      -0.0725205
0.774                  -0.590902      -0.0706335
0.775                  -0.590921      -0.0687472
0.776                  -0.590934      -0.0668617
0.777                  -0.590942      -0.0649768
0.778                  -0.590944      -0.0630928
0.779                   -0.59094      -0.0612095
0.78                   -0.590931      -0.0593269
0.781                  -0.590915      -0.0574454
0.782                  -0.590895      -0.0555643
0.783                  -0.590868      -0.0536843
0.784                  -0.590835      -0.0518052
0.785                  -0.590797      -0.0499268
0.786                  -0.590754      -0.0480495
0.787                  -0.590704      -0.0461728
0.788                  -0.590649      -0.0442973
0.789                  -0.590588      -0.0424226
0.79                   -0.590521      -0.0405488
0.791                  -0.590449      -0.0386761
0.792                  -0.590371      -0.0368043
0.793                  -0.590288      -0.0349335
0.794                  -0.590199      -0.0330637
0.795                  -0.590104      -0.0311951
0.796                  -0.590003      -0.0293274
0.797                  -0.589897      -0.0274608
0.798                  -0.589785      -0.0255952
0.799                  -0.589668      -0.0237308
0.8                    -0.589545      -0.0218675
0.801                  -0.589416      -0.0200052
0.802                  -0.589282      -0.0181443
0.803                  -0.589142      -0.0162843
0.804                  -0.588996      -0.0144257
0.805                  -0.588845      -0.0125682
0.806                  -0.588688      -0.0107118
0.807                  -0.588526     -0.00885686
0.808                  -0.588358     -0.00700282
0.809                  -0.588184     -0.00515035
0.81                   -0.588005     -0.00329908
0.811                   -0.58782     -0.00144902
0.812                   -0.58763     0.000399682
0.813                  -0.587434      0.00224701
0.814                  -0.587233      0.00409309
0.815                  -0.587026      0.00593789
0.816                  -0.586814      0.00778128
0.817                  -0.586596      0.00962311
0.818                  -0.586372       0.0114636
0.819                  -0.586143       0.0133028
0.82                   -0.585909       0.0151405
0.821                  -0.585668       0.0169767
0.822                  -0.585423       0.0188114
0.823                  -0.585172       0.0206449
0.824                  -0.584915       0.0224767
0.825                  -0.584653       0.0243069
0.826                  -0.584386       0.0261357
0.827                  -0.584113       0.0279631
0.828                  -0.583834       0.0297887
0.829                   -0.58355       0.0316129
0.83                   -0.583261       0.0334353
0.831                  -0.582966       0.0352563
0.832                  -0.582666       0.0370757
0.833                   -0.58236       0.0388933
0.834                  -0.582049       0.0407095
0.835                  -0.581733       0.0425239
0.836                  -0.581411       0.0443365
0.837                  -0.581084       0.0461477
0.838                  -0.580751        0.047957
0.839                  -0.580413       0.0497646
0.84                    -0.58007       0.0515705
0.841                  -0.579721       0.0533747
0.842                  -0.579367       0.0551769
0.843                  -0.579007       0.0569775
0.844                  -0.578642       0.0587764
0.845                  -0.578272       0.0605733
0.846                  -0.577897       0.0623686
0.847                  -0.577516       0.0641618
0.848                   -0.57713       0.0659533
0.849                  -0.576738       0.0677431
0.85                   -0.576341       0.0695308
0.851                  -0.575939       0.0713166
0.852                  -0.575532       0.0731006
0.853                   -0.57512       0.0748826
0.854                  -0.574702       0.0766626
0.855                  -0.574279       0.0784408
0.856                   -0.57385       0.0802171
0.857                  -0.573417       0.0819911
0.858                  -0.572978       0.0837635
0.859                  -0.572534       0.0855337
0.86                   -0.572085       0.0873018
0.861                   -0.57163        0.089068
0.862                   -0.57117       0.0908322
0.863                  -0.570706       0.0925941
0.864                  -0.570236        0.094354
0.865                  -0.569761        0.096112
0.866                   -0.56928       0.0978678
0.867                  -0.568795       0.0996215
0.868                  -0.568304        0.101373
0.869                  -0.567808        0.103122
0.87                   -0.567307         0.10487
0.871                  -0.566801        0.106615
0.872                   -0.56629        0.108358
0.873                  -0.565774        0.110099
0.874                  -0.565253        0.111837
0.875                  -0.564726        0.113573
0.876                  -0.564195        0.115307
0.877                  -0.563658        0.117039
0.878                  -0.563117        0.118769
0.879                   -0.56257        0.120496
0.88                   -0.562019        0.122221
0.881                  -0.561462        0.123944
0.882                    -0.5609        0.125664
0.883                  -0.560334        0.127382
0.884                  -0.559762        0.129098
0.885                  -0.559185        0.130812
0.886                  -0.558604        0.132523
0.887                  -0.558017        0.134231
0.888                  -0.557425        0.135937
0.889                  -0.556829        0.137641
0.89                   -0.556227        0.139343
0.891                  -0.555621        0.141042
0.892                  -0.555009        0.142739
0.893                  -0.554393        0.144433
0.894                  -0.553772        0.146125
0.895                  -0.553146        0.147814
0.896                  -0.552515        0.149501
0.897                  -0.551879        0.151185
0.898                  -0.551238        0.152867
0.899                  -0.550593        0.154546
0.9                    -0.549942        0.156223
0.901                  -0.549287        0.157897
0.902                  -0.548627        0.159569
0.903                  -0.547962        0.161238
0.904                  -0.547292        0.162904
0.905                  -0.546618        0.164568
0.906                  -0.545938         0.16623
0.907                  -0.545254        0.167888
0.908                  -0.544565        0.169545
0.909                  -0.543872        0.171198
0.91                   -0.543174        0.172849
0.911                   -0.54247        0.174497
0.912                  -0.541762        0.176143
0.913                   -0.54105        0.177786
0.914                  -0.540333        0.179426
0.915                   -0.53961        0.181063
0.916                  -0.538884        0.182698
0.917                  -0.538152         0.18433
0.918                  -0.537416        0.185959
0.919                  -0.536675        0.187586
0.92                    -0.53593         0.18921
0.921                   -0.53518        0.190831
0.922                  -0.534425         0.19245
0.923                  -0.533666        0.194065
0.924                  -0.532902        0.195678
0.925                  -0.532134        0.197288
0.926                   -0.53136        0.198895
0.927                  -0.530583        0.200499
0.928                    -0.5298          0.2021
0.929                  -0.529013        0.203699
0.93                   -0.528222        0.205295
0.931                  -0.527426        0.206888
0.932                  -0.526625        0.208478
0.933                   -0.52582        0.210065
0.934                  -0.525011        0.211649
0.935                  -0.524196         0.21323
0.936                  -0.523378        0.214809
0.937                  -0.522555        0.216384
0.938                  -0.521727        0.217957
0.939                  -0.520895        0.219526
0.94                   -0.520058        0.221093
0.941                  -0.519217        0.222657
0.942                  -0.518372        0.224217
0.943                  -0.517522        0.225775
0.944                  -0.516668         0.22733
0.945                  -0.515809        0.228881
0.946                  -0.514946         0.23043
0.947                  -0.514078        0.231976
0.948                  -0.513206        0.233518
0.949                   -0.51233        0.235058
0.95                   -0.511449        0.236595
0.951                  -0.510564        0.238128
0.952                  -0.509675        0.239658
0.953                  -0.508781        0.241186
0.954                  -0.507883         0.24271
0.955                  -0.506981        0.244231
0.956                  -0.506074        0.245749
0.957                  -0.505163        0.247264
0.958                  -0.504248        0.248775
0.959                  -0.503328        0.250284
0.96                   -0.502404        0.251789
0.961                  -0.501476        0.253292
0.962                  -0.500544        0.254791
0.963                  -0.499607        0.256287
0.964                  -0.498666        0.257779
0.965                  -0.497721        0.259269
0.966                  -0.496772        0.260755
0.967                  -0.495818        0.262238
0.968                  -0.494861        0.263718
0.969                  -0.493899        0.265195
0.97                   -0.492932        0.266668
0.971                  -0.491962        0.268138
0.972                  -0.490988        0.269605
0.973                  -0.490009        0.271069
0.974                  -0.489026        0.272529
0.975                   -0.48804        0.273986
0.976                  -0.487049         0.27544
0.977                  -0.486053         0.27689
0.978                  -0.485054        0.278338
0.979                  -0.484051        0.279781
0.98                   -0.483044        0.281222
0.981                  -0.482032        0.282659
0.982                  -0.481017        0.284093
0.983                  -0.479997        0.285523
0.984                  -0.478973         0.28695
0.985                  -0.477946        0.288374
0.986                  -0.476914        0.289794
0.987                  -0.475878        0.291211
0.988                  -0.474838        0.292624
0.989                  -0.473795        0.294035
0.99                   -0.472747        0.295441
0.991                  -0.471695        0.296844
0.992                  -0.470639        0.298244
0.993                   -0.46958         0.29964
0.994                  -0.468516        0.301033
0.995                  -0.467448        0.302423
0.996                  -0.466377        0.303809
0.997                  -0.465301        0.305191
0.998                  -0.464222         0.30657
0.999                  -0.463139        0.307945
1                      -0.462052        0.309317
1.001                   -0.46096        0.310686
1.002                  -0.459865        0.312051
1.003                  -0.458767        0.313412
1.004                  -0.457664         0.31477
1.005                  -0.456557        0.316124
1.006                  -0.455447        0.317475
1.007                  -0.454333        0.318822
1.008                  -0.453214        0.320165
1.009                  -0.452092        0.321505
1.01                   -0.450967        0.322842
1.011                  -0.449837        0.324174
1.012                  -0.448704        0.325504
1.013                  -0.447567        0.326829
1.014                  -0.446426        0.328151
1.015                  -0.445281        0.329469
1.016                  -0.444133        0.330784
1.017                   -0.44298        0.332095
1.018                  -0.441824        0.333402
1.019                  -0.440665        0.334705
1.02                   -0.439501        0.336005
1.021                  -0.438334        0.337301
1.022                  -0.437164        0.338594
1.023                  -0.435989        0.339883
1.024                  -0.434811        0.341168
1.025                  -0.433629        0.342449
1.026                  -0.432443        0.343727
1.027                  -0.431254        0.345001
1.028                  -0.430062        0.346271
1.029                  -0.428865        0.347537
1.03                   -0.427665          0.3488
1.031                  -0.426461        0.350058
1.032                  -0.425254        0.351313
1.033                  -0.424043        0.352565
1.034                  -0.422828        0.353812
1.035                   -0.42161        0.355055
1.036                  -0.420388        0.356295
1.037                  -0.419163        0.357531
1.038                  -0.417934        0.358763
1.039                  -0.416702        0.359991
1.04                   -0.415466        0.361216
1.041                  -0.414227        0.362436
1.042                  -0.412984        0.363653
1.043                  -0.411737        0.364866
1.044                  -0.410487        0.366074
1.045                  -0.409234        0.367279
1.046                  -0.407977         0.36848
1.047                  -0.406716        0.369677
1.048                  -0.405452        0.370871
1.049                  -0.404185         0.37206
1.05                   -0.402914        0.373245
1.051                   -0.40164        0.374427
1.052                  -0.400362        0.375604
1.053                  -0.399081        0.376777
1.054                  -0.397796        0.377947
1.055                  -0.396508        0.379112
1.056                  -0.395217        0.380273
1.057                  -0.393922        0.381431
1.058                  -0.392624        0.382584
1.059                  -0.391323        0.383733
1.06                   -0.390018        0.384879
1.061                   -0.38871         0.38602
1.062                  -0.387398        0.387157
1.063                  -0.386084         0.38829
1.064                  -0.384765        0.389419
1.065                  -0.383444        0.390544
1.066                  -0.382119        0.391665
1.067                  -0.380791        0.392782
1.068                   -0.37946        0.393895
1.069                  -0.378125        0.395003
1.07                   -0.376787        0.396108
1.071                  -0.375446        0.397208
1.072                  -0.374102        0.398304
1.073                  -0.372754        0.399396
1.074                  -0.371403        0.400484
1.075                  -0.370049        0.401568
1.076                  -0.368692        0.402647
1.077                  -0.367332        0.403722
1.078                  -0.365968        0.404793
1.079                  -0.364601         0.40586
1.08                   -0.363231        0.406923
1.081                  -0.361858        0.407981
1.082                  -0.360482        0.409035
1.083                  -0.359102        0.410085
1.084                   -0.35772        0.411131
1.085                  -0.356334        0.412172
1.086                  -0.354945        0.413209
1.087                  -0.353554        0.414242
1.088                  -0.352159        0.415271
1.089                  -0.350761        0.416295
1.09                    -0.34936        0.417315
1.091                  -0.347955         0.41833
1.092                  -0.346548        0.419342
1.093                  -0.345138        0.420348
1.094                  -0.343725        0.421351
1.095                  -0.342309        0.422349
1.096                  -0.340889        0.423343
1.097                  -0.339467        0.424332
1.098                  -0.338042        0.425317
1.099                  -0.336614        0.426298
1.1                    -0.335182        0.427274
1.101                  -0.333748        0.428246
1.102                  -0.332311        0.429213
1.103                  -0.330871        0.430177
1.104                  -0.329428        0.431135
1.105                  -0.327982        0.432089
1.106                  -0.326534        0.433039
1.107                  -0.325082        0.433984
1.108                  -0.323628        0.434924
1.109                   -0.32217         0.43586
1.11                    -0.32071        0.436792
1.111                  -0.319247        0.437719
1.112                  -0.317781        0.438642
1.113                  -0.316312         0.43956
1.114                  -0.314841        0.440473
1.115                  -0.313366        0.441382
1.116                  -0.311889        0.442287
1.117                  -0.310409        0.443187
1.118                  -0.308927        0.444082
1.119                  -0.307441        0.444973
1.12                   -0.305953        0.445859
1.121                  -0.304462         0.44674
1.122                  -0.302969        0.447617
1.123                  -0.301472        0.448489
1.124                  -0.299973        0.449357
1.125                  -0.298471         0.45022
1.126                  -0.296967        0.451078
1.127                   -0.29546        0.451931
1.128                   -0.29395         0.45278
1.129                  -0.292438        0.453625
1.13                   -0.290923        0.454464
1.131                  -0.289405        0.455299
1.132                  -0.287885        0.456129
1.133                  -0.286362        0.456955
1.134                  -0.284837        0.457775
1.135                  -0.283309        0.458591
1.136                  -0.281778        0.459402
1.137                  -0.280245        0.460209
1.138                  -0.278709         0.46101
1.139                  -0.277171        0.461807
1.14                   -0.275631        0.462599
1.141                  -0.274088        0.463387
1.142                  -0.272542        0.464169
1.143                  -0.270994        0.464947
1.144                  -0.269443         0.46572
1.145                   -0.26789        0.466487
1.146                  -0.266335        0.467251
1.147                  -0.264777        0.468009
1.148                  -0.263217        0.468762
1.149                  -0.261654        0.469511
1.15                   -0.260089        0.470255
1.151                  -0.258522        0.470993
1.152                  -0.256952        0.471727
1.153                   -0.25538        0.472456
1.154                  -0.253806         0.47318
1.155                  -0.252229        0.473899
1.156                   -0.25065        0.474613
1.157                  -0.249068        0.475322
1.158                  -0.247485        0.476027
1.159                  -0.245899        0.476726
1.16                   -0.244311         0.47742
1.161                  -0.242721         0.47811
1.162                  -0.241128        0.478794
1.163                  -0.239533        0.479473
1.164                  -0.237936        0.480147
1.165                  -0.236337        0.480817
1.166                  -0.234736        0.481481
1.167                  -0.233132         0.48214
1.168                  -0.231527        0.482794
1.169                  -0.229919        0.483443
1.17                   -0.228309        0.484087
1.171                  -0.226697        0.484726
1.172                  -0.225083         0.48536
1.173                  -0.223467        0.485989
1.174                  -0.221849        0.486612
1.175                  -0.220229        0.487231
1.176                  -0.218607        0.487844
1.177                  -0.216983        0.488452
1.178                  -0.215356        0.489055
1.179                  -0.213728        0.489653
1.18                   -0.212098        0.490246
1.181                  -0.210466        0.490834
1.182                  -0.208832        0.491416
1.183                  -0.207196        0.491993
1.184                  -0.205558        0.492566
1.185                  -0.203918        0.493132
1.186                  -0.202277        0.493694
1.187                  -0.200633         0.49425
1.188                  -0.198988        0.494802
1.189                  -0.197341        0.495348
1.19                   -0.195692        0.495888
1.191                  -0.194041        0.496424
1.192                  -0.192389        0.496954
1.193                  -0.190735        0.497479
1.194                  -0.189079        0.497999
1.195                  -0.187421        0.498513
1.196                  -0.185761        0.499022
1.197                    -0.1841        0.499526
1.198                  -0.182437        0.500024
1.199                  -0.180773        0.500517
1.2                    -0.179107        0.501005
1.201                  -0.177439        0.501488
1.202                  -0.175769        0.501965
1.203                  -0.174098        0.502437
1.204                  -0.172426        0.502903
1.205                  -0.170751        0.503364
1.206                  -0.169076         0.50382
1.207                  -0.167398         0.50427
1.208                   -0.16572        0.504715
1.209                  -0.164039        0.505155
1.21                   -0.162357        0.505589
1.211                  -0.160674        0.506017
1.212                  -0.158989        0.506441
1.213                  -0.157303        0.506858
1.214                  -0.155616        0.507271
1.215                  -0.153927        0.507678
1.216                  -0.152236        0.508079
1.217                  -0.150545        0.508476
1.218                  -0.148851        0.508866
1.219                  -0.147157        0.509251
1.22                   -0.145461        0.509631
1.221                  -0.143764        0.510005
1.222                  -0.142066        0.510374
1.223                  -0.140366        0.510737
1.224                  -0.138666        0.511095
1.225                  -0.136963        0.511447
1.226                   -0.13526        0.511794
1.227                  -0.133556        0.512135
1.228                   -0.13185         0.51247
1.229                  -0.130143        0.512801
1.23                   -0.128435        0.513125
1.231                  -0.126726        0.513444
1.232                  -0.125016        0.513758
1.233                  -0.123305        0.514065
1.234                  -0.121592        0.514368
1.235                  -0.119879        0.514665
1.236                  -0.118165        0.514956
1.237                  -0.116449        0.515241
1.238                  -0.114733        0.515521
1.239                  -0.113015        0.515796
1.24                   -0.111297        0.516064
1.241                  -0.109578        0.516328
1.242                  -0.107858        0.516585
1.243                  -0.106136        0.516837
1.244                  -0.104414        0.517084
1.245                  -0.102692        0.517324
1.246                  -0.100968        0.517559
1.247                 -0.0992433        0.517789
1.248                  -0.097518        0.518013
1.249                 -0.0957918        0.518231
1.25                   -0.094065        0.518443
1.251                 -0.0923373         0.51865
1.252                 -0.0906089        0.518851
1.253                 -0.0888799        0.519047
1.254                 -0.0871501        0.519237
1.255                 -0.0854197        0.519421
1.256                 -0.0836885        0.519599
1.257                 -0.0819568        0.519772
1.258                 -0.0802245        0.519939
1.259                 -0.0784915        0.520101
1.26                   -0.076758        0.520257
1.261                 -0.0750238        0.520407
1.262                 -0.0732893        0.520551
1.263                 -0.0715542         0.52069
1.264                 -0.0698185        0.520822
1.265                 -0.0680824         0.52095
1.266                 -0.0663458        0.521071
1.267                 -0.0646088        0.521187
1.268                 -0.0628714        0.521297
1.269                 -0.0611336        0.521401
1.27                  -0.0593953          0.5215
1.271                 -0.0576568        0.521593
1.272                 -0.0559179         0.52168
1.273                 -0.0541787        0.521761
1.274                 -0.0524392        0.521837
1.275                 -0.0506994        0.521907
1.276                 -0.0489592        0.521971
1.277                 -0.0472189        0.522029
1.278                 -0.0454784        0.522082
1.279                 -0.0437376        0.522129
1.28                  -0.0419967         0.52217
1.281                 -0.0402556        0.522205
1.282                 -0.0385142        0.522235
1.283                  -0.036773        0.522258
1.284                 -0.0350316        0.522276
1.285                 -0.0332901        0.522289
1.286                 -0.0315487        0.522295
1.287                  -0.029807        0.522296
1.288                 -0.0280652        0.522291
1.289                 -0.0263236         0.52228
1.29                  -0.0245822        0.522264
1.291                 -0.0228406        0.522241
1.292                 -0.0210991        0.522213
1.293                 -0.0193578        0.522179
1.294                 -0.0176162         0.52214
1.295                 -0.0158752        0.522094
1.296                 -0.0141342        0.522043
1.297                 -0.0123934        0.521986
1.298                 -0.0106529        0.521923
1.299                -0.00891207        0.521855
1.3                  -0.00717207         0.52178
1.301                -0.00543187          0.5217
1.302                -0.00369248        0.521614
1.303                -0.00195293        0.521522
1.304               -0.000213737        0.521425
1.305                 0.00152508        0.521322
1.306                  0.0032635        0.521213
1.307                 0.00500175        0.521098
1.308                 0.00673907        0.520977
1.309                 0.00847644        0.520851
1.31                   0.0102133        0.520719
1.311                  0.0119495        0.520581
1.312                  0.0136854        0.520437
1.313                   0.015421        0.520287
1.314                  0.0171558        0.520132
1.315                  0.0188903        0.519971
1.316                  0.0206239        0.519804
1.317                   0.022357        0.519631
1.318                  0.0240897        0.519453
1.319                  0.0258217        0.519269
1.32                   0.0275531        0.519079
1.321                   0.029284        0.518883
1.322                  0.0310137        0.518682
1.323                   0.032743        0.518475
1.324                  0.0344715        0.518262
1.325                  0.0361995        0.518043
1.326                  0.0379264        0.517818
1.327                  0.0396528        0.517588
1.328                  0.0413784        0.517352
1.329                  0.0431029         0.51711
1.33                   0.0448269        0.516863
1.331                  0.0465499         0.51661
1.332                  0.0482715        0.516351
1.333                  0.0499927        0.516086
1.334                   0.051713        0.515816
1.335                  0.0534323         0.51554
1.336                  0.0551505        0.515258
1.337                  0.0568678         0.51497
1.338                  0.0585842        0.514677
1.339                  0.0602995        0.514378
1.34                   0.0620138        0.514073
1.341                  0.0637267        0.513762
1.342                  0.0654389        0.513446
1.343                  0.0671499        0.513124
1.344                  0.0688598        0.512797
1.345                   0.070568        0.512463
1.346                  0.0722756        0.512124
1.347                  0.0739818         0.51178
1.348                   0.075687        0.511429
1.349                  0.0773907        0.511073
1.35                   0.0790935        0.510712
1.351                  0.0807947        0.510344
1.352                  0.0824947        0.509971
1.353                  0.0841936        0.509593
1.354                  0.0858907        0.509208
1.355                  0.0875867        0.508818
1.356                  0.0892814        0.508423
1.357                  0.0909747        0.508021
1.358                  0.0926664        0.507615
1.359                  0.0943569        0.507202
1.36                   0.0960457        0.506784
1.361                  0.0977331         0.50636
1.362                   0.099419        0.505931
1.363                   0.101104        0.505496
1.364                   0.102786        0.505055
1.365                   0.104468        0.504609
1.366                   0.106148        0.504157
1.367                   0.107826          0.5037
1.368                   0.109502        0.503237
1.369                   0.111177        0.502769
1.37                    0.112851        0.502295
1.371                   0.114522        0.501815
1.372                   0.116192         0.50133
1.373                    0.11786         0.50084
1.374                   0.119527        0.500343
1.375                   0.121192        0.499842
1.376                   0.122855        0.499334
1.377                   0.124516        0.498822
1.378                   0.126175        0.498303
1.379                   0.127833         0.49778
1.38                    0.129489         0.49725
1.381                   0.131142        0.496716
1.382                   0.132794        0.496175
1.383                   0.134444         0.49563
1.384                   0.136092        0.495079
1.385                   0.137739        0.494522
1.386                   0.139383         0.49396
1.387                   0.141025        0.493393
1.388                   0.142666         0.49282
1.389                   0.144304        0.492241
1.39                     0.14594        0.491658
1.391                   0.147574        0.491068
1.392                   0.149206        0.490474
1.393                   0.150836        0.489874
1.394                   0.152464        0.489269
1.395                    0.15409        0.488658
1.396                   0.155714        0.488042
1.397                   0.157335         0.48742
1.398                   0.158955        0.486794
1.399                   0.160572        0.486162
1.4                     0.162187        0.485524
1.401                   0.163799        0.484881
1.402                    0.16541        0.484233
1.403                   0.167018         0.48358
1.404                   0.168624        0.482921
1.405                   0.170227        0.482257
1.406                   0.171829        0.481588
1.407                   0.173428        0.480914
1.408                   0.175024        0.480234
1.409                   0.176618        0.479549
1.41                     0.17821        0.478859
1.411                     0.1798        0.478163
1.412                   0.181387        0.477462
1.413                   0.182971        0.476756
1.414                   0.184553        0.476045
1.415                   0.186133        0.475329
1.416                    0.18771        0.474608
1.417                   0.189285        0.473881
1.418                   0.190857        0.473149
1.419                   0.192426        0.472412
1.42                    0.193993         0.47167
1.421                   0.195557        0.470923
1.422                   0.197119        0.470171
1.423                   0.198679        0.469413
1.424                   0.200235         0.46865
1.425                   0.201789        0.467883
1.426                    0.20334         0.46711
1.427                   0.204889        0.466332
1.428                   0.206435        0.465549
1.429                   0.207978        0.464761
1.43                    0.209518        0.463968
1.431                   0.211056        0.463171
1.432                   0.212591        0.462368
1.433                   0.214123         0.46156
1.434                   0.215653        0.460747
1.435                   0.217179        0.459929
1.436                   0.218703        0.459106
1.437                   0.220224        0.458278
1.438                   0.221742        0.457445
1.439                   0.223257        0.456607
1.44                     0.22477        0.455764
1.441                   0.226279        0.454917
1.442                   0.227786        0.454064
1.443                   0.229289        0.453207
1.444                    0.23079        0.452344
1.445                   0.232287        0.451477
1.446                   0.233782        0.450605
1.447                   0.235274        0.449728
1.448                   0.236763        0.448846
1.449                   0.238248        0.447959
1.45                    0.239731        0.447068
1.451                   0.241211        0.446172
1.452                   0.242687        0.445271
1.453                   0.244161        0.444365
1.454                   0.245631        0.443454
1.455                   0.247098        0.442539
1.456                   0.248563        0.441619
1.457                   0.250024        0.440694
1.458                   0.251482        0.439764
1.459                   0.252936         0.43883
1.46                    0.254388        0.437891
1.461                   0.255836        0.436947
1.462                   0.257281        0.435999
1.463                   0.258723        0.435046
1.464                   0.260162        0.434088
1.465                   0.261597        0.433126
1.466                   0.263029        0.432159
1.467                   0.264458        0.431187
1.468                   0.265884        0.430211
1.469                   0.267306         0.42923
1.47                    0.268725        0.428245
1.471                   0.270141        0.427255
1.472                   0.271553         0.42626
1.473                   0.272962        0.425261
1.474                   0.274368        0.424257
1.475                    0.27577        0.423249
1.476                   0.277169        0.422237
1.477                   0.278564        0.421219
1.478                   0.279956        0.420198
1.479                   0.281345        0.419172
1.48                     0.28273        0.418141
1.481                   0.284112        0.417106
1.482                    0.28549        0.416066
1.483                   0.286865        0.415023
1.484                   0.288236        0.413974
1.485                   0.289603        0.412921
1.486                   0.290968        0.411864
1.487                   0.292328        0.410803
1.488                   0.293685        0.409737
1.489                   0.295039        0.408667
1.49                    0.296389        0.407592
1.491                   0.297735        0.406513
1.492                   0.299078         0.40543
1.493                   0.300417        0.404342
1.494                   0.301753         0.40325
1.495                   0.303085        0.402154
1.496                   0.304413        0.401054
1.497                   0.305738        0.399949
1.498                   0.307058         0.39884
1.499                   0.308376        0.397727
1.5                     0.309689         0.39661
1.501                   0.310999        0.395488
1.502                   0.312305        0.394362
1.503                   0.313607        0.393232
1.504                   0.314906        0.392098
1.505                   0.316201         0.39096
1.506                   0.317492        0.389817
1.507                    0.31878        0.388671
1.508                   0.320063         0.38752
1.509                   0.321343        0.386365
1.51                    0.322619        0.385206
1.511                   0.323891        0.384043
1.512                   0.325159        0.382876
1.513                   0.326424        0.381705
1.514                   0.327684        0.380529
1.515                   0.328941         0.37935
1.516                   0.330194        0.378167
1.517                   0.331443        0.376979
1.518                   0.332688        0.375788
1.519                   0.333929        0.374593
1.52                    0.335167        0.373393
1.521                     0.3364         0.37219
1.522                   0.337629        0.370983
1.523                   0.338855        0.369772
1.524                   0.340076        0.368557
1.525                   0.341294        0.367338
1.526                   0.342507        0.366115
1.527                   0.343717        0.364888
1.528                   0.344922        0.363657
1.529                   0.346124        0.362423
1.53                    0.347321        0.361184
1.531                   0.348515        0.359942
1.532                   0.349704        0.358696
1.533                   0.350889        0.357446
1.534                   0.352071        0.356192
1.535                   0.353248        0.354935
1.536                   0.354421        0.353673
1.537                    0.35559        0.352408
1.538                   0.356755        0.351139
1.539                   0.357915        0.349867
1.54                    0.359072         0.34859
1.541                   0.360224         0.34731
1.542                   0.361373        0.346027
1.543                   0.362517        0.344739
1.544                   0.363657        0.343448
1.545                   0.364793        0.342153
1.546                   0.365924        0.340855
1.547                   0.367052        0.339552
1.548                   0.368175        0.338247
1.549                   0.369294        0.336937
1.55                    0.370408        0.335624
1.551                   0.371519        0.334308
1.552                   0.372625        0.332987
1.553                   0.373727        0.331664
1.554                   0.374825        0.330336
1.555                   0.375918        0.329005
1.556                   0.377007        0.327671
1.557                   0.378092        0.326333
1.558                   0.379172        0.324991
1.559                   0.380249        0.323646
1.56                     0.38132        0.322298
1.561                   0.382388        0.320946
1.562                   0.383451         0.31959
1.563                    0.38451        0.318231
1.564                   0.385564        0.316869
1.565                   0.386614        0.315503
1.566                    0.38766        0.314134
1.567                   0.388701        0.312761
1.568                   0.389738        0.311385
1.569                    0.39077        0.310006
1.57                    0.391798        0.308623
1.571                   0.392821        0.307237
1.572                    0.39384        0.305847
1.573                   0.394855        0.304455
1.574                   0.395865        0.303058
1.575                   0.396871        0.301659
1.576                   0.397872        0.300256
1.577                   0.398868         0.29885
1.578                    0.39986        0.297441
1.579                   0.400848        0.296028
1.58                    0.401831        0.294612
1.581                   0.402809        0.293193
1.582                   0.403783        0.291771
1.583                   0.404753        0.290345
1.584                   0.405718        0.288916
1.585                   0.406678        0.287485
1.586                   0.407633        0.286049
1.587                   0.408584        0.284611
1.588                   0.409531         0.28317
1.589                   0.410473        0.281725
1.59                     0.41141        0.280277
1.591                   0.412342        0.278827
1.592                    0.41327        0.277373
1.593                   0.414193        0.275916
1.594                   0.415112        0.274455
1.595                   0.416026        0.272992
1.596                   0.416935        0.271526
1.597                   0.417839        0.270057
1.598                   0.418739        0.268584
1.599                   0.419634        0.267109
1.6                     0.420525        0.265631
1.601                    0.42141        0.264149
1.602                   0.422291        0.262665
1.603                   0.423167        0.261178
1.604                   0.424038        0.259687
1.605                   0.424905        0.258194
1.606                   0.425767        0.256698
1.607                   0.426624        0.255199
1.608                   0.427476        0.253697
1.609                   0.428323        0.252192
1.61                    0.429166        0.250684
1.611                   0.430003        0.249174
1.612                   0.430836         0.24766
1.613                   0.431664        0.246144
1.614                   0.432487        0.244625
1.615                   0.433305        0.243103
1.616                   0.434118        0.241578
1.617                   0.434927        0.240051
1.618                    0.43573         0.23852
1.619                   0.436529        0.236987
1.62                    0.437323        0.235451
1.621                   0.438111        0.233913
1.622                   0.438895        0.232371
1.623                   0.439674        0.230827
1.624                   0.440448         0.22928
1.625                   0.441217        0.227731
1.626                    0.44198        0.226179
1.627                   0.442739        0.224624
1.628                   0.443493        0.223066
1.629                   0.444242        0.221506
1.63                    0.444986        0.219944
1.631                   0.445724        0.218378
1.632                   0.446458         0.21681
1.633                   0.447187         0.21524
1.634                    0.44791        0.213667
1.635                   0.448629        0.212091
1.636                   0.449342        0.210513
1.637                    0.45005        0.208932
1.638                   0.450754        0.207349
1.639                   0.451452        0.205763
1.64                    0.452145        0.204175
1.641                   0.452832        0.202584
1.642                   0.453515        0.200991
1.643                   0.454192        0.199395
1.644                   0.454865        0.197797
1.645                   0.455532        0.196197
1.646                   0.456194        0.194594
1.647                    0.45685        0.192989
1.648                   0.457502        0.191381
1.649                   0.458148        0.189771
1.65                    0.458789        0.188159
1.651                   0.459425        0.186544
1.652                   0.460055        0.184927
1.653                   0.460681        0.183307
1.654                   0.461301        0.181686
1.655                   0.461915        0.180062
1.656                   0.462525        0.178436
1.657                   0.463129        0.176807
1.658                   0.463727        0.175177
1.659                   0.464321        0.173544
1.66                    0.464909        0.171909
1.661                   0.465492        0.170271
1.662                   0.466069        0.168632
1.663                   0.466641         0.16699
1.664                   0.467207        0.165347
1.665                   0.467769        0.163701
1.666                   0.468324        0.162053
1.667                   0.468875        0.160403
1.668                    0.46942        0.158751
1.669                   0.469959        0.157096
1.67                    0.470493         0.15544
1.671                   0.471022        0.153782
1.672                   0.471545        0.152121
1.673                   0.472063        0.150459
1.674                   0.472575        0.148795
1.675                   0.473082        0.147128
1.676                   0.473583         0.14546
1.677                   0.474078         0.14379
1.678                   0.474568        0.142118
1.679                   0.475053        0.140444
1.68                    0.475532        0.138768
1.681                   0.476006         0.13709
1.682                   0.476473        0.135411
1.683                   0.476936        0.133729
1.684                   0.477392        0.132046
1.685                   0.477844        0.130361
1.686                   0.478289        0.128674
1.687                   0.478729        0.126985
1.688                   0.479163        0.125295
1.689                   0.479592        0.123603
1.69                    0.480015        0.121909
1.691                   0.480432        0.120213
1.692                   0.480844        0.118516
1.693                    0.48125        0.116817
1.694                    0.48165        0.115116
1.695                   0.482044        0.113414
1.696                   0.482433         0.11171
1.697                   0.482816        0.110005
1.698                   0.483193        0.108298
1.699                   0.483565        0.106589
1.7                     0.483931        0.104879
1.701                   0.484291        0.103168
1.702                   0.484645        0.101455
1.703                   0.484994         0.09974
1.704                   0.485337        0.098024
1.705                   0.485674       0.0963065
1.706                   0.486005       0.0945875
1.707                    0.48633       0.0928672
1.708                   0.486649       0.0911454
1.709                   0.486963       0.0894223
1.71                    0.487271       0.0876978
1.711                   0.487573        0.085972
1.712                   0.487869       0.0842449
1.713                   0.488159       0.0825165
1.714                   0.488443       0.0807868
1.715                   0.488721       0.0790559
1.716                   0.488994       0.0773237
1.717                    0.48926       0.0755904
1.718                   0.489521       0.0738558
1.719                   0.489776         0.07212
1.72                    0.490024       0.0703831
1.721                   0.490267       0.0686451
1.722                   0.490504        0.066906
1.723                   0.490735       0.0651657
1.724                    0.49096       0.0634244
1.725                   0.491179       0.0616821
1.726                   0.491392       0.0599387
1.727                   0.491598       0.0581943
1.728                   0.491799       0.0564489
1.729                   0.491994       0.0547026
1.73                    0.492183       0.0529553
1.731                   0.492366       0.0512071
1.732                   0.492542        0.049458
1.733                   0.492713        0.047708
1.734                   0.492878       0.0459572
1.735                   0.493036       0.0442055
1.736                   0.493189        0.042453
1.737                   0.493335       0.0406998
1.738                   0.493475       0.0389457
1.739                   0.493609       0.0371909
1.74                    0.493737       0.0354354
1.741                   0.493859       0.0336792
1.742                   0.493975       0.0319223
1.743                   0.494085       0.0301648
1.744                   0.494188       0.0284066
1.745                   0.494286       0.0266478
1.746                   0.494377       0.0248885
1.747                   0.494462       0.0231285
1.748                   0.494541       0.0213681
1.749                   0.494614       0.0196071
1.75                     0.49468       0.0178456
1.751                    0.49474       0.0160837
1.752                   0.494794       0.0143213
1.753                   0.494842       0.0125585
1.754                   0.494884       0.0107953
1.755                    0.49492      0.00903171
1.756                   0.494949      0.00726779
1.757                   0.494972      0.00550354
1.758                   0.494989        0.003739
1.759                      0.495      0.00197418
1.76                    0.495004     0.000209103
1.761                   0.495002      -0.0015562
1.762                   0.494994     -0.00332169
1.763                    0.49498     -0.00508737
1.764                   0.494959      -0.0068532
1.765                   0.494932     -0.00861915
1.766                   0.494899      -0.0103852
1.767                   0.494859      -0.0121513
1.768                   0.494813      -0.0139175
1.769                   0.494761      -0.0156837
1.77                    0.494703      -0.0174499
1.771                   0.494638      -0.0192161
1.772                   0.494568      -0.0209822
1.773                    0.49449      -0.0227483
1.774                   0.494407      -0.0245142
1.775                   0.494317      -0.0262801
1.776                   0.494221      -0.0280457
1.777                   0.494118      -0.0298112
1.778                    0.49401      -0.0315765
1.779                   0.493894      -0.0333415
1.78                    0.493773      -0.0351063
1.781                   0.493645      -0.0368708
1.782                   0.493511       -0.038635
1.783                   0.493371      -0.0403988
1.784                   0.493224      -0.0421623
1.785                   0.493071      -0.0439254
1.786                   0.492911      -0.0456881
1.787                   0.492746      -0.0474503
1.788                   0.492574       -0.049212
1.789                   0.492395      -0.0509733
1.79                     0.49221       -0.052734
1.791                   0.492019      -0.0544941
1.792                   0.491822      -0.0562537
1.793                   0.491618      -0.0580127
1.794                   0.491408       -0.059771
1.795                   0.491191      -0.0615287
1.796                   0.490968      -0.0632857
1.797                   0.490739       -0.065042
1.798                   0.490504      -0.0667975
1.799                   0.490262      -0.0685522
1.8                     0.490013      -0.0703062
1.801                   0.489759      -0.0720593
1.802                   0.489498      -0.0738115
1.803                    0.48923      -0.0755629
1.804                   0.488957      -0.0773134
1.805                   0.488677      -0.0790629
1.806                    0.48839      -0.0808114
1.807                   0.488098       -0.082559
1.808                   0.487799      -0.0843055
1.809                   0.487493       -0.086051
1.81                    0.487182      -0.0877954
1.811                   0.486864      -0.0895387
1.812                   0.486539      -0.0912809
1.813                   0.486209      -0.0930219
1.814                   0.485872      -0.0947616
1.815                   0.485529      -0.0965002
1.816                   0.485179      -0.0982376
1.817                   0.484823      -0.0999736
1.818                   0.484461       -0.101708
1.819                   0.484092       -0.103442
1.82                    0.483717       -0.105174
1.821                   0.483336       -0.106904
1.822                   0.482949       -0.108634
1.823                   0.482555       -0.110362
1.824                   0.482155       -0.112088
1.825                   0.481749       -0.113813
1.826                   0.481336       -0.115536
1.827                   0.480918       -0.117258
1.828                   0.480493       -0.118978
1.829                   0.480061       -0.120696
1.83                    0.479624       -0.122413
1.831                    0.47918       -0.124128
1.832                    0.47873       -0.125842
1.833                   0.478274       -0.127554
1.834                   0.477811       -0.129264
1.835                   0.477343       -0.130972
1.836                   0.476868       -0.132678
1.837                   0.476387       -0.134383
1.838                     0.4759       -0.136086
1.839                   0.475406       -0.137786
1.84                    0.474907       -0.139485
1.841                   0.474401       -0.141182
1.842                   0.473889       -0.142877
1.843                   0.473371        -0.14457
1.844                   0.472847       -0.146261
1.845                   0.472316        -0.14795
1.846                    0.47178       -0.149636
1.847                   0.471238       -0.151321
1.848                   0.470689       -0.153003
1.849                   0.470134       -0.154684
1.85                    0.469574       -0.156362
1.851                   0.469007       -0.158037
1.852                   0.468434       -0.159711
1.853                   0.467855       -0.161382
1.854                    0.46727       -0.163051
1.855                   0.466679       -0.164718
1.856                   0.466082       -0.166382
1.857                   0.465479       -0.168044
1.858                    0.46487       -0.169703
1.859                   0.464255        -0.17136
1.86                    0.463634       -0.173015
1.861                   0.463007       -0.174667
1.862                   0.462374       -0.176316
1.863                   0.461736       -0.177963
1.864                   0.461091       -0.179607
1.865                    0.46044       -0.181249
1.866                   0.459784       -0.182888
1.867                   0.459122       -0.184524
1.868                   0.458454       -0.186158
1.869                    0.45778       -0.187789
1.87                      0.4571       -0.189417
1.871                   0.456414       -0.191043
1.872                   0.455723       -0.192665
1.873                   0.455026       -0.194285
1.874                   0.454323       -0.195902
1.875                   0.453614       -0.197516
1.876                     0.4529       -0.199127
1.877                    0.45218       -0.200736
1.878                   0.451454       -0.202341
1.879                   0.450722       -0.203943
1.88                    0.449985       -0.205543
1.881                   0.449242       -0.207139
1.882                   0.448494       -0.208732
1.883                    0.44774       -0.210322
1.884                    0.44698        -0.21191
1.885                   0.446215       -0.213494
1.886                   0.445444       -0.215074
1.887                   0.444668       -0.216652
1.888                   0.443886       -0.218227
1.889                   0.443099       -0.219798
1.89                    0.442306       -0.221366
1.891                   0.441507       -0.222931
1.892                   0.440703       -0.224492
1.893                   0.439894        -0.22605
1.894                    0.43908       -0.227605
1.895                    0.43826       -0.229156
1.896                   0.437434       -0.230705
1.897                   0.436603       -0.232249
1.898                   0.435767        -0.23379
1.899                   0.434926       -0.235328
1.9                     0.434079       -0.236863
1.901                   0.433227       -0.238393
1.902                    0.43237       -0.239921
1.903                   0.431507       -0.241445
1.904                   0.430639       -0.242965
1.905                   0.429767       -0.244482
1.906                   0.428888       -0.245995
1.907                   0.428005       -0.247504
1.908                   0.427117        -0.24901
1.909                   0.426223       -0.250512
1.91                    0.425325       -0.252011
1.911                   0.424421       -0.253506
1.912                   0.423512       -0.254997
1.913                   0.422599       -0.256484
1.914                    0.42168       -0.257968
1.915                   0.420756       -0.259448
1.916                   0.419828       -0.260924
1.917                   0.418894       -0.262396
1.918                   0.417956       -0.263864
1.919                   0.417012       -0.265329
1.92                    0.416064        -0.26679
1.921                   0.415111       -0.268247
1.922                   0.414153       -0.269699
1.923                    0.41319       -0.271149
1.924                   0.412223       -0.272594
1.925                   0.411251       -0.274035
1.926                   0.410274       -0.275472
1.927                   0.409292       -0.276905
1.928                   0.408306       -0.278334
1.929                   0.407315        -0.27976
1.93                    0.406319       -0.281181
1.931                   0.405319       -0.282598
1.932                   0.404314       -0.284011
1.933                   0.403305        -0.28542
1.934                   0.402291       -0.286825
1.935                   0.401272       -0.288226
1.936                   0.400249       -0.289623
1.937                   0.399222       -0.291015
1.938                    0.39819       -0.292404
1.939                   0.397154       -0.293788
1.94                    0.396113       -0.295168
1.941                   0.395068       -0.296544
1.942                   0.394019       -0.297916
1.943                   0.392966       -0.299283
1.944                   0.391908       -0.300646
1.945                   0.390845       -0.302005
1.946                   0.389779        -0.30336
1.947                   0.388708       -0.304711
1.948                   0.387634       -0.306057
1.949                   0.386555       -0.307399
1.95                    0.385471       -0.308737
1.951                   0.384384        -0.31007
1.952                   0.383293       -0.311399
1.953                   0.382198       -0.312724
1.954                   0.381098       -0.314045
1.955                   0.379995       -0.315361
1.956                   0.378887       -0.316673
1.957                   0.377776        -0.31798
1.958                   0.376661       -0.319283
1.959                   0.375542       -0.320582
1.96                    0.374418       -0.321876
1.961                   0.373291       -0.323166
1.962                    0.37216       -0.324452
1.963                   0.371026       -0.325733
1.964                   0.369888        -0.32701
1.965                   0.368745       -0.328282
1.966                   0.367599        -0.32955
1.967                    0.36645       -0.330813
1.968                   0.365296       -0.332072
1.969                    0.36414       -0.333327
1.97                    0.362979       -0.334577
1.971                   0.361815       -0.335823
1.972                   0.360647       -0.337064
1.973                   0.359475       -0.338301
1.974                   0.358301       -0.339533
1.975                   0.357122       -0.340761
1.976                    0.35594       -0.341984
1.977                   0.354755       -0.343203
1.978                   0.353566       -0.344417
1.979                   0.352374       -0.345627
1.98                    0.351178       -0.346833
1.981                   0.349979       -0.348034
1.982                   0.348777        -0.34923
1.983                   0.347571       -0.350422
1.984                   0.346362        -0.35161
1.985                    0.34515       -0.352792
1.986                   0.343934       -0.353971
1.987                   0.342716       -0.355145
1.988                   0.341494       -0.356314
1.989                   0.340269       -0.357479
1.99                     0.33904        -0.35864
1.991                   0.337809       -0.359796
1.992                   0.336575       -0.360947
1.993                   0.335337       -0.362094
1.994                   0.334096       -0.363237
1.995                   0.332853       -0.364374
1.996                   0.331606       -0.365508
1.997                   0.330356       -0.366637
1.998                   0.329104       -0.367761
1.999                   0.327848       -0.368881
2                       0.326589       -0.369997
