! TOUCHSTONE file generated by CST MICROWAVE STUDIO
! Date and time: Sun Aug  2 11:31:12 2026
! Project name: Sonda-Coaxial_21mm_DisifixB_v2_Alchol - Isopropilico.cst
! Parameters = {h_recipiente=20; l_conector=50; r_arandela=35; r_ext=10.5; r_int=3; r_recipiente=100; z_recipiente=-10}
! Header version: 2018
! Port assignment regex: !\s*Touchstone port\s*([0-9]+)\s*=\s*(CST MWS port|CST DS port)\s*([0-9]+|Zmin|Zmax)\s*\(\"(.*)\"\)(\s*mode\s*([0-9]+))?.*
! Touchstone port assignment:
! Touchstone port 1 = CST MWS port 1 ("")
# GHz S RI R 50
0.001                   0.927464     -0.00567135
0.002                   0.927484      -0.0113393
0.003                   0.927516      -0.0170003
0.004                    0.92756      -0.0226513
0.005                   0.927616      -0.0282889
0.006                    0.92768      -0.0339101
0.007                   0.927753      -0.0395121
0.008                   0.927831      -0.0450921
0.009                   0.927914      -0.0506479
0.01                    0.927998      -0.0561771
0.011                   0.928082       -0.061678
0.012                   0.928162      -0.0671488
0.013                   0.928238      -0.0725881
0.014                   0.928305      -0.0779949
0.015                   0.928363      -0.0833681
0.016                   0.928407      -0.0887073
0.017                   0.928437       -0.094012
0.018                   0.928449      -0.0992819
0.019                   0.928441       -0.104517
0.02                    0.928412       -0.109718
0.021                   0.928359       -0.114884
0.022                   0.928281       -0.120017
0.023                   0.928175       -0.125116
0.024                    0.92804       -0.130182
0.025                   0.927876       -0.135217
0.026                   0.927679       -0.140221
0.027                    0.92745       -0.145194
0.028                   0.927188       -0.150138
0.029                    0.92689       -0.155054
0.03                    0.926557       -0.159942
0.031                   0.926189       -0.164804
0.032                   0.925783       -0.169639
0.033                   0.925341        -0.17445
0.034                    0.92486       -0.179236
0.035                   0.924343          -0.184
0.036                   0.923787       -0.188741
0.037                   0.923193        -0.19346
0.038                   0.922561       -0.198158
0.039                    0.92189       -0.202836
0.04                    0.921182       -0.207495
0.041                   0.920435       -0.212134
0.042                    0.91965       -0.216755
0.043                   0.918828       -0.221357
0.044                   0.917967       -0.225943
0.045                    0.91707       -0.230511
0.046                   0.916135       -0.235063
0.047                   0.915163       -0.239599
0.048                   0.914155       -0.244118
0.049                    0.91311       -0.248622
0.05                    0.912029       -0.253111
0.051                   0.910912       -0.257585
0.052                    0.90976       -0.262044
0.053                   0.908572       -0.266488
0.054                    0.90735       -0.270918
0.055                   0.906093       -0.275334
0.056                   0.904802       -0.279735
0.057                   0.903478       -0.284122
0.058                    0.90212       -0.288495
0.059                   0.900728       -0.292854
0.06                    0.899304         -0.2972
0.061                   0.897848       -0.301531
0.062                   0.896359       -0.305849
0.063                   0.894839       -0.310152
0.064                   0.893287       -0.314442
0.065                   0.891704       -0.318718
0.066                    0.89009        -0.32298
0.067                   0.888445       -0.327228
0.068                   0.886771       -0.331462
0.069                   0.885066       -0.335682
0.07                    0.883332       -0.339888
0.071                   0.881569        -0.34408
0.072                   0.879776       -0.348257
0.073                   0.877955        -0.35242
0.074                   0.876105       -0.356568
0.075                   0.874228       -0.360702
0.076                   0.872322       -0.364821
0.077                   0.870389       -0.368925
0.078                   0.868429       -0.373014
0.079                   0.866442       -0.377088
0.08                    0.864428       -0.381147
0.081                   0.862387       -0.385191
0.082                   0.860321        -0.38922
0.083                   0.858228       -0.393233
0.084                    0.85611        -0.39723
0.085                   0.853966       -0.401212
0.086                   0.851797       -0.405177
0.087                   0.849604       -0.409127
0.088                   0.847385        -0.41306
0.089                   0.845143       -0.416978
0.09                    0.842876       -0.420878
0.091                   0.840585       -0.424763
0.092                    0.83827        -0.42863
0.093                   0.835932       -0.432481
0.094                   0.833571       -0.436315
0.095                   0.831187       -0.440132
0.096                    0.82878       -0.443932
0.097                   0.826351       -0.447714
0.098                   0.823899       -0.451479
0.099                   0.821426       -0.455226
0.1                      0.81893       -0.458956
0.101                   0.816413       -0.462668
0.102                   0.813875       -0.466362
0.103                   0.811316       -0.470038
0.104                   0.808735       -0.473696
0.105                   0.806134       -0.477336
0.106                   0.803513       -0.480957
0.107                   0.800871       -0.484559
0.108                   0.798209       -0.488143
0.109                   0.795528       -0.491709
0.11                    0.792827       -0.495255
0.111                   0.790106       -0.498782
0.112                   0.787367       -0.502291
0.113                   0.784608        -0.50578
0.114                   0.781831        -0.50925
0.115                   0.779035         -0.5127
0.116                   0.776221       -0.516131
0.117                   0.773389       -0.519543
0.118                   0.770539       -0.522935
0.119                   0.767671       -0.526307
0.12                    0.764786       -0.529659
0.121                   0.761884        -0.53299
0.122                   0.758964       -0.536303
0.123                   0.756028       -0.539595
0.124                   0.753075       -0.542866
0.125                   0.750106       -0.546118
0.126                    0.74712       -0.549349
0.127                   0.744119       -0.552559
0.128                   0.741102       -0.555749
0.129                   0.738069       -0.558918
0.13                    0.735021       -0.562067
0.131                   0.731958       -0.565195
0.132                   0.728879       -0.568302
0.133                   0.725786       -0.571387
0.134                   0.722679       -0.574453
0.135                   0.719557       -0.577496
0.136                   0.716421       -0.580519
0.137                    0.71327       -0.583521
0.138                   0.710107         -0.5865
0.139                    0.70693       -0.589459
0.14                    0.703739       -0.592397
0.141                   0.700535       -0.595313
0.142                   0.697318       -0.598208
0.143                   0.694088       -0.601081
0.144                   0.690846       -0.603932
0.145                   0.687592       -0.606762
0.146                   0.684325        -0.60957
0.147                   0.681046       -0.612357
0.148                   0.677756       -0.615121
0.149                   0.674454       -0.617864
0.15                    0.671141       -0.620585
0.151                   0.667816       -0.623285
0.152                   0.664481       -0.625962
0.153                   0.661134       -0.628617
0.154                   0.657777        -0.63125
0.155                    0.65441       -0.633862
0.156                   0.651032       -0.636451
0.157                   0.647644       -0.639018
0.158                   0.644247       -0.641563
0.159                    0.64084       -0.644086
0.16                    0.637423       -0.646587
0.161                   0.633998       -0.649065
0.162                   0.630563       -0.651522
0.163                   0.627119       -0.653956
0.164                   0.623666       -0.656368
0.165                   0.620205       -0.658758
0.166                   0.616736       -0.661126
0.167                   0.613258       -0.663472
0.168                   0.609772       -0.665795
0.169                   0.606279       -0.668096
0.17                    0.602778       -0.670375
0.171                    0.59927       -0.672631
0.172                   0.595754       -0.674865
0.173                   0.592231       -0.677077
0.174                   0.588702       -0.679267
0.175                   0.585165       -0.681435
0.176                   0.581623        -0.68358
0.177                   0.578074       -0.685703
0.178                   0.574518       -0.687804
0.179                   0.570957       -0.689883
0.18                     0.56739       -0.691939
0.181                   0.563817       -0.693974
0.182                   0.560239       -0.695986
0.183                   0.556655       -0.697976
0.184                   0.553066       -0.699944
0.185                   0.549473        -0.70189
0.186                   0.545874       -0.703814
0.187                   0.542271       -0.705715
0.188                   0.538664       -0.707595
0.189                   0.535052       -0.709453
0.19                    0.531436       -0.711288
0.191                   0.527816       -0.713102
0.192                   0.524192       -0.714894
0.193                   0.520565       -0.716664
0.194                   0.516934       -0.718412
0.195                     0.5133       -0.720138
0.196                   0.509663       -0.721843
0.197                   0.506023       -0.723525
0.198                    0.50238       -0.725186
0.199                   0.498734       -0.726826
0.2                     0.495086       -0.728443
0.201                   0.491435       -0.730039
0.202                   0.487783       -0.731614
0.203                   0.484128       -0.733167
0.204                   0.480471       -0.734699
0.205                   0.476813       -0.736209
0.206                   0.473153       -0.737698
0.207                   0.469492       -0.739165
0.208                   0.465829       -0.740611
0.209                   0.462165       -0.742036
0.21                    0.458501        -0.74344
0.211                   0.454835       -0.744823
0.212                   0.451169       -0.746185
0.213                   0.447502       -0.747525
0.214                   0.443834       -0.748845
0.215                   0.440167       -0.750144
0.216                   0.436499       -0.751422
0.217                   0.432832        -0.75268
0.218                   0.429164       -0.753916
0.219                   0.425497       -0.755132
0.22                     0.42183       -0.756328
0.221                   0.418164       -0.757502
0.222                   0.414498       -0.758657
0.223                   0.410834       -0.759791
0.224                    0.40717       -0.760905
0.225                   0.403507       -0.761998
0.226                   0.399846       -0.763071
0.227                   0.396186       -0.764125
0.228                   0.392527       -0.765158
0.229                    0.38887       -0.766171
0.23                    0.385215       -0.767164
0.231                   0.381561       -0.768138
0.232                    0.37791       -0.769091
0.233                   0.374261       -0.770025
0.234                   0.370613        -0.77094
0.235                   0.366968       -0.771835
0.236                   0.363326        -0.77271
0.237                   0.359686       -0.773566
0.238                   0.356049       -0.774403
0.239                   0.352415        -0.77522
0.24                    0.348784       -0.776019
0.241                   0.345155       -0.776798
0.242                    0.34153       -0.777558
0.243                   0.337908         -0.7783
0.244                    0.33429       -0.779022
0.245                   0.330674       -0.779726
0.246                   0.327063       -0.780411
0.247                   0.323455       -0.781078
0.248                   0.319851       -0.781726
0.249                   0.316251       -0.782356
0.25                    0.312654       -0.782968
0.251                   0.309062       -0.783561
0.252                   0.305474       -0.784136
0.253                   0.301891       -0.784693
0.254                   0.298311       -0.785232
0.255                   0.294737       -0.785753
0.256                   0.291166       -0.786256
0.257                   0.287601       -0.786742
0.258                    0.28404        -0.78721
0.259                   0.280484        -0.78766
0.26                    0.276933       -0.788093
0.261                   0.273387       -0.788509
0.262                   0.269846       -0.788907
0.263                   0.266311       -0.789289
0.264                   0.262781       -0.789653
0.265                   0.259256           -0.79
0.266                   0.255736        -0.79033
0.267                   0.252222       -0.790643
0.268                   0.248714        -0.79094
0.269                   0.245211        -0.79122
0.27                    0.241714       -0.791484
0.271                   0.238223       -0.791731
0.272                   0.234738       -0.791962
0.273                   0.231259       -0.792176
0.274                   0.227787       -0.792374
0.275                    0.22432       -0.792557
0.276                   0.220859       -0.792723
0.277                   0.217405       -0.792873
0.278                   0.213957       -0.793008
0.279                   0.210516       -0.793127
0.28                    0.207081        -0.79323
0.281                   0.203653       -0.793318
0.282                   0.200231        -0.79339
0.283                   0.196816       -0.793448
0.284                   0.193408       -0.793489
0.285                   0.190007       -0.793516
0.286                   0.186612       -0.793528
0.287                   0.183225       -0.793525
0.288                   0.179844       -0.793507
0.289                   0.176471       -0.793474
0.29                    0.173104       -0.793426
0.291                   0.169745       -0.793364
0.292                   0.166393       -0.793288
0.293                   0.163049       -0.793197
0.294                   0.159712       -0.793092
0.295                   0.156382       -0.792973
0.296                    0.15306       -0.792839
0.297                   0.149745       -0.792692
0.298                   0.146437       -0.792531
0.299                   0.143138       -0.792356
0.3                     0.139845       -0.792167
0.301                   0.136561       -0.791964
0.302                   0.133284       -0.791748
0.303                   0.130016       -0.791519
0.304                   0.126755       -0.791277
0.305                   0.123502       -0.791021
0.306                   0.120256       -0.790752
0.307                   0.117019        -0.79047
0.308                   0.113789       -0.790175
0.309                   0.110568       -0.789867
0.31                    0.107355       -0.789546
0.311                    0.10415       -0.789213
0.312                   0.100952       -0.788867
0.313                  0.0977635       -0.788508
0.314                  0.0945827       -0.788138
0.315                  0.0914102       -0.787755
0.316                  0.0882462       -0.787359
0.317                    0.08509       -0.786952
0.318                  0.0819424       -0.786532
0.319                  0.0788031       -0.786101
0.32                   0.0756723       -0.785658
0.321                  0.0725496       -0.785203
0.322                  0.0694355       -0.784736
0.323                  0.0663299       -0.784258
0.324                  0.0632326       -0.783768
0.325                  0.0601439       -0.783267
0.326                  0.0570637       -0.782755
0.327                  0.0539922       -0.782231
0.328                  0.0509292       -0.781696
0.329                  0.0478746        -0.78115
0.33                   0.0448287       -0.780594
0.331                  0.0417916       -0.780026
0.332                  0.0387629       -0.779447
0.333                  0.0357431       -0.778858
0.334                  0.0327316       -0.778259
0.335                  0.0297292       -0.777648
0.336                  0.0267352       -0.777028
0.337                  0.0237501       -0.776397
0.338                  0.0207736       -0.775755
0.339                  0.0178059       -0.775104
0.34                   0.0148471       -0.774442
0.341                  0.0118968       -0.773771
0.342                 0.00895546       -0.773089
0.343                 0.00602285       -0.772398
0.344                 0.00309919       -0.771696
0.345                0.000183942       -0.770986
0.346                -0.00272214       -0.770265
0.347                -0.00561941       -0.769535
0.348                -0.00850803       -0.768796
0.349                 -0.0113878       -0.768047
0.35                  -0.0142586       -0.767289
0.351                 -0.0171206       -0.766522
0.352                 -0.0199738       -0.765746
0.353                 -0.0228181        -0.76496
0.354                 -0.0256535       -0.764166
0.355                 -0.0284801       -0.763363
0.356                  -0.031298       -0.762551
0.357                  -0.034107        -0.76173
0.358                 -0.0369068         -0.7609
0.359                 -0.0396981       -0.760062
0.36                  -0.0424804       -0.759216
0.361                 -0.0452539       -0.758361
0.362                 -0.0480185       -0.757498
0.363                 -0.0507744       -0.756626
0.364                 -0.0535213       -0.755746
0.365                 -0.0562594       -0.754858
0.366                 -0.0589886       -0.753962
0.367                  -0.061709       -0.753058
0.368                 -0.0644209       -0.752146
0.369                 -0.0671235       -0.751227
0.37                  -0.0698175       -0.750299
0.371                 -0.0725026       -0.749364
0.372                 -0.0751791       -0.748421
0.373                 -0.0778465       -0.747471
0.374                 -0.0805053       -0.746513
0.375                 -0.0831554       -0.745548
0.376                 -0.0857965       -0.744575
0.377                  -0.088429       -0.743595
0.378                 -0.0910527       -0.742608
0.379                 -0.0936676       -0.741613
0.38                   -0.096274       -0.740612
0.381                 -0.0988713       -0.739603
0.382                   -0.10146       -0.738588
0.383                   -0.10404       -0.737565
0.384                  -0.106612       -0.736536
0.385                  -0.109175         -0.7355
0.386                  -0.111729       -0.734457
0.387                  -0.114274       -0.733408
0.388                  -0.116811       -0.732352
0.389                  -0.119339       -0.731289
0.39                   -0.121859       -0.730221
0.391                   -0.12437       -0.729145
0.392                  -0.126872       -0.728063
0.393                  -0.129366       -0.726975
0.394                  -0.131851       -0.725881
0.395                  -0.134328       -0.724781
0.396                  -0.136797       -0.723674
0.397                  -0.139256       -0.722561
0.398                  -0.141708       -0.721443
0.399                  -0.144151       -0.720318
0.4                    -0.146585       -0.719188
0.401                  -0.149011       -0.718051
0.402                  -0.151429       -0.716909
0.403                  -0.153838       -0.715761
0.404                  -0.156239       -0.714608
0.405                  -0.158631       -0.713448
0.406                  -0.161015       -0.712284
0.407                  -0.163391       -0.711113
0.408                  -0.165759       -0.709937
0.409                  -0.168118       -0.708756
0.41                   -0.170469        -0.70757
0.411                  -0.172812       -0.706378
0.412                  -0.175146        -0.70518
0.413                  -0.177473       -0.703978
0.414                  -0.179791        -0.70277
0.415                  -0.182101       -0.701558
0.416                  -0.184403        -0.70034
0.417                  -0.186696       -0.699117
0.418                  -0.188982       -0.697889
0.419                   -0.19126       -0.696656
0.42                   -0.193529       -0.695418
0.421                  -0.195791       -0.694176
0.422                  -0.198044       -0.692928
0.423                  -0.200289       -0.691676
0.424                  -0.202527       -0.690419
0.425                  -0.204757       -0.689158
0.426                  -0.206978       -0.687891
0.427                  -0.209192        -0.68662
0.428                  -0.211398       -0.685345
0.429                  -0.213596       -0.684065
0.43                   -0.215786       -0.682781
0.431                  -0.217968       -0.681492
0.432                  -0.220143       -0.680198
0.433                   -0.22231       -0.678901
0.434                  -0.224469       -0.677599
0.435                   -0.22662       -0.676292
0.436                  -0.228764       -0.674982
0.437                    -0.2309       -0.673667
0.438                  -0.233028       -0.672348
0.439                  -0.235149       -0.671025
0.44                   -0.237261       -0.669698
0.441                  -0.239367       -0.668366
0.442                  -0.241465       -0.667031
0.443                  -0.243555       -0.665691
0.444                  -0.245638       -0.664348
0.445                  -0.247713       -0.663001
0.446                  -0.249781        -0.66165
0.447                  -0.251841       -0.660295
0.448                  -0.253894       -0.658936
0.449                   -0.25594       -0.657573
0.45                   -0.257978       -0.656206
0.451                  -0.260008       -0.654836
0.452                  -0.262032       -0.653462
0.453                  -0.264048       -0.652084
0.454                  -0.266057       -0.650703
0.455                  -0.268058       -0.649318
0.456                  -0.270052       -0.647929
0.457                  -0.272039       -0.646537
0.458                  -0.274019       -0.645141
0.459                  -0.275992       -0.643742
0.46                   -0.277957       -0.642339
0.461                  -0.279915       -0.640933
0.462                  -0.281867       -0.639523
0.463                  -0.283811        -0.63811
0.464                  -0.285748       -0.636693
0.465                  -0.287678       -0.635274
0.466                    -0.2896        -0.63385
0.467                  -0.291516       -0.632424
0.468                  -0.293425       -0.630994
0.469                  -0.295327       -0.629561
0.47                   -0.297222       -0.628124
0.471                   -0.29911       -0.626685
0.472                  -0.300991       -0.625242
0.473                  -0.302865       -0.623796
0.474                  -0.304733       -0.622347
0.475                  -0.306593       -0.620894
0.476                  -0.308447       -0.619439
0.477                  -0.310294        -0.61798
0.478                  -0.312134       -0.616519
0.479                  -0.313968       -0.615054
0.48                   -0.315794       -0.613586
0.481                  -0.317614       -0.612116
0.482                  -0.319427       -0.610642
0.483                  -0.321234       -0.609165
0.484                  -0.323034       -0.607686
0.485                  -0.324827       -0.606203
0.486                  -0.326613       -0.604718
0.487                  -0.328393       -0.603229
0.488                  -0.330166       -0.601738
0.489                  -0.331933       -0.600244
0.49                   -0.333693       -0.598747
0.491                  -0.335447       -0.597247
0.492                  -0.337194       -0.595744
0.493                  -0.338935       -0.594238
0.494                  -0.340669        -0.59273
0.495                  -0.342397       -0.591219
0.496                  -0.344118       -0.589705
0.497                  -0.345833       -0.588188
0.498                  -0.347542       -0.586669
0.499                  -0.349243       -0.585147
0.5                    -0.350939       -0.583622
0.501                  -0.352629       -0.582095
0.502                  -0.354312       -0.580565
0.503                  -0.355988       -0.579032
0.504                  -0.357659       -0.577497
0.505                  -0.359323       -0.575959
0.506                   -0.36098       -0.574418
0.507                  -0.362632       -0.572875
0.508                  -0.364277       -0.571329
0.509                  -0.365916        -0.56978
0.51                   -0.367549       -0.568229
0.511                  -0.369176       -0.566676
0.512                  -0.370796        -0.56512
0.513                  -0.372411       -0.563561
0.514                  -0.374019          -0.562
0.515                  -0.375621       -0.560436
0.516                  -0.377217        -0.55887
0.517                  -0.378806       -0.557301
0.518                   -0.38039        -0.55573
0.519                  -0.381968       -0.554156
0.52                   -0.383539        -0.55258
0.521                  -0.385105       -0.551002
0.522                  -0.386664       -0.549421
0.523                  -0.388218       -0.547837
0.524                  -0.389765       -0.546251
0.525                  -0.391306       -0.544663
0.526                  -0.392842       -0.543072
0.527                  -0.394371       -0.541479
0.528                  -0.395894       -0.539884
0.529                  -0.397412       -0.538286
0.53                   -0.398923       -0.536686
0.531                  -0.400429       -0.535083
0.532                  -0.401929       -0.533479
0.533                  -0.403422       -0.531871
0.534                   -0.40491       -0.530262
0.535                  -0.406392        -0.52865
0.536                  -0.407868       -0.527036
0.537                  -0.409338       -0.525419
0.538                  -0.410803       -0.523801
0.539                  -0.412261       -0.522179
0.54                   -0.413714       -0.520556
0.541                  -0.415161        -0.51893
0.542                  -0.416602       -0.517303
0.543                  -0.418037       -0.515672
0.544                  -0.419467        -0.51404
0.545                   -0.42089       -0.512405
0.546                  -0.422308       -0.510768
0.547                   -0.42372       -0.509129
0.548                  -0.425126       -0.507488
0.549                  -0.426527       -0.505844
0.55                   -0.427922       -0.504199
0.551                  -0.429311       -0.502551
0.552                  -0.430694         -0.5009
0.553                  -0.432071       -0.499248
0.554                  -0.433443       -0.497594
0.555                  -0.434809       -0.495937
0.556                   -0.43617       -0.494278
0.557                  -0.437524       -0.492617
0.558                  -0.438874       -0.490954
0.559                  -0.440217       -0.489288
0.56                   -0.441554       -0.487621
0.561                  -0.442886       -0.485951
0.562                  -0.444213        -0.48428
0.563                  -0.445533       -0.482606
0.564                  -0.446848        -0.48093
0.565                  -0.448158       -0.479251
0.566                  -0.449461       -0.477571
0.567                  -0.450759       -0.475889
0.568                  -0.452052       -0.474205
0.569                  -0.453338       -0.472518
0.57                   -0.454619        -0.47083
0.571                  -0.455895       -0.469139
0.572                  -0.457165       -0.467446
0.573                  -0.458429       -0.465752
0.574                  -0.459688       -0.464055
0.575                  -0.460941       -0.462356
0.576                  -0.462188       -0.460655
0.577                   -0.46343       -0.458952
0.578                  -0.464666       -0.457247
0.579                  -0.465896        -0.45554
0.58                   -0.467121       -0.453831
0.581                  -0.468341        -0.45212
0.582                  -0.469555       -0.450407
0.583                  -0.470763       -0.448692
0.584                  -0.471965       -0.446975
0.585                  -0.473163       -0.445256
0.586                  -0.474354       -0.443535
0.587                   -0.47554       -0.441812
0.588                   -0.47672       -0.440087
0.589                  -0.477895        -0.43836
0.59                   -0.479064       -0.436632
0.591                  -0.480228       -0.434901
0.592                  -0.481386       -0.433168
0.593                  -0.482538       -0.431433
0.594                  -0.483685       -0.429697
0.595                  -0.484826       -0.427958
0.596                  -0.485962       -0.426218
0.597                  -0.487092       -0.424476
0.598                  -0.488217       -0.422731
0.599                  -0.489336       -0.420985
0.6                    -0.490449       -0.419237
0.601                  -0.491557       -0.417488
0.602                  -0.492659       -0.415736
0.603                  -0.493756       -0.413982
0.604                  -0.494847       -0.412227
0.605                  -0.495933        -0.41047
0.606                  -0.497013        -0.40871
0.607                  -0.498087       -0.406949
0.608                  -0.499156       -0.405187
0.609                   -0.50022       -0.403422
0.61                   -0.501278       -0.401656
0.611                   -0.50233       -0.399887
0.612                  -0.503376       -0.398117
0.613                  -0.504418       -0.396346
0.614                  -0.505453       -0.394572
0.615                  -0.506483       -0.392797
0.616                  -0.507507       -0.391019
0.617                  -0.508526        -0.38924
0.618                  -0.509539        -0.38746
0.619                  -0.510547       -0.385677
0.62                   -0.511549       -0.383893
0.621                  -0.512545       -0.382107
0.622                  -0.513536        -0.38032
0.623                  -0.514522       -0.378531
0.624                  -0.515501        -0.37674
0.625                  -0.516475       -0.374947
0.626                  -0.517444       -0.373153
0.627                  -0.518407       -0.371357
0.628                  -0.519364       -0.369559
0.629                  -0.520316       -0.367759
0.63                   -0.521262       -0.365959
0.631                  -0.522202       -0.364156
0.632                  -0.523137       -0.362352
0.633                  -0.524067       -0.360546
0.634                   -0.52499       -0.358738
0.635                  -0.525908       -0.356929
0.636                  -0.526821       -0.355118
0.637                  -0.527728       -0.353306
0.638                  -0.528629       -0.351492
0.639                  -0.529524       -0.349677
0.64                   -0.530414        -0.34786
0.641                  -0.531299       -0.346041
0.642                  -0.532177       -0.344221
0.643                   -0.53305         -0.3424
0.644                  -0.533918       -0.340576
0.645                  -0.534779       -0.338752
0.646                  -0.535636       -0.336926
0.647                  -0.536486       -0.335098
0.648                  -0.537331       -0.333269
0.649                   -0.53817       -0.331439
0.65                   -0.539004       -0.329606
0.651                  -0.539831       -0.327773
0.652                  -0.540653       -0.325938
0.653                   -0.54147       -0.324102
0.654                  -0.542281       -0.322264
0.655                  -0.543086       -0.320425
0.656                  -0.543885       -0.318585
0.657                  -0.544679       -0.316743
0.658                  -0.545467         -0.3149
0.659                   -0.54625       -0.313055
0.66                   -0.547026       -0.311209
0.661                  -0.547797       -0.309362
0.662                  -0.548563       -0.307513
0.663                  -0.549322       -0.305663
0.664                  -0.550076       -0.303812
0.665                  -0.550824        -0.30196
0.666                  -0.551567       -0.300106
0.667                  -0.552304       -0.298251
0.668                  -0.553035       -0.296395
0.669                   -0.55376       -0.294538
0.67                   -0.554479       -0.292679
0.671                  -0.555193       -0.290819
0.672                  -0.555901       -0.288958
0.673                  -0.556604       -0.287096
0.674                  -0.557301       -0.285232
0.675                  -0.557991       -0.283368
0.676                  -0.558677       -0.281502
0.677                  -0.559356       -0.279635
0.678                   -0.56003       -0.277767
0.679                  -0.560698       -0.275898
0.68                    -0.56136       -0.274028
0.681                  -0.562016       -0.272156
0.682                  -0.562667       -0.270284
0.683                  -0.563311       -0.268411
0.684                  -0.563951       -0.266536
0.685                  -0.564584       -0.264661
0.686                  -0.565212       -0.262784
0.687                  -0.565833       -0.260907
0.688                  -0.566449       -0.259028
0.689                  -0.567059       -0.257149
0.69                   -0.567664       -0.255268
0.691                  -0.568262       -0.253387
0.692                  -0.568855       -0.251505
0.693                  -0.569442       -0.249621
0.694                  -0.570023       -0.247737
0.695                  -0.570598       -0.245852
0.696                  -0.571168       -0.243966
0.697                  -0.571732        -0.24208
0.698                   -0.57229       -0.240192
0.699                  -0.572842       -0.238304
0.7                    -0.573388       -0.236414
0.701                  -0.573929       -0.234524
0.702                  -0.574463       -0.232634
0.703                  -0.574992       -0.230742
0.704                  -0.575515        -0.22885
0.705                  -0.576032       -0.226956
0.706                  -0.576544       -0.225063
0.707                  -0.577049       -0.223168
0.708                  -0.577549       -0.221273
0.709                  -0.578043       -0.219377
0.71                   -0.578531        -0.21748
0.711                  -0.579013       -0.215583
0.712                  -0.579489       -0.213685
0.713                   -0.57996       -0.211787
0.714                  -0.580424       -0.209888
0.715                  -0.580883       -0.207988
0.716                  -0.581336       -0.206088
0.717                  -0.581783       -0.204187
0.718                  -0.582224       -0.202286
0.719                   -0.58266       -0.200384
0.72                   -0.583089       -0.198482
0.721                  -0.583513       -0.196579
0.722                   -0.58393       -0.194675
0.723                  -0.584342       -0.192771
0.724                  -0.584748       -0.190867
0.725                  -0.585149       -0.188962
0.726                  -0.585543       -0.187057
0.727                  -0.585931       -0.185152
0.728                  -0.586314       -0.183246
0.729                  -0.586691        -0.18134
0.73                   -0.587061       -0.179433
0.731                  -0.587426       -0.177526
0.732                  -0.587786       -0.175619
0.733                  -0.588139       -0.173711
0.734                  -0.588486       -0.171803
0.735                  -0.588828       -0.169895
0.736                  -0.589163       -0.167987
0.737                  -0.589493       -0.166078
0.738                  -0.589817       -0.164169
0.739                  -0.590135        -0.16226
0.74                   -0.590447       -0.160351
0.741                  -0.590753       -0.158442
0.742                  -0.591054       -0.156532
0.743                  -0.591348       -0.154622
0.744                  -0.591637       -0.152713
0.745                  -0.591919       -0.150803
0.746                  -0.592196       -0.148893
0.747                  -0.592467       -0.146983
0.748                  -0.592732       -0.145073
0.749                  -0.592992       -0.143163
0.75                   -0.593245       -0.141252
0.751                  -0.593493       -0.139342
0.752                  -0.593734       -0.137432
0.753                   -0.59397       -0.135522
0.754                    -0.5942       -0.133612
0.755                  -0.594424       -0.131702
0.756                  -0.594642       -0.129792
0.757                  -0.594855       -0.127882
0.758                  -0.595061       -0.125972
0.759                  -0.595262       -0.124063
0.76                   -0.595457       -0.122153
0.761                  -0.595645       -0.120244
0.762                  -0.595828       -0.118335
0.763                  -0.596006       -0.116426
0.764                  -0.596177       -0.114517
0.765                  -0.596342       -0.112609
0.766                  -0.596502       -0.110701
0.767                  -0.596656       -0.108793
0.768                  -0.596804       -0.106885
0.769                  -0.596946       -0.104978
0.77                   -0.597082       -0.103071
0.771                  -0.597213       -0.101164
0.772                  -0.597337      -0.0992578
0.773                  -0.597456      -0.0973517
0.774                  -0.597569      -0.0954462
0.775                  -0.597676      -0.0935411
0.776                  -0.597777      -0.0916363
0.777                  -0.597873       -0.089732
0.778                  -0.597962      -0.0878282
0.779                  -0.598046      -0.0859248
0.78                   -0.598124       -0.084022
0.781                  -0.598196      -0.0821196
0.782                  -0.598263      -0.0802177
0.783                  -0.598324      -0.0783164
0.784                  -0.598378      -0.0764156
0.785                  -0.598427      -0.0745154
0.786                  -0.598471      -0.0726159
0.787                  -0.598508      -0.0707169
0.788                   -0.59854      -0.0688186
0.789                  -0.598565      -0.0669209
0.79                   -0.598585      -0.0650238
0.791                    -0.5986      -0.0631274
0.792                  -0.598608      -0.0612317
0.793                  -0.598611      -0.0593366
0.794                  -0.598608      -0.0574424
0.795                  -0.598599       -0.055549
0.796                  -0.598585      -0.0536561
0.797                  -0.598564      -0.0517641
0.798                  -0.598538       -0.049873
0.799                  -0.598507      -0.0479827
0.8                    -0.598469      -0.0460931
0.801                  -0.598426      -0.0442044
0.802                  -0.598377      -0.0423164
0.803                  -0.598322      -0.0404294
0.804                  -0.598262      -0.0385434
0.805                  -0.598196      -0.0366582
0.806                  -0.598124       -0.034774
0.807                  -0.598046      -0.0328906
0.808                  -0.597963      -0.0310083
0.809                  -0.597874      -0.0291268
0.81                    -0.59778      -0.0272464
0.811                  -0.597679      -0.0253671
0.812                  -0.597574      -0.0234887
0.813                  -0.597462      -0.0216114
0.814                  -0.597345      -0.0197351
0.815                  -0.597222      -0.0178601
0.816                  -0.597093      -0.0159857
0.817                  -0.596959      -0.0141128
0.818                  -0.596819      -0.0122408
0.819                  -0.596673      -0.0103702
0.82                   -0.596522     -0.00850055
0.821                  -0.596365     -0.00663202
0.822                  -0.596203     -0.00476472
0.823                  -0.596035     -0.00289881
0.824                  -0.595861     -0.00103389
0.825                  -0.595682     0.000829624
0.826                  -0.595497      0.00269211
0.827                  -0.595307      0.00455303
0.828                  -0.595111      0.00641302
0.829                  -0.594909      0.00827155
0.83                   -0.594702       0.0101287
0.831                  -0.594489       0.0119845
0.832                  -0.594271       0.0138392
0.833                  -0.594047       0.0156925
0.834                  -0.593818       0.0175443
0.835                  -0.593583       0.0193946
0.836                  -0.593342       0.0212437
0.837                  -0.593096       0.0230914
0.838                  -0.592845       0.0249377
0.839                  -0.592588       0.0267823
0.84                   -0.592325       0.0286257
0.841                  -0.592057       0.0304674
0.842                  -0.591784       0.0323079
0.843                  -0.591505       0.0341467
0.844                  -0.591221       0.0359839
0.845                  -0.590931       0.0378197
0.846                  -0.590635       0.0396539
0.847                  -0.590334       0.0414865
0.848                  -0.590028       0.0433175
0.849                  -0.589716        0.045147
0.85                   -0.589399        0.046975
0.851                  -0.589077       0.0488011
0.852                  -0.588749       0.0506258
0.853                  -0.588415       0.0524486
0.854                  -0.588076         0.05427
0.855                  -0.587732       0.0560896
0.856                  -0.587383       0.0579074
0.857                  -0.587028       0.0597235
0.858                  -0.586667        0.061538
0.859                  -0.586302       0.0633507
0.86                   -0.585931       0.0651616
0.861                  -0.585554       0.0669708
0.862                  -0.585172       0.0687783
0.863                  -0.584785       0.0705839
0.864                  -0.584393       0.0723876
0.865                  -0.583995       0.0741897
0.866                  -0.583592       0.0759897
0.867                  -0.583184       0.0777882
0.868                   -0.58277       0.0795846
0.869                  -0.582351        0.081379
0.87                   -0.581927       0.0831716
0.871                  -0.581498       0.0849624
0.872                  -0.581063       0.0867512
0.873                  -0.580623       0.0885382
0.874                  -0.580178       0.0903231
0.875                  -0.579727       0.0921061
0.876                  -0.579272       0.0938871
0.877                  -0.578811       0.0956661
0.878                  -0.578345        0.097443
0.879                  -0.577873       0.0992181
0.88                   -0.577397        0.100991
0.881                  -0.576915        0.102762
0.882                  -0.576428        0.104531
0.883                  -0.575936        0.106298
0.884                  -0.575439        0.108062
0.885                  -0.574937        0.109825
0.886                  -0.574429        0.111586
0.887                  -0.573917        0.113344
0.888                  -0.573399          0.1151
0.889                  -0.572876        0.116855
0.89                   -0.572348        0.118607
0.891                  -0.571815        0.120356
0.892                  -0.571277        0.122104
0.893                  -0.570734         0.12385
0.894                  -0.570185        0.125593
0.895                  -0.569632        0.127334
0.896                  -0.569074        0.129073
0.897                   -0.56851        0.130809
0.898                  -0.567941        0.132544
0.899                  -0.567368        0.134276
0.9                    -0.566789        0.136005
0.901                  -0.566206        0.137733
0.902                  -0.565617        0.139458
0.903                  -0.565023        0.141181
0.904                  -0.564425        0.142901
0.905                  -0.563821         0.14462
0.906                  -0.563213        0.146335
0.907                  -0.562599        0.148049
0.908                  -0.561981         0.14976
0.909                  -0.561357        0.151469
0.91                   -0.560729        0.153175
0.911                  -0.560096        0.154879
0.912                  -0.559457        0.156581
0.913                  -0.558814         0.15828
0.914                  -0.558166        0.159976
0.915                  -0.557513         0.16167
0.916                  -0.556856        0.163362
0.917                  -0.556193        0.165051
0.918                  -0.555525        0.166738
0.919                  -0.554853        0.168422
0.92                   -0.554176        0.170104
0.921                  -0.553494        0.171783
0.922                  -0.552807         0.17346
0.923                  -0.552115        0.175134
0.924                  -0.551419        0.176805
0.925                  -0.550717        0.178474
0.926                  -0.550011        0.180141
0.927                    -0.5493        0.181804
0.928                  -0.548584        0.183466
0.929                  -0.547864        0.185124
0.93                   -0.547139         0.18678
0.931                  -0.546409        0.188434
0.932                  -0.545674        0.190084
0.933                  -0.544935        0.191732
0.934                   -0.54419        0.193378
0.935                  -0.543441         0.19502
0.936                  -0.542688         0.19666
0.937                  -0.541929        0.198298
0.938                  -0.541166        0.199932
0.939                  -0.540399        0.201564
0.94                   -0.539626        0.203193
0.941                  -0.538849         0.20482
0.942                  -0.538068        0.206443
0.943                  -0.537281        0.208064
0.944                   -0.53649        0.209682
0.945                  -0.535695        0.211298
0.946                  -0.534895         0.21291
0.947                   -0.53409         0.21452
0.948                   -0.53328        0.216127
0.949                  -0.532466        0.217731
0.95                   -0.531648        0.219332
0.951                  -0.530825        0.220931
0.952                  -0.529997        0.222526
0.953                  -0.529164        0.224119
0.954                  -0.528328        0.225709
0.955                  -0.527486        0.227296
0.956                   -0.52664         0.22888
0.957                   -0.52579        0.230461
0.958                  -0.524935        0.232039
0.959                  -0.524075        0.233614
0.96                   -0.523211        0.235187
0.961                  -0.522343        0.236756
0.962                   -0.52147        0.238323
0.963                  -0.520593        0.239886
0.964                  -0.519711        0.241447
0.965                  -0.518824        0.243004
0.966                  -0.517934        0.244559
0.967                  -0.517038         0.24611
0.968                  -0.516139        0.247659
0.969                  -0.515235        0.249204
0.97                   -0.514326        0.250747
0.971                  -0.513413        0.252286
0.972                  -0.512496        0.253822
0.973                  -0.511574        0.255356
0.974                  -0.510648        0.256886
0.975                  -0.509718        0.258413
0.976                  -0.508783        0.259937
0.977                  -0.507844        0.261458
0.978                    -0.5069        0.262976
0.979                  -0.505953         0.26449
0.98                      -0.505        0.266002
0.981                  -0.504044         0.26751
0.982                  -0.503083        0.269015
0.983                  -0.502118        0.270517
0.984                  -0.501149        0.272016
0.985                  -0.500175        0.273512
0.986                  -0.499197        0.275005
0.987                  -0.498215        0.276494
0.988                  -0.497228         0.27798
0.989                  -0.496238        0.279463
0.99                   -0.495243        0.280943
0.991                  -0.494244        0.282419
0.992                   -0.49324        0.283892
0.993                  -0.492232        0.285362
0.994                  -0.491221        0.286829
0.995                  -0.490205        0.288292
0.996                  -0.489184        0.289752
0.997                   -0.48816        0.291209
0.998                  -0.487131        0.292662
0.999                  -0.486099        0.294112
1                      -0.485062        0.295559
1.001                  -0.484021        0.297003
1.002                  -0.482975        0.298443
1.003                  -0.481926         0.29988
1.004                  -0.480872        0.301313
1.005                  -0.479815        0.302743
1.006                  -0.478753         0.30417
1.007                  -0.477687        0.305593
1.008                  -0.476617        0.307013
1.009                  -0.475543        0.308429
1.01                   -0.474465        0.309842
1.011                  -0.473383        0.311252
1.012                  -0.472297        0.312658
1.013                  -0.471207        0.314061
1.014                  -0.470113         0.31546
1.015                  -0.469014        0.316855
1.016                  -0.467912        0.318248
1.017                  -0.466806        0.319636
1.018                  -0.465695        0.321022
1.019                  -0.464581        0.322403
1.02                   -0.463463        0.323782
1.021                   -0.46234        0.325156
1.022                  -0.461214        0.326527
1.023                  -0.460084        0.327895
1.024                  -0.458949        0.329259
1.025                  -0.457811         0.33062
1.026                  -0.456669        0.331977
1.027                  -0.455523         0.33333
1.028                  -0.454373        0.334679
1.029                  -0.453219        0.336026
1.03                   -0.452061        0.337368
1.031                    -0.4509        0.338707
1.032                  -0.449734        0.340042
1.033                  -0.448564        0.341374
1.034                  -0.447391        0.342701
1.035                  -0.446214        0.344026
1.036                  -0.445033        0.345346
1.037                  -0.443848        0.346663
1.038                  -0.442659        0.347976
1.039                  -0.441467        0.349286
1.04                    -0.44027        0.350591
1.041                   -0.43907        0.351894
1.042                  -0.437866        0.353192
1.043                  -0.436658        0.354486
1.044                  -0.435446        0.355777
1.045                  -0.434231        0.357064
1.046                  -0.433012        0.358347
1.047                  -0.431789        0.359627
1.048                  -0.430562        0.360902
1.049                  -0.429332        0.362174
1.05                   -0.428098        0.363442
1.051                   -0.42686        0.364706
1.052                  -0.425618        0.365967
1.053                  -0.424373        0.367223
1.054                  -0.423124        0.368476
1.055                  -0.421871        0.369725
1.056                  -0.420615         0.37097
1.057                  -0.419355        0.372211
1.058                  -0.418091        0.373448
1.059                  -0.416824        0.374681
1.06                   -0.415552        0.375911
1.061                  -0.414278        0.377136
1.062                  -0.412999        0.378357
1.063                  -0.411718        0.379575
1.064                  -0.410432        0.380788
1.065                  -0.409143        0.381998
1.066                   -0.40785        0.383204
1.067                  -0.406554        0.384405
1.068                  -0.405254        0.385603
1.069                   -0.40395        0.386796
1.07                   -0.402643        0.387986
1.071                  -0.401333        0.389171
1.072                  -0.400018        0.390353
1.073                  -0.398701         0.39153
1.074                   -0.39738        0.392704
1.075                  -0.396055        0.393873
1.076                  -0.394727        0.395038
1.077                  -0.393395        0.396199
1.078                   -0.39206        0.397356
1.079                  -0.390721        0.398509
1.08                   -0.389379        0.399658
1.081                  -0.388034        0.400803
1.082                  -0.386685        0.401943
1.083                  -0.385332         0.40308
1.084                  -0.383976        0.404212
1.085                  -0.382617         0.40534
1.086                  -0.381255        0.406464
1.087                  -0.379888        0.407583
1.088                  -0.378519        0.408699
1.089                  -0.377146         0.40981
1.09                    -0.37577        0.410917
1.091                   -0.37439         0.41202
1.092                  -0.373007        0.413118
1.093                  -0.371621        0.414213
1.094                  -0.370231        0.415302
1.095                  -0.368839        0.416388
1.096                  -0.367442         0.41747
1.097                  -0.366043        0.418547
1.098                   -0.36464        0.419619
1.099                  -0.363234        0.420688
1.1                    -0.361824        0.421752
1.101                  -0.360412        0.422812
1.102                  -0.358996        0.423867
1.103                  -0.357577        0.424918
1.104                  -0.356155        0.425965
1.105                  -0.354729        0.427007
1.106                    -0.3533        0.428045
1.107                  -0.351868        0.429079
1.108                  -0.350433        0.430108
1.109                  -0.348995        0.431132
1.11                   -0.347554        0.432153
1.111                  -0.346109        0.433168
1.112                  -0.344661        0.434179
1.113                   -0.34321        0.435186
1.114                  -0.341756        0.436189
1.115                  -0.340299        0.437186
1.116                  -0.338839         0.43818
1.117                  -0.337376        0.439168
1.118                  -0.335909        0.440153
1.119                   -0.33444        0.441133
1.12                   -0.332968        0.442108
1.121                  -0.331492        0.443078
1.122                  -0.330013        0.444044
1.123                  -0.328532        0.445006
1.124                  -0.327047        0.445963
1.125                   -0.32556        0.446915
1.126                  -0.324069        0.447863
1.127                  -0.322576        0.448806
1.128                  -0.321079        0.449744
1.129                   -0.31958        0.450678
1.13                   -0.318077        0.451607
1.131                  -0.316572        0.452531
1.132                  -0.315064        0.453451
1.133                  -0.313553        0.454366
1.134                  -0.312039        0.455277
1.135                  -0.310522        0.456182
1.136                  -0.309002        0.457083
1.137                   -0.30748        0.457979
1.138                  -0.305954        0.458871
1.139                  -0.304426        0.459758
1.14                   -0.302895         0.46064
1.141                  -0.301361        0.461517
1.142                  -0.299825        0.462389
1.143                  -0.298285        0.463257
1.144                  -0.296743         0.46412
1.145                  -0.295198        0.464977
1.146                   -0.29365        0.465831
1.147                    -0.2921        0.466679
1.148                  -0.290547        0.467522
1.149                  -0.288991        0.468361
1.15                   -0.287433        0.469195
1.151                  -0.285871        0.470024
1.152                  -0.284308        0.470848
1.153                  -0.282741        0.471667
1.154                  -0.281172        0.472481
1.155                    -0.2796         0.47329
1.156                  -0.278026        0.474094
1.157                  -0.276449        0.474894
1.158                   -0.27487        0.475688
1.159                  -0.273287        0.476477
1.16                   -0.271703        0.477262
1.161                  -0.270116        0.478041
1.162                  -0.268526        0.478816
1.163                  -0.266934        0.479585
1.164                  -0.265339         0.48035
1.165                  -0.263742        0.481109
1.166                  -0.262142        0.481864
1.167                   -0.26054        0.482613
1.168                  -0.258935        0.483357
1.169                  -0.257328        0.484097
1.17                   -0.255719        0.484831
1.171                  -0.254107         0.48556
1.172                  -0.252493        0.486284
1.173                  -0.250877        0.487003
1.174                  -0.249258        0.487716
1.175                  -0.247637        0.488425
1.176                  -0.246013        0.489129
1.177                  -0.244387        0.489827
1.178                  -0.242759         0.49052
1.179                  -0.241129        0.491208
1.18                   -0.239496        0.491891
1.181                  -0.237861        0.492569
1.182                  -0.236224        0.493241
1.183                  -0.234585        0.493908
1.184                  -0.232943        0.494571
1.185                  -0.231299        0.495227
1.186                  -0.229653        0.495879
1.187                  -0.228005        0.496525
1.188                  -0.226355        0.497166
1.189                  -0.224702        0.497802
1.19                   -0.223048        0.498433
1.191                  -0.221392        0.499058
1.192                  -0.219733        0.499678
1.193                  -0.218072        0.500293
1.194                  -0.216409        0.500902
1.195                  -0.214745        0.501506
1.196                  -0.213078        0.502105
1.197                  -0.211409        0.502699
1.198                  -0.209738        0.503287
1.199                  -0.208066        0.503869
1.2                    -0.206391        0.504447
1.201                  -0.204714        0.505019
1.202                  -0.203036        0.505585
1.203                  -0.201355        0.506147
1.204                  -0.199673        0.506702
1.205                  -0.197989        0.507253
1.206                  -0.196303        0.507798
1.207                  -0.194615        0.508337
1.208                  -0.192925        0.508872
1.209                  -0.191234          0.5094
1.21                   -0.189541        0.509924
1.211                  -0.187846        0.510441
1.212                  -0.186149        0.510954
1.213                  -0.184451        0.511461
1.214                  -0.182751        0.511962
1.215                  -0.181049        0.512458
1.216                  -0.179345        0.512948
1.217                   -0.17764        0.513433
1.218                  -0.175933        0.513913
1.219                  -0.174225        0.514386
1.22                   -0.172515        0.514855
1.221                  -0.170803        0.515317
1.222                   -0.16909        0.515775
1.223                  -0.167375        0.516227
1.224                  -0.165659        0.516673
1.225                  -0.163941        0.517113
1.226                  -0.162222        0.517548
1.227                  -0.160501        0.517978
1.228                  -0.158779        0.518402
1.229                  -0.157055         0.51882
1.23                    -0.15533        0.519232
1.231                  -0.153604        0.519639
1.232                  -0.151876        0.520041
1.233                  -0.150146        0.520437
1.234                  -0.148416        0.520827
1.235                  -0.146684        0.521211
1.236                  -0.144951         0.52159
1.237                  -0.143216        0.521963
1.238                   -0.14148        0.522331
1.239                  -0.139743        0.522693
1.24                   -0.138005        0.523049
1.241                  -0.136265          0.5234
1.242                  -0.134525        0.523745
1.243                  -0.132783        0.524084
1.244                   -0.13104        0.524417
1.245                  -0.129296        0.524745
1.246                   -0.12755        0.525067
1.247                  -0.125804        0.525384
1.248                  -0.124056        0.525694
1.249                  -0.122308        0.525999
1.25                   -0.120558        0.526298
1.251                  -0.118808        0.526592
1.252                  -0.117056         0.52688
1.253                  -0.115303        0.527162
1.254                   -0.11355        0.527438
1.255                  -0.111795        0.527708
1.256                   -0.11004        0.527973
1.257                  -0.108283        0.528232
1.258                  -0.106526        0.528485
1.259                  -0.104768        0.528733
1.26                   -0.103009        0.528974
1.261                  -0.101249         0.52921
1.262                 -0.0994886         0.52944
1.263                 -0.0977271        0.529665
1.264                 -0.0959649        0.529883
1.265                 -0.0942019        0.530096
1.266                 -0.0924382        0.530303
1.267                  -0.090674        0.530504
1.268                 -0.0889089        0.530699
1.269                 -0.0871432        0.530888
1.27                  -0.0853768        0.531072
1.271                 -0.0836099         0.53125
1.272                 -0.0818422        0.531422
1.273                  -0.080074        0.531588
1.274                 -0.0783053        0.531748
1.275                 -0.0765359        0.531903
1.276                 -0.0747661        0.532051
1.277                 -0.0729959        0.532194
1.278                  -0.071225        0.532331
1.279                 -0.0694537        0.532462
1.28                  -0.0676821        0.532587
1.281                 -0.0659099        0.532707
1.282                 -0.0641371         0.53282
1.283                 -0.0623642        0.532928
1.284                  -0.060591         0.53303
1.285                 -0.0588174        0.533126
1.286                 -0.0570434        0.533216
1.287                 -0.0552691          0.5333
1.288                 -0.0534946        0.533378
1.289                 -0.0517196         0.53345
1.29                  -0.0499447        0.533517
1.291                 -0.0481694        0.533578
1.292                 -0.0463942        0.533632
1.293                 -0.0446186        0.533681
1.294                 -0.0428426        0.533724
1.295                 -0.0410668        0.533761
1.296                 -0.0392907        0.533793
1.297                 -0.0375148        0.533818
1.298                 -0.0357383        0.533838
1.299                 -0.0339621        0.533851
1.3                   -0.0321859        0.533859
1.301                 -0.0304095        0.533861
1.302                 -0.0286334        0.533857
1.303                  -0.026857        0.533847
1.304                 -0.0250808        0.533831
1.305                 -0.0233049        0.533809
1.306                 -0.0215287        0.533781
1.307                 -0.0197528        0.533748
1.308                 -0.0179772        0.533708
1.309                 -0.0162014        0.533663
1.31                  -0.0144261        0.533612
1.311                  -0.012651        0.533555
1.312                 -0.0108759        0.533491
1.313                -0.00910113        0.533423
1.314                -0.00732658        0.533348
1.315                 -0.0055526        0.533267
1.316                -0.00377868         0.53318
1.317                -0.00200485        0.533088
1.318               -0.000231633         0.53299
1.319                 0.00154095        0.532885
1.32                  0.00331364        0.532775
1.321                 0.00508566        0.532659
1.322                 0.00685749        0.532537
1.323                 0.00862861        0.532409
1.324                   0.010399        0.532276
1.325                  0.0121694        0.532136
1.326                   0.013939        0.531991
1.327                  0.0157084        0.531839
1.328                  0.0174767        0.531682
1.329                  0.0192449        0.531519
1.33                   0.0210122         0.53135
1.331                  0.0227793        0.531175
1.332                  0.0245454        0.530994
1.333                  0.0263108        0.530808
1.334                  0.0280756        0.530615
1.335                    0.02984        0.530417
1.336                  0.0316034        0.530213
1.337                  0.0333658        0.530003
1.338                  0.0351277        0.529787
1.339                  0.0368891        0.529565
1.34                   0.0386494        0.529338
1.341                   0.040409        0.529104
1.342                  0.0421674        0.528865
1.343                  0.0439253         0.52862
1.344                  0.0456823        0.528369
1.345                  0.0474381        0.528113
1.346                  0.0491931         0.52785
1.347                  0.0509474        0.527582
1.348                  0.0527002        0.527307
1.349                  0.0544525        0.527027
1.35                   0.0562037        0.526742
1.351                  0.0579538         0.52645
1.352                  0.0597029        0.526153
1.353                   0.061451        0.525849
1.354                  0.0631977         0.52554
1.355                  0.0649437        0.525225
1.356                   0.066688        0.524905
1.357                  0.0684317        0.524578
1.358                   0.070174        0.524246
1.359                  0.0719152        0.523908
1.36                   0.0736552        0.523565
1.361                  0.0753937        0.523215
1.362                  0.0771313         0.52286
1.363                  0.0788672        0.522499
1.364                  0.0806023        0.522132
1.365                  0.0823356         0.52176
1.366                  0.0840679        0.521382
1.367                  0.0857989        0.520998
1.368                  0.0875283        0.520608
1.369                  0.0892567        0.520213
1.37                   0.0909831        0.519812
1.371                  0.0927084        0.519405
1.372                  0.0944321        0.518993
1.373                  0.0961546        0.518574
1.374                  0.0978754        0.518151
1.375                  0.0995945        0.517721
1.376                   0.101312        0.517286
1.377                   0.103029        0.516845
1.378                   0.104743        0.516398
1.379                   0.106457        0.515946
1.38                    0.108168        0.515488
1.381                   0.109878        0.515025
1.382                   0.111586        0.514556
1.383                   0.113293        0.514081
1.384                   0.114998        0.513601
1.385                   0.116701        0.513115
1.386                   0.118402        0.512623
1.387                   0.120102        0.512126
1.388                     0.1218        0.511623
1.389                   0.123496        0.511114
1.39                    0.125191        0.510601
1.391                   0.126883        0.510081
1.392                   0.128574        0.509556
1.393                   0.130263        0.509025
1.394                    0.13195        0.508489
1.395                   0.133635        0.507947
1.396                   0.135318          0.5074
1.397                   0.136999        0.506847
1.398                   0.138679        0.506289
1.399                   0.140356        0.505725
1.4                     0.142032        0.505155
1.401                   0.143705        0.504581
1.402                   0.145376           0.504
1.403                   0.147046        0.503414
1.404                   0.148713        0.502823
1.405                   0.150378        0.502226
1.406                   0.152041        0.501624
1.407                   0.153702        0.501016
1.408                   0.155361        0.500403
1.409                   0.157018        0.499785
1.41                    0.158673        0.499161
1.411                   0.160325        0.498531
1.412                   0.161975        0.497897
1.413                   0.163623        0.497256
1.414                   0.165269        0.496611
1.415                   0.166913         0.49596
1.416                   0.168554        0.495304
1.417                   0.170193        0.494642
1.418                    0.17183        0.493975
1.419                   0.173464        0.493303
1.42                    0.175096        0.492625
1.421                   0.176726        0.491942
1.422                   0.178353        0.491254
1.423                   0.179978         0.49056
1.424                   0.181601        0.489861
1.425                   0.183221        0.489157
1.426                   0.184838        0.488447
1.427                   0.186454        0.487732
1.428                   0.188066        0.487012
1.429                   0.189677        0.486287
1.43                    0.191284        0.485557
1.431                    0.19289        0.484821
1.432                   0.194492         0.48408
1.433                   0.196093        0.483334
1.434                    0.19769        0.482583
1.435                   0.199285        0.481826
1.436                   0.200878        0.481064
1.437                   0.202467        0.480297
1.438                   0.204055        0.479525
1.439                   0.205639        0.478748
1.44                    0.207221        0.477966
1.441                     0.2088        0.477178
1.442                   0.210377        0.476386
1.443                   0.211951        0.475588
1.444                   0.213522        0.474785
1.445                    0.21509        0.473978
1.446                   0.216656        0.473165
1.447                   0.218218        0.472347
1.448                   0.219778        0.471523
1.449                   0.221336        0.470695
1.45                     0.22289        0.469862
1.451                   0.224442        0.469024
1.452                    0.22599        0.468181
1.453                   0.227536        0.467333
1.454                   0.229079        0.466479
1.455                   0.230619        0.465621
1.456                   0.232156        0.464758
1.457                   0.233691         0.46389
1.458                   0.235222        0.463017
1.459                    0.23675        0.462139
1.46                    0.238276        0.461256
1.461                   0.239798        0.460368
1.462                   0.241318        0.459475
1.463                   0.242834        0.458578
1.464                   0.244347        0.457675
1.465                   0.245858        0.456768
1.466                   0.247365        0.455855
1.467                   0.248869        0.454938
1.468                    0.25037        0.454016
1.469                   0.251868        0.453089
1.47                    0.253363        0.452158
1.471                   0.254855        0.451221
1.472                   0.256344         0.45028
1.473                   0.257829        0.449334
1.474                   0.259312        0.448383
1.475                   0.260791        0.447427
1.476                   0.262267        0.446467
1.477                    0.26374        0.445502
1.478                   0.265209        0.444532
1.479                   0.266675        0.443557
1.48                    0.268139        0.442578
1.481                   0.269598        0.441594
1.482                   0.271055        0.440605
1.483                   0.272508        0.439612
1.484                   0.273958        0.438614
1.485                   0.275405        0.437611
1.486                   0.276848        0.436604
1.487                   0.278288        0.435592
1.488                   0.279724        0.434575
1.489                   0.281158        0.433554
1.49                    0.282588        0.432528
1.491                   0.284014        0.431498
1.492                   0.285437        0.430463
1.493                   0.286857        0.429423
1.494                   0.288273        0.428379
1.495                   0.289686         0.42733
1.496                   0.291095        0.426277
1.497                   0.292501        0.425219
1.498                   0.293903        0.424157
1.499                   0.295302         0.42309
1.5                     0.296697        0.422019
1.501                   0.298089        0.420943
1.502                   0.299477        0.419863
1.503                   0.300862        0.418778
1.504                   0.302243        0.417689
1.505                   0.303621        0.416596
1.506                   0.304995        0.415498
1.507                   0.306365        0.414395
1.508                   0.307732        0.413288
1.509                   0.309095        0.412177
1.51                    0.310455        0.411062
1.511                   0.311811        0.409942
1.512                   0.313163        0.408818
1.513                   0.314511        0.407689
1.514                   0.315856        0.406556
1.515                   0.317197        0.405419
1.516                   0.318535        0.404277
1.517                   0.319869        0.403131
1.518                   0.321199        0.401981
1.519                   0.322525        0.400826
1.52                    0.323847        0.399668
1.521                   0.325166        0.398505
1.522                   0.326481        0.397338
1.523                   0.327792        0.396166
1.524                     0.3291         0.39499
1.525                   0.330403         0.39381
1.526                   0.331703        0.392626
1.527                   0.332999        0.391438
1.528                   0.334291        0.390246
1.529                   0.335579        0.389049
1.53                    0.336863        0.387848
1.531                   0.338144        0.386643
1.532                    0.33942        0.385434
1.533                   0.340693        0.384221
1.534                   0.341962        0.383004
1.535                   0.343226        0.381782
1.536                   0.344487        0.380557
1.537                   0.345744        0.379327
1.538                   0.346997        0.378094
1.539                   0.348246        0.376856
1.54                    0.349491        0.375614
1.541                   0.350732        0.374369
1.542                   0.351969        0.373119
1.543                   0.353202        0.371865
1.544                   0.354431        0.370607
1.545                   0.355655        0.369345
1.546                   0.356876         0.36808
1.547                   0.358093         0.36681
1.548                   0.359305        0.365536
1.549                   0.360514        0.364259
1.55                    0.361718        0.362977
1.551                   0.362919        0.361692
1.552                   0.364115        0.360402
1.553                   0.365307        0.359109
1.554                   0.366495        0.357812
1.555                   0.367678        0.356511
1.556                   0.368858        0.355206
1.557                   0.370033        0.353898
1.558                   0.371204        0.352585
1.559                   0.372371        0.351269
1.56                    0.373534        0.349948
1.561                   0.374693        0.348624
1.562                   0.375847        0.347297
1.563                   0.376997        0.345965
1.564                   0.378143         0.34463
1.565                   0.379284        0.343291
1.566                   0.380421        0.341948
1.567                   0.381554        0.340601
1.568                   0.382683        0.339251
1.569                   0.383807        0.337897
1.57                    0.384927        0.336539
1.571                   0.386042        0.335178
1.572                   0.387154        0.333813
1.573                   0.388261        0.332444
1.574                   0.389363        0.331071
1.575                   0.390461        0.329695
1.576                   0.391555        0.328316
1.577                   0.392644        0.326932
1.578                   0.393729        0.325545
1.579                   0.394809        0.324155
1.58                    0.395885        0.322761
1.581                   0.396957        0.321363
1.582                   0.398024        0.319962
1.583                   0.399087        0.318557
1.584                   0.400145        0.317149
1.585                   0.401198        0.315737
1.586                   0.402247        0.314321
1.587                   0.403292        0.312903
1.588                   0.404332         0.31148
1.589                   0.405368        0.310054
1.59                    0.406398        0.308625
1.591                   0.407425        0.307192
1.592                   0.408447        0.305756
1.593                   0.409464        0.304316
1.594                   0.410476        0.302873
1.595                   0.411484        0.301427
1.596                   0.412487        0.299977
1.597                   0.413486        0.298523
1.598                    0.41448        0.297067
1.599                    0.41547        0.295607
1.6                     0.416454        0.294143
1.601                   0.417434        0.292676
1.602                    0.41841        0.291206
1.603                    0.41938        0.289733
1.604                   0.420346        0.288256
1.605                   0.421307        0.286776
1.606                   0.422264        0.285293
1.607                   0.423215        0.283807
1.608                   0.424162        0.282317
1.609                   0.425104        0.280824
1.61                    0.426042        0.279328
1.611                   0.426974        0.277828
1.612                   0.427902        0.276325
1.613                   0.428825         0.27482
1.614                   0.429743        0.273311
1.615                   0.430656        0.271798
1.616                   0.431565        0.270283
1.617                   0.432468        0.268765
1.618                   0.433367        0.267243
1.619                    0.43426        0.265718
1.62                    0.435149         0.26419
1.621                   0.436033        0.262659
1.622                   0.436912        0.261125
1.623                   0.437786        0.259588
1.624                   0.438655        0.258048
1.625                   0.439519        0.256505
1.626                   0.440378        0.254959
1.627                   0.441232         0.25341
1.628                   0.442081        0.251857
1.629                   0.442926        0.250302
1.63                    0.443765        0.248744
1.631                   0.444599        0.247183
1.632                   0.445428        0.245619
1.633                   0.446252        0.244052
1.634                    0.44707        0.242482
1.635                   0.447884        0.240909
1.636                   0.448693        0.239334
1.637                   0.449496        0.237755
1.638                   0.450295        0.236174
1.639                   0.451088        0.234589
1.64                    0.451876        0.233002
1.641                    0.45266        0.231412
1.642                   0.453437         0.22982
1.643                    0.45421        0.228224
1.644                   0.454978        0.226626
1.645                    0.45574        0.225025
1.646                   0.456497        0.223421
1.647                   0.457249        0.221814
1.648                   0.457995        0.220205
1.649                   0.458737        0.218593
1.65                    0.459473        0.216978
1.651                   0.460203        0.215361
1.652                   0.460929        0.213741
1.653                   0.461649        0.212118
1.654                   0.462364        0.210493
1.655                   0.463074        0.208865
1.656                   0.463778        0.207234
1.657                   0.464477        0.205601
1.658                    0.46517        0.203966
1.659                   0.465858        0.202327
1.66                    0.466541        0.200687
1.661                   0.467219        0.199043
1.662                    0.46789        0.197398
1.663                   0.468557        0.195749
1.664                   0.469218        0.194098
1.665                   0.469874        0.192445
1.666                   0.470524        0.190789
1.667                   0.471169        0.189131
1.668                   0.471808        0.187471
1.669                   0.472442        0.185808
1.67                     0.47307        0.184143
1.671                   0.473693        0.182475
1.672                    0.47431        0.180805
1.673                   0.474921        0.179132
1.674                   0.475528        0.177458
1.675                   0.476128        0.175781
1.676                   0.476723        0.174102
1.677                   0.477313         0.17242
1.678                   0.477896        0.170736
1.679                   0.478474         0.16905
1.68                    0.479047        0.167362
1.681                   0.479614        0.165672
1.682                   0.480175        0.163979
1.683                   0.480731        0.162284
1.684                   0.481281        0.160587
1.685                   0.481825        0.158888
1.686                   0.482363        0.157187
1.687                   0.482896        0.155484
1.688                   0.483423        0.153779
1.689                   0.483945        0.152071
1.69                     0.48446        0.150362
1.691                    0.48497         0.14865
1.692                   0.485475        0.146937
1.693                   0.485973        0.145222
1.694                   0.486465        0.143504
1.695                   0.486952        0.141785
1.696                   0.487433        0.140064
1.697                   0.487908        0.138341
1.698                   0.488378        0.136616
1.699                   0.488841        0.134889
1.7                     0.489299         0.13316
1.701                    0.48975        0.131429
1.702                   0.490196        0.129697
1.703                   0.490636        0.127963
1.704                    0.49107        0.126227
1.705                   0.491499        0.124489
1.706                   0.491921         0.12275
1.707                   0.492337        0.121009
1.708                   0.492747        0.119266
1.709                   0.493152        0.117521
1.71                     0.49355        0.115775
1.711                   0.493943        0.114027
1.712                   0.494329        0.112278
1.713                    0.49471        0.110527
1.714                   0.495084        0.108775
1.715                   0.495453         0.10702
1.716                   0.495815        0.105265
1.717                   0.496172        0.103508
1.718                   0.496522        0.101749
1.719                   0.496866       0.0999892
1.72                    0.497205       0.0982277
1.721                   0.497537       0.0964648
1.722                   0.497863       0.0947005
1.723                   0.498183       0.0929348
1.724                   0.498497       0.0911678
1.725                   0.498805       0.0893994
1.726                   0.499106       0.0876298
1.727                   0.499402       0.0858588
1.728                   0.499691       0.0840866
1.729                   0.499975       0.0823131
1.73                    0.500252       0.0805385
1.731                   0.500522       0.0787626
1.732                   0.500787       0.0769856
1.733                   0.501046       0.0752073
1.734                   0.501298        0.073428
1.735                   0.501544       0.0716476
1.736                   0.501784       0.0698661
1.737                   0.502018       0.0680835
1.738                   0.502245       0.0662999
1.739                   0.502466       0.0645153
1.74                    0.502681       0.0627297
1.741                    0.50289       0.0609432
1.742                   0.503092       0.0591557
1.743                   0.503289       0.0573673
1.744                   0.503478       0.0555779
1.745                   0.503662       0.0537878
1.746                   0.503839       0.0519968
1.747                    0.50401       0.0502049
1.748                   0.504175       0.0484123
1.749                   0.504333       0.0466189
1.75                    0.504485       0.0448248
1.751                   0.504631       0.0430299
1.752                   0.504771       0.0412344
1.753                   0.504903       0.0394381
1.754                    0.50503       0.0376413
1.755                   0.505151       0.0358438
1.756                   0.505264       0.0340457
1.757                   0.505372        0.032247
1.758                   0.505473       0.0304478
1.759                   0.505568       0.0286481
1.76                    0.505656       0.0268479
1.761                   0.505738       0.0250473
1.762                   0.505814       0.0232462
1.763                   0.505883       0.0214446
1.764                   0.505946       0.0196427
1.765                   0.506002       0.0178405
1.766                   0.506052       0.0160379
1.767                   0.506096       0.0142349
1.768                   0.506133       0.0124317
1.769                   0.506164       0.0106283
1.77                    0.506188       0.0088246
1.771                   0.506206      0.00702071
1.772                   0.506217      0.00521665
1.773                   0.506222      0.00341243
1.774                    0.50622       0.0016081
1.775                   0.506212    -0.000196335
1.776                   0.506198     -0.00200084
1.777                   0.506177     -0.00380538
1.778                   0.506149     -0.00560993
1.779                   0.506116     -0.00741448
1.78                    0.506075     -0.00921898
1.781                   0.506028      -0.0110234
1.782                   0.505975      -0.0128278
1.783                   0.505915       -0.014632
1.784                   0.505849       -0.016436
1.785                   0.505776      -0.0182399
1.786                   0.505697      -0.0200436
1.787                   0.505611      -0.0218471
1.788                   0.505519      -0.0236502
1.789                    0.50542      -0.0254531
1.79                    0.505315      -0.0272557
1.791                   0.505203       -0.029058
1.792                   0.505085      -0.0308598
1.793                    0.50496      -0.0326613
1.794                   0.504829      -0.0344623
1.795                   0.504691      -0.0362629
1.796                   0.504547       -0.038063
1.797                   0.504396      -0.0398625
1.798                   0.504239      -0.0416616
1.799                   0.504075        -0.04346
1.8                     0.503905      -0.0452579
1.801                   0.503728      -0.0470551
1.802                   0.503545      -0.0488517
1.803                   0.503355      -0.0506476
1.804                   0.503159      -0.0524427
1.805                   0.502956      -0.0542372
1.806                   0.502747      -0.0560308
1.807                   0.502531      -0.0578237
1.808                   0.502309      -0.0596157
1.809                    0.50208      -0.0614069
1.81                    0.501845      -0.0631972
1.811                   0.501603      -0.0649865
1.812                   0.501355       -0.066775
1.813                   0.501101      -0.0685624
1.814                    0.50084      -0.0703489
1.815                   0.500572      -0.0721343
1.816                   0.500298      -0.0739187
1.817                   0.500018      -0.0757019
1.818                   0.499731      -0.0774841
1.819                   0.499438      -0.0792651
1.82                    0.499138       -0.081045
1.821                   0.498832      -0.0828236
1.822                   0.498519       -0.084601
1.823                     0.4982      -0.0863772
1.824                   0.497875       -0.088152
1.825                   0.497543      -0.0899256
1.826                   0.497205      -0.0916977
1.827                    0.49686      -0.0934686
1.828                   0.496509      -0.0952381
1.829                   0.496151       -0.097006
1.83                    0.495787      -0.0987724
1.831                   0.495417       -0.100537
1.832                   0.495041       -0.102301
1.833                   0.494658       -0.104063
1.834                   0.494268       -0.105823
1.835                   0.493873       -0.107582
1.836                   0.493471       -0.109339
1.837                   0.493062       -0.111095
1.838                   0.492647       -0.112849
1.839                   0.492226       -0.114601
1.84                    0.491799       -0.116351
1.841                   0.491365         -0.1181
1.842                   0.490926       -0.119846
1.843                   0.490479       -0.121591
1.844                   0.490027       -0.123335
1.845                   0.489568       -0.125076
1.846                   0.489103       -0.126815
1.847                   0.488632       -0.128552
1.848                   0.488155       -0.130288
1.849                   0.487671       -0.132021
1.85                    0.487181       -0.133752
1.851                   0.486685       -0.135482
1.852                   0.486183       -0.137209
1.853                   0.485674       -0.138934
1.854                    0.48516       -0.140657
1.855                   0.484639       -0.142378
1.856                   0.484112       -0.144096
1.857                   0.483579       -0.145813
1.858                    0.48304       -0.147527
1.859                   0.482495       -0.149239
1.86                    0.481944       -0.150948
1.861                   0.481386       -0.152655
1.862                   0.480823        -0.15436
1.863                   0.480253       -0.156063
1.864                   0.479678       -0.157763
1.865                   0.479096       -0.159461
1.866                   0.478509       -0.161156
1.867                   0.477915       -0.162849
1.868                   0.477316       -0.164539
1.869                    0.47671       -0.166226
1.87                    0.476099       -0.167912
1.871                   0.475481       -0.169594
1.872                   0.474858       -0.171274
1.873                   0.474229       -0.172951
1.874                   0.473594       -0.174626
1.875                   0.472953       -0.176298
1.876                   0.472306       -0.177967
1.877                   0.471653       -0.179634
1.878                   0.470995       -0.181298
1.879                   0.470331       -0.182959
1.88                     0.46966       -0.184617
1.881                   0.468985       -0.186272
1.882                   0.468303       -0.187924
1.883                   0.467616       -0.189574
1.884                   0.466923       -0.191221
1.885                   0.466224       -0.192864
1.886                   0.465519       -0.194505
1.887                   0.464809       -0.196143
1.888                   0.464093       -0.197778
1.889                   0.463372        -0.19941
1.89                    0.462645       -0.201038
1.891                   0.461912       -0.202664
1.892                   0.461174       -0.204287
1.893                    0.46043       -0.205906
1.894                   0.459681       -0.207522
1.895                   0.458926       -0.209136
1.896                   0.458166       -0.210746
1.897                     0.4574       -0.212353
1.898                   0.456629       -0.213956
1.899                   0.455852       -0.215556
1.9                      0.45507       -0.217154
1.901                   0.454283       -0.218747
1.902                    0.45349       -0.220338
1.903                   0.452691       -0.221925
1.904                   0.451888       -0.223509
1.905                   0.451079       -0.225089
1.906                   0.450265       -0.226666
1.907                   0.449445        -0.22824
1.908                    0.44862        -0.22981
1.909                    0.44779       -0.231377
1.91                    0.446955        -0.23294
1.911                   0.446115         -0.2345
1.912                   0.445269       -0.236057
1.913                   0.444418        -0.23761
1.914                   0.443563       -0.239159
1.915                   0.442702       -0.240705
1.916                   0.441836       -0.242247
1.917                   0.440964       -0.243785
1.918                   0.440088        -0.24532
1.919                   0.439207       -0.246852
1.92                    0.438321        -0.24838
1.921                    0.43743       -0.249904
1.922                   0.436533       -0.251424
1.923                   0.435632       -0.252941
1.924                   0.434726       -0.254454
1.925                   0.433816       -0.255963
1.926                     0.4329       -0.257469
1.927                   0.431979        -0.25897
1.928                   0.431054       -0.260469
1.929                   0.430124       -0.261963
1.93                    0.429189       -0.263453
1.931                   0.428249        -0.26494
1.932                   0.427305       -0.266423
1.933                   0.426356       -0.267902
1.934                   0.425402       -0.269377
1.935                   0.424443       -0.270848
1.936                    0.42348       -0.272316
1.937                   0.422513       -0.273779
1.938                    0.42154       -0.275239
1.939                   0.420563       -0.276694
1.94                    0.419582       -0.278146
1.941                   0.418596       -0.279594
1.942                   0.417606       -0.281038
1.943                   0.416611       -0.282478
1.944                   0.415612       -0.283914
1.945                   0.414608       -0.285346
1.946                     0.4136       -0.286774
1.947                   0.412587       -0.288198
1.948                    0.41157       -0.289618
1.949                   0.410549       -0.291034
1.95                    0.409524       -0.292446
1.951                   0.408494       -0.293853
1.952                    0.40746       -0.295257
1.953                   0.406422       -0.296657
1.954                   0.405379       -0.298053
1.955                   0.404333       -0.299444
1.956                   0.403282       -0.300832
1.957                   0.402227       -0.302215
1.958                   0.401168       -0.303594
1.959                   0.400105        -0.30497
1.96                    0.399037       -0.306341
1.961                   0.397966       -0.307708
1.962                   0.396891       -0.309071
1.963                   0.395811       -0.310429
1.964                   0.394728       -0.311784
1.965                   0.393641       -0.313134
1.966                    0.39255        -0.31448
1.967                   0.391455       -0.315823
1.968                   0.390356        -0.31716
1.969                   0.389253       -0.318494
1.97                    0.388146       -0.319824
1.971                   0.387036       -0.321149
1.972                   0.385921        -0.32247
1.973                   0.384803       -0.323787
1.974                   0.383682         -0.3251
1.975                   0.382556       -0.326409
1.976                   0.381427       -0.327713
1.977                   0.380294       -0.329014
1.978                   0.379157        -0.33031
1.979                   0.378017       -0.331601
1.98                    0.376873       -0.332889
1.981                   0.375726       -0.334172
1.982                   0.374575       -0.335452
1.983                    0.37342       -0.336727
1.984                   0.372262       -0.337997
1.985                   0.371101       -0.339264
1.986                   0.369936       -0.340526
1.987                   0.368767       -0.341784
1.988                   0.367595       -0.343038
1.989                    0.36642       -0.344288
1.99                    0.365241       -0.345533
1.991                   0.364059       -0.346775
1.992                   0.362873       -0.348011
1.993                   0.361684       -0.349244
1.994                   0.360492       -0.350473
1.995                   0.359296       -0.351697
1.996                   0.358097       -0.352917
1.997                   0.356895       -0.354133
1.998                    0.35569       -0.355345
1.999                   0.354481       -0.356552
2                        0.35327       -0.357755
