! TOUCHSTONE file generated by CST MICROWAVE STUDIO
! Date and time: Mon Aug  3 18:26:34 2026
! Project name: Sonda-Coaxial_21mm_DisifixB_v2_Agua_Dest.cst
! Parameters = {h_recipiente=20; l_conector=5; r_arandela=35; r_ext=10.5; r_int=3; r_recipiente=50; z_recipiente=-50}
! Header version: 2018
! Port assignment regex: !\s*Touchstone port\s*([0-9]+)\s*=\s*(CST MWS port|CST DS port)\s*([0-9]+|Zmin|Zmax)\s*\(\"(.*)\"\)(\s*mode\s*([0-9]+))?.*
! Touchstone port assignment:
! Touchstone port 1 = CST MWS port 1 ("")
# GHz S RI R 50
0.001                          1     -0.00041274
0.002                   0.999999    -0.000825495
0.003                   0.999998     -0.00123828
0.004                   0.999997     -0.00165112
0.005                   0.999995     -0.00206401
0.006                   0.999993     -0.00247699
0.007                   0.999991     -0.00289005
0.008                   0.999988     -0.00330321
0.009                   0.999985     -0.00371649
0.01                    0.999982     -0.00412988
0.011                   0.999978     -0.00454341
0.012                   0.999974     -0.00495707
0.013                   0.999969     -0.00537088
0.014                   0.999965     -0.00578483
0.015                    0.99996     -0.00619894
0.016                   0.999955      -0.0066132
0.017                   0.999949     -0.00702761
0.018                   0.999943     -0.00744217
0.019                   0.999938     -0.00785689
0.02                    0.999932     -0.00827176
0.021                   0.999925     -0.00868677
0.022                   0.999919     -0.00910193
0.023                   0.999912     -0.00951723
0.024                   0.999905     -0.00993267
0.025                   0.999898      -0.0103482
0.026                   0.999891      -0.0107639
0.027                   0.999884      -0.0111797
0.028                   0.999877      -0.0115957
0.029                   0.999869      -0.0120117
0.03                    0.999861      -0.0124278
0.031                   0.999854      -0.0128441
0.032                   0.999846      -0.0132604
0.033                   0.999838      -0.0136768
0.034                   0.999829      -0.0140933
0.035                   0.999821      -0.0145099
0.036                   0.999812      -0.0149266
0.037                   0.999804      -0.0153433
0.038                   0.999795        -0.01576
0.039                   0.999786      -0.0161769
0.04                    0.999777      -0.0165938
0.041                   0.999768      -0.0170107
0.042                   0.999759      -0.0174277
0.043                    0.99975      -0.0178447
0.044                    0.99974      -0.0182617
0.045                   0.999731      -0.0186788
0.046                   0.999721       -0.019096
0.047                   0.999711      -0.0195131
0.048                   0.999701      -0.0199303
0.049                   0.999691      -0.0203475
0.05                    0.999681      -0.0207647
0.051                   0.999671      -0.0211819
0.052                    0.99966      -0.0215992
0.053                    0.99965      -0.0220165
0.054                   0.999639      -0.0224337
0.055                   0.999628       -0.022851
0.056                   0.999617      -0.0232683
0.057                   0.999606      -0.0236856
0.058                   0.999595      -0.0241029
0.059                   0.999584      -0.0245203
0.06                    0.999572      -0.0249376
0.061                    0.99956      -0.0253549
0.062                   0.999549      -0.0257722
0.063                   0.999537      -0.0261895
0.064                   0.999525      -0.0266069
0.065                   0.999513      -0.0270242
0.066                     0.9995      -0.0274415
0.067                   0.999488      -0.0278588
0.068                   0.999475      -0.0282761
0.069                   0.999462      -0.0286934
0.07                    0.999449      -0.0291107
0.071                   0.999436       -0.029528
0.072                   0.999423      -0.0299453
0.073                    0.99941      -0.0303626
0.074                   0.999396      -0.0307799
0.075                   0.999382      -0.0311972
0.076                   0.999369      -0.0316144
0.077                   0.999355      -0.0320317
0.078                    0.99934      -0.0324489
0.079                   0.999326      -0.0328662
0.08                    0.999312      -0.0332834
0.081                   0.999297      -0.0337006
0.082                   0.999282      -0.0341178
0.083                   0.999267       -0.034535
0.084                   0.999252      -0.0349522
0.085                   0.999237      -0.0353694
0.086                   0.999222      -0.0357866
0.087                   0.999206      -0.0362037
0.088                    0.99919      -0.0366209
0.089                   0.999175       -0.037038
0.09                    0.999158      -0.0374551
0.091                   0.999142      -0.0378723
0.092                   0.999126      -0.0382894
0.093                    0.99911      -0.0387065
0.094                   0.999093      -0.0391235
0.095                   0.999076      -0.0395406
0.096                   0.999059      -0.0399577
0.097                   0.999042      -0.0403747
0.098                   0.999024      -0.0407918
0.099                   0.999007      -0.0412088
0.1                     0.998989      -0.0416258
0.101                   0.998972      -0.0420428
0.102                   0.998954      -0.0424598
0.103                   0.998936      -0.0428768
0.104                   0.998917      -0.0432938
0.105                   0.998899      -0.0437107
0.106                    0.99888      -0.0441277
0.107                   0.998861      -0.0445446
0.108                   0.998842      -0.0449615
0.109                   0.998823      -0.0453785
0.11                    0.998804      -0.0457954
0.111                   0.998784      -0.0462123
0.112                   0.998765      -0.0466291
0.113                   0.998745       -0.047046
0.114                   0.998725      -0.0474628
0.115                   0.998705      -0.0478797
0.116                   0.998685      -0.0482965
0.117                   0.998664      -0.0487133
0.118                   0.998644      -0.0491301
0.119                   0.998623      -0.0495469
0.12                    0.998602      -0.0499637
0.121                   0.998581      -0.0503805
0.122                   0.998559      -0.0507972
0.123                   0.998538       -0.051214
0.124                   0.998516      -0.0516307
0.125                   0.998494      -0.0520474
0.126                   0.998472      -0.0524642
0.127                    0.99845      -0.0528809
0.128                   0.998428      -0.0532975
0.129                   0.998406      -0.0537142
0.13                    0.998383      -0.0541309
0.131                    0.99836      -0.0545475
0.132                   0.998337      -0.0549641
0.133                   0.998314      -0.0553808
0.134                    0.99829      -0.0557974
0.135                   0.998267       -0.056214
0.136                   0.998243      -0.0566306
0.137                    0.99822      -0.0570471
0.138                   0.998195      -0.0574637
0.139                   0.998171      -0.0578802
0.14                    0.998147      -0.0582968
0.141                   0.998123      -0.0587133
0.142                   0.998098      -0.0591298
0.143                   0.998073      -0.0595463
0.144                   0.998048      -0.0599628
0.145                   0.998023      -0.0603792
0.146                   0.997997      -0.0607957
0.147                   0.997972      -0.0612121
0.148                   0.997946      -0.0616286
0.149                    0.99792       -0.062045
0.15                    0.997894      -0.0624614
0.151                   0.997868      -0.0628778
0.152                   0.997841      -0.0632942
0.153                   0.997815      -0.0637105
0.154                   0.997788      -0.0641269
0.155                   0.997761      -0.0645432
0.156                   0.997734      -0.0649596
0.157                   0.997707      -0.0653759
0.158                   0.997679      -0.0657922
0.159                   0.997652      -0.0662085
0.16                    0.997624      -0.0666247
0.161                   0.997596      -0.0670412
0.162                   0.997568      -0.0674571
0.163                    0.99754      -0.0678734
0.164                   0.997511      -0.0682897
0.165                   0.997483       -0.068706
0.166                   0.997454      -0.0691221
0.167                   0.997425      -0.0695383
0.168                   0.997396      -0.0699544
0.169                   0.997367      -0.0703706
0.17                    0.997337      -0.0707867
0.171                   0.997307      -0.0712028
0.172                   0.997278      -0.0716189
0.173                   0.997248       -0.072035
0.174                   0.997217      -0.0724511
0.175                   0.997187      -0.0728672
0.176                   0.997157      -0.0732832
0.177                   0.997126      -0.0736993
0.178                   0.997095      -0.0741153
0.179                   0.997064      -0.0745313
0.18                    0.997033      -0.0749473
0.181                   0.997001      -0.0753633
0.182                    0.99697      -0.0757792
0.183                   0.996938      -0.0761952
0.184                   0.996906      -0.0766111
0.185                   0.996874      -0.0770271
0.186                   0.996842       -0.077443
0.187                    0.99681      -0.0778589
0.188                   0.996777      -0.0782747
0.189                   0.996744      -0.0786906
0.19                    0.996711      -0.0791065
0.191                   0.996678      -0.0795223
0.192                   0.996645      -0.0799381
0.193                   0.996611      -0.0803539
0.194                   0.996578      -0.0807697
0.195                   0.996544      -0.0811855
0.196                    0.99651      -0.0816012
0.197                   0.996476       -0.082017
0.198                   0.996442      -0.0824327
0.199                   0.996407      -0.0828484
0.2                     0.996372      -0.0832641
0.201                   0.996338      -0.0836798
0.202                   0.996303      -0.0840955
0.203                   0.996268      -0.0845111
0.204                   0.996232      -0.0849267
0.205                   0.996197      -0.0853424
0.206                   0.996161       -0.085758
0.207                   0.996125      -0.0861736
0.208                   0.996089      -0.0865891
0.209                   0.996053      -0.0870047
0.21                    0.996017      -0.0874202
0.211                    0.99598      -0.0878358
0.212                   0.995943      -0.0882513
0.213                   0.995906      -0.0886667
0.214                   0.995869      -0.0890822
0.215                   0.995832      -0.0894977
0.216                   0.995795      -0.0899131
0.217                   0.995757      -0.0903286
0.218                   0.995719       -0.090744
0.219                   0.995681      -0.0911594
0.22                    0.995643      -0.0915747
0.221                   0.995605      -0.0919901
0.222                   0.995567      -0.0924054
0.223                   0.995528      -0.0928208
0.224                   0.995489      -0.0932361
0.225                    0.99545      -0.0936514
0.226                   0.995411      -0.0940667
0.227                   0.995372      -0.0944819
0.228                   0.995332      -0.0948971
0.229                   0.995293      -0.0953124
0.23                    0.995253      -0.0957276
0.231                   0.995213      -0.0961428
0.232                   0.995173      -0.0965579
0.233                   0.995132      -0.0969731
0.234                   0.995092      -0.0973882
0.235                   0.995051      -0.0978034
0.236                    0.99501      -0.0982185
0.237                   0.994969      -0.0986335
0.238                   0.994928      -0.0990486
0.239                   0.994887      -0.0994637
0.24                    0.994845      -0.0998787
0.241                   0.994803       -0.100294
0.242                   0.994761       -0.100709
0.243                   0.994719       -0.101124
0.244                   0.994677       -0.101539
0.245                   0.994635       -0.101954
0.246                   0.994592       -0.102369
0.247                   0.994549       -0.102783
0.248                   0.994506       -0.103198
0.249                   0.994463       -0.103613
0.25                     0.99442       -0.104028
0.251                   0.994377       -0.104443
0.252                   0.994333       -0.104858
0.253                   0.994289       -0.105272
0.254                   0.994245       -0.105687
0.255                   0.994201       -0.106102
0.256                   0.994157       -0.106517
0.257                   0.994112       -0.106931
0.258                   0.994068       -0.107346
0.259                   0.994023       -0.107761
0.26                    0.993978       -0.108175
0.261                   0.993932        -0.10859
0.262                   0.993887       -0.109005
0.263                   0.993842       -0.109419
0.264                   0.993796       -0.109834
0.265                    0.99375       -0.110248
0.266                   0.993704       -0.110663
0.267                   0.993658       -0.111078
0.268                   0.993611       -0.111492
0.269                   0.993565       -0.111907
0.27                    0.993518       -0.112321
0.271                   0.993471       -0.112735
0.272                   0.993424        -0.11315
0.273                   0.993377       -0.113564
0.274                   0.993329       -0.113979
0.275                   0.993282       -0.114393
0.276                   0.993234       -0.114807
0.277                   0.993186       -0.115222
0.278                   0.993138       -0.115636
0.279                    0.99309        -0.11605
0.28                    0.993041       -0.116465
0.281                   0.992993       -0.116879
0.282                   0.992944       -0.117293
0.283                   0.992895       -0.117707
0.284                   0.992846       -0.118121
0.285                   0.992796       -0.118536
0.286                   0.992747        -0.11895
0.287                   0.992697       -0.119364
0.288                   0.992647       -0.119778
0.289                   0.992597       -0.120192
0.29                    0.992547       -0.120606
0.291                   0.992497        -0.12102
0.292                   0.992446       -0.121434
0.293                   0.992395       -0.121848
0.294                   0.992345       -0.122262
0.295                   0.992294       -0.122676
0.296                   0.992242        -0.12309
0.297                   0.992191       -0.123504
0.298                   0.992139       -0.123918
0.299                   0.992088       -0.124331
0.3                     0.992036       -0.124745
0.301                   0.991984       -0.125159
0.302                   0.991931       -0.125573
0.303                   0.991879       -0.125987
0.304                   0.991826         -0.1264
0.305                   0.991774       -0.126814
0.306                   0.991721       -0.127228
0.307                   0.991667       -0.127641
0.308                   0.991614       -0.128055
0.309                   0.991561       -0.128469
0.31                    0.991507       -0.128882
0.311                   0.991453       -0.129296
0.312                   0.991399        -0.12971
0.313                   0.991345       -0.130123
0.314                   0.991291       -0.130537
0.315                   0.991236        -0.13095
0.316                   0.991182       -0.131364
0.317                   0.991127       -0.131777
0.318                   0.991072        -0.13219
0.319                   0.991017       -0.132604
0.32                    0.990961       -0.133017
0.321                   0.990906       -0.133431
0.322                    0.99085       -0.133844
0.323                   0.990794       -0.134257
0.324                   0.990738        -0.13467
0.325                   0.990682       -0.135084
0.326                   0.990625       -0.135497
0.327                   0.990569        -0.13591
0.328                   0.990512       -0.136323
0.329                   0.990455       -0.136737
0.33                    0.990398        -0.13715
0.331                   0.990341       -0.137563
0.332                   0.990283       -0.137976
0.333                   0.990226       -0.138389
0.334                   0.990168       -0.138802
0.335                    0.99011       -0.139215
0.336                   0.990052       -0.139628
0.337                   0.989993       -0.140041
0.338                   0.989935       -0.140454
0.339                   0.989876       -0.140867
0.34                    0.989817        -0.14128
0.341                   0.989759       -0.141693
0.342                   0.989699       -0.142105
0.343                    0.98964       -0.142518
0.344                   0.989581       -0.142931
0.345                   0.989521       -0.143344
0.346                   0.989461       -0.143757
0.347                   0.989401       -0.144169
0.348                   0.989341       -0.144582
0.349                    0.98928       -0.144995
0.35                     0.98922       -0.145407
0.351                   0.989159        -0.14582
0.352                   0.989098       -0.146232
0.353                   0.989037       -0.146645
0.354                   0.988976       -0.147058
0.355                   0.988915        -0.14747
0.356                   0.988853       -0.147883
0.357                   0.988791       -0.148295
0.358                   0.988729       -0.148707
0.359                   0.988667        -0.14912
0.36                    0.988605       -0.149532
0.361                   0.988543       -0.149945
0.362                    0.98848       -0.150357
0.363                   0.988417       -0.150769
0.364                   0.988354       -0.151182
0.365                   0.988291       -0.151594
0.366                   0.988228       -0.152006
0.367                   0.988164       -0.152418
0.368                   0.988101        -0.15283
0.369                   0.988037       -0.153242
0.37                    0.987973       -0.153655
0.371                   0.987909       -0.154067
0.372                   0.987844       -0.154479
0.373                    0.98778       -0.154891
0.374                   0.987715       -0.155303
0.375                    0.98765       -0.155715
0.376                   0.987585       -0.156127
0.377                    0.98752       -0.156539
0.378                   0.987455       -0.156951
0.379                   0.987389       -0.157362
0.38                    0.987324       -0.157774
0.381                   0.987258       -0.158186
0.382                   0.987192       -0.158598
0.383                   0.987125        -0.15901
0.384                   0.987059       -0.159421
0.385                   0.986992       -0.159833
0.386                   0.986926       -0.160245
0.387                   0.986859       -0.160656
0.388                   0.986792       -0.161068
0.389                   0.986724       -0.161479
0.39                    0.986657       -0.161891
0.391                   0.986589       -0.162303
0.392                   0.986522       -0.162714
0.393                   0.986454       -0.163126
0.394                   0.986386       -0.163537
0.395                   0.986317       -0.163948
0.396                   0.986249        -0.16436
0.397                    0.98618       -0.164771
0.398                   0.986111       -0.165182
0.399                   0.986043       -0.165594
0.4                     0.985973       -0.166005
0.401                   0.985904       -0.166416
0.402                   0.985835       -0.166827
0.403                   0.985765       -0.167239
0.404                   0.985695        -0.16765
0.405                   0.985625       -0.168061
0.406                   0.985555       -0.168472
0.407                   0.985485       -0.168883
0.408                   0.985414       -0.169294
0.409                   0.985343       -0.169705
0.41                    0.985273       -0.170116
0.411                   0.985202       -0.170527
0.412                    0.98513       -0.170938
0.413                   0.985059       -0.171349
0.414                   0.984987        -0.17176
0.415                   0.984916        -0.17217
0.416                   0.984844       -0.172581
0.417                   0.984772       -0.172992
0.418                     0.9847       -0.173403
0.419                   0.984627       -0.173813
0.42                    0.984555       -0.174224
0.421                   0.984482       -0.174635
0.422                   0.984409       -0.175045
0.423                   0.984336       -0.175456
0.424                   0.984263       -0.175866
0.425                   0.984189       -0.176277
0.426                   0.984115       -0.176687
0.427                   0.984042       -0.177098
0.428                   0.983968       -0.177508
0.429                   0.983894       -0.177919
0.43                    0.983819       -0.178329
0.431                   0.983745       -0.178739
0.432                    0.98367        -0.17915
0.433                   0.983595        -0.17956
0.434                    0.98352        -0.17997
0.435                   0.983445        -0.18038
0.436                    0.98337        -0.18079
0.437                   0.983295       -0.181201
0.438                   0.983219       -0.181611
0.439                   0.983143       -0.182021
0.44                    0.983067       -0.182431
0.441                   0.982991       -0.182841
0.442                   0.982914       -0.183251
0.443                   0.982838       -0.183661
0.444                   0.982761       -0.184071
0.445                   0.982685        -0.18448
0.446                   0.982607        -0.18489
0.447                    0.98253         -0.1853
0.448                   0.982453        -0.18571
0.449                   0.982375        -0.18612
0.45                    0.982298       -0.186529
0.451                    0.98222       -0.186939
0.452                   0.982142       -0.187349
0.453                   0.982064       -0.187758
0.454                   0.981985       -0.188168
0.455                   0.981907       -0.188577
0.456                   0.981828       -0.188987
0.457                   0.981749       -0.189396
0.458                    0.98167       -0.189806
0.459                    0.98159       -0.190215
0.46                    0.981511       -0.190625
0.461                   0.981432       -0.191034
0.462                   0.981352       -0.191443
0.463                   0.981272       -0.191853
0.464                   0.981192       -0.192262
0.465                   0.981111       -0.192671
0.466                   0.981031        -0.19308
0.467                    0.98095       -0.193489
0.468                    0.98087       -0.193898
0.469                   0.980789       -0.194307
0.47                    0.980708       -0.194716
0.471                   0.980626       -0.195125
0.472                   0.980545       -0.195534
0.473                   0.980463       -0.195943
0.474                   0.980381       -0.196352
0.475                   0.980299       -0.196761
0.476                   0.980217        -0.19717
0.477                   0.980135       -0.197579
0.478                   0.980052       -0.197987
0.479                    0.97997       -0.198396
0.48                    0.979887       -0.198805
0.481                   0.979804       -0.199214
0.482                   0.979721       -0.199622
0.483                   0.979637       -0.200031
0.484                   0.979554       -0.200439
0.485                    0.97947       -0.200848
0.486                   0.979386       -0.201256
0.487                   0.979302       -0.201665
0.488                   0.979218       -0.202073
0.489                   0.979134       -0.202481
0.49                    0.979049        -0.20289
0.491                   0.978964       -0.203298
0.492                   0.978879       -0.203706
0.493                   0.978794       -0.204115
0.494                   0.978709       -0.204523
0.495                   0.978624       -0.204931
0.496                   0.978538       -0.205339
0.497                   0.978452       -0.205747
0.498                   0.978367       -0.206155
0.499                   0.978281       -0.206563
0.5                     0.978194       -0.206971
0.501                   0.978108       -0.207379
0.502                   0.978021       -0.207787
0.503                   0.977935       -0.208195
0.504                   0.977848       -0.208603
0.505                   0.977761        -0.20901
0.506                   0.977673       -0.209418
0.507                   0.977586       -0.209826
0.508                   0.977498       -0.210234
0.509                    0.97741       -0.210641
0.51                    0.977322       -0.211049
0.511                   0.977234       -0.211456
0.512                   0.977146       -0.211864
0.513                   0.977058       -0.212271
0.514                   0.976969       -0.212679
0.515                    0.97688       -0.213086
0.516                   0.976791       -0.213494
0.517                   0.976702       -0.213901
0.518                   0.976613       -0.214308
0.519                   0.976523       -0.214715
0.52                    0.976434       -0.215123
0.521                   0.976344        -0.21553
0.522                   0.976254       -0.215937
0.523                   0.976164       -0.216344
0.524                   0.976073       -0.216751
0.525                   0.975983       -0.217158
0.526                   0.975892       -0.217565
0.527                   0.975801       -0.217972
0.528                    0.97571       -0.218379
0.529                   0.975619       -0.218786
0.53                    0.975528       -0.219193
0.531                   0.975436         -0.2196
0.532                   0.975345       -0.220006
0.533                   0.975253       -0.220413
0.534                   0.975161        -0.22082
0.535                   0.975069       -0.221226
0.536                   0.974976       -0.221633
0.537                   0.974884        -0.22204
0.538                   0.974791       -0.222446
0.539                   0.974698       -0.222853
0.54                    0.974605       -0.223259
0.541                   0.974512       -0.223665
0.542                   0.974418       -0.224072
0.543                   0.974325       -0.224478
0.544                   0.974231       -0.224884
0.545                   0.974137       -0.225291
0.546                   0.974043       -0.225697
0.547                   0.973949       -0.226103
0.548                   0.973855       -0.226509
0.549                    0.97376       -0.226915
0.55                    0.973665       -0.227321
0.551                    0.97357       -0.227727
0.552                   0.973475       -0.228133
0.553                    0.97338       -0.228539
0.554                   0.973285       -0.228945
0.555                   0.973189       -0.229351
0.556                   0.973093       -0.229757
0.557                   0.972997       -0.230163
0.558                   0.972901       -0.230568
0.559                   0.972805       -0.230974
0.56                    0.972709        -0.23138
0.561                   0.972612       -0.231785
0.562                   0.972515       -0.232191
0.563                   0.972418       -0.232596
0.564                   0.972321       -0.233002
0.565                   0.972224       -0.233407
0.566                   0.972126       -0.233813
0.567                   0.972029       -0.234218
0.568                   0.971931       -0.234623
0.569                   0.971833       -0.235029
0.57                    0.971735       -0.235434
0.571                   0.971637       -0.235839
0.572                   0.971538       -0.236244
0.573                    0.97144       -0.236649
0.574                   0.971341       -0.237054
0.575                   0.971242       -0.237459
0.576                   0.971143       -0.237864
0.577                   0.971044       -0.238269
0.578                   0.970944       -0.238674
0.579                   0.970844       -0.239079
0.58                    0.970745       -0.239484
0.581                   0.970645       -0.239889
0.582                   0.970544       -0.240293
0.583                   0.970444       -0.240698
0.584                   0.970344       -0.241103
0.585                   0.970243       -0.241507
0.586                   0.970142       -0.241912
0.587                   0.970041       -0.242316
0.588                    0.96994       -0.242721
0.589                   0.969839       -0.243125
0.59                    0.969737        -0.24353
0.591                   0.969635       -0.243934
0.592                   0.969534       -0.244338
0.593                   0.969432       -0.244742
0.594                    0.96933       -0.245147
0.595                   0.969227       -0.245551
0.596                   0.969125       -0.245955
0.597                   0.969022       -0.246359
0.598                   0.968919       -0.246763
0.599                   0.968816       -0.247167
0.6                     0.968713       -0.247571
0.601                    0.96861       -0.247975
0.602                   0.968506       -0.248379
0.603                   0.968402       -0.248783
0.604                   0.968298       -0.249186
0.605                   0.968194        -0.24959
0.606                    0.96809       -0.249994
0.607                   0.967986       -0.250398
0.608                   0.967881       -0.250801
0.609                   0.967777       -0.251205
0.61                    0.967672       -0.251608
0.611                   0.967567       -0.252012
0.612                   0.967462       -0.252415
0.613                   0.967356       -0.252818
0.614                   0.967251       -0.253222
0.615                   0.967145       -0.253625
0.616                   0.967039       -0.254028
0.617                   0.966933       -0.254431
0.618                   0.966827       -0.254835
0.619                    0.96672       -0.255238
0.62                    0.966614       -0.255641
0.621                   0.966507       -0.256044
0.622                     0.9664       -0.256447
0.623                   0.966293        -0.25685
0.624                   0.966186       -0.257253
0.625                   0.966079       -0.257655
0.626                   0.965971       -0.258058
0.627                   0.965863       -0.258461
0.628                   0.965755       -0.258864
0.629                   0.965647       -0.259266
0.63                    0.965539       -0.259669
0.631                   0.965431       -0.260072
0.632                   0.965322       -0.260474
0.633                   0.965213       -0.260877
0.634                   0.965105       -0.261279
0.635                   0.964996       -0.261681
0.636                   0.964886       -0.262084
0.637                   0.964777       -0.262486
0.638                   0.964667       -0.262888
0.639                   0.964558        -0.26329
0.64                    0.964448       -0.263692
0.641                   0.964338       -0.264095
0.642                   0.964227       -0.264497
0.643                   0.964117       -0.264899
0.644                   0.964006       -0.265301
0.645                   0.963896       -0.265703
0.646                   0.963785       -0.266104
0.647                   0.963674       -0.266506
0.648                   0.963562       -0.266908
0.649                   0.963451        -0.26731
0.65                    0.963339       -0.267711
0.651                   0.963228       -0.268113
0.652                   0.963116       -0.268515
0.653                   0.963004       -0.268916
0.654                   0.962891       -0.269318
0.655                   0.962779       -0.269719
0.656                   0.962666       -0.270121
0.657                   0.962554       -0.270522
0.658                   0.962441       -0.270923
0.659                   0.962328       -0.271324
0.66                    0.962214       -0.271726
0.661                   0.962101       -0.272127
0.662                   0.961987       -0.272528
0.663                   0.961874       -0.272929
0.664                    0.96176        -0.27333
0.665                   0.961646       -0.273731
0.666                   0.961531       -0.274132
0.667                   0.961417       -0.274533
0.668                   0.961302       -0.274933
0.669                   0.961188       -0.275334
0.67                    0.961073       -0.275735
0.671                   0.960958       -0.276136
0.672                   0.960842       -0.276536
0.673                   0.960727       -0.276937
0.674                   0.960611       -0.277337
0.675                   0.960496       -0.277738
0.676                    0.96038       -0.278138
0.677                   0.960263       -0.278539
0.678                   0.960147       -0.278939
0.679                   0.960031       -0.279339
0.68                    0.959914        -0.27974
0.681                   0.959798        -0.28014
0.682                    0.95968        -0.28054
0.683                   0.959563        -0.28094
0.684                   0.959446        -0.28134
0.685                   0.959329        -0.28174
0.686                   0.959211        -0.28214
0.687                   0.959093        -0.28254
0.688                   0.958975        -0.28294
0.689                   0.958857       -0.283339
0.69                    0.958739       -0.283739
0.691                   0.958621       -0.284139
0.692                   0.958502       -0.284538
0.693                   0.958383       -0.284938
0.694                   0.958264       -0.285338
0.695                   0.958145       -0.285737
0.696                   0.958026       -0.286136
0.697                   0.957907       -0.286536
0.698                   0.957787       -0.286935
0.699                   0.957667       -0.287335
0.7                     0.957547       -0.287734
0.701                   0.957427       -0.288133
0.702                   0.957307       -0.288532
0.703                   0.957187       -0.288931
0.704                   0.957066        -0.28933
0.705                   0.956945       -0.289729
0.706                   0.956824       -0.290128
0.707                   0.956703       -0.290527
0.708                   0.956582       -0.290926
0.709                   0.956461       -0.291324
0.71                    0.956339       -0.291723
0.711                   0.956217       -0.292122
0.712                   0.956095       -0.292521
0.713                   0.955973       -0.292919
0.714                   0.955851       -0.293318
0.715                   0.955728       -0.293716
0.716                   0.955606       -0.294114
0.717                   0.955483       -0.294513
0.718                    0.95536       -0.294911
0.719                   0.955237        -0.29531
0.72                    0.955114       -0.295708
0.721                    0.95499       -0.296106
0.722                   0.954867       -0.296504
0.723                   0.954743       -0.296902
0.724                   0.954619         -0.2973
0.725                   0.954495       -0.297698
0.726                   0.954371       -0.298096
0.727                   0.954246       -0.298494
0.728                   0.954122       -0.298891
0.729                   0.953997       -0.299289
0.73                    0.953872       -0.299687
0.731                   0.953747       -0.300084
0.732                   0.953622       -0.300482
0.733                   0.953496       -0.300879
0.734                   0.953371       -0.301277
0.735                   0.953245       -0.301674
0.736                   0.953119       -0.302072
0.737                   0.952993       -0.302469
0.738                   0.952867       -0.302866
0.739                    0.95274       -0.303263
0.74                    0.952614       -0.303661
0.741                   0.952487       -0.304058
0.742                    0.95236       -0.304455
0.743                   0.952233       -0.304852
0.744                   0.952106       -0.305249
0.745                   0.951979       -0.305646
0.746                   0.951851       -0.306042
0.747                   0.951723       -0.306439
0.748                   0.951595       -0.306836
0.749                   0.951467       -0.307232
0.75                    0.951339       -0.307629
0.751                   0.951211       -0.308026
0.752                   0.951082       -0.308422
0.753                   0.950954       -0.308819
0.754                   0.950825       -0.309215
0.755                   0.950696       -0.309611
0.756                   0.950566       -0.310008
0.757                   0.950437       -0.310404
0.758                   0.950307         -0.3108
0.759                   0.950178       -0.311196
0.76                    0.950048       -0.311592
0.761                   0.949918       -0.311988
0.762                   0.949788       -0.312384
0.763                   0.949657        -0.31278
0.764                   0.949527       -0.313176
0.765                   0.949396       -0.313572
0.766                   0.949265       -0.313967
0.767                   0.949134       -0.314363
0.768                   0.949003       -0.314759
0.769                   0.948872       -0.315154
0.77                     0.94874        -0.31555
0.771                   0.948608       -0.315945
0.772                   0.948477       -0.316341
0.773                   0.948345       -0.316736
0.774                   0.948212       -0.317131
0.775                    0.94808       -0.317527
0.776                   0.947947       -0.317922
0.777                   0.947815       -0.318317
0.778                   0.947682       -0.318712
0.779                   0.947549       -0.319107
0.78                    0.947416       -0.319502
0.781                   0.947282       -0.319897
0.782                   0.947149       -0.320292
0.783                   0.947015       -0.320686
0.784                   0.946881       -0.321081
0.785                   0.946747       -0.321476
0.786                   0.946613        -0.32187
0.787                   0.946479       -0.322265
0.788                   0.946344        -0.32266
0.789                    0.94621       -0.323054
0.79                    0.946075       -0.323448
0.791                    0.94594       -0.323843
0.792                   0.945805       -0.324237
0.793                    0.94567       -0.324631
0.794                   0.945534       -0.325025
0.795                   0.945398        -0.32542
0.796                   0.945263       -0.325814
0.797                   0.945127       -0.326208
0.798                   0.944991       -0.326601
0.799                   0.944854       -0.326995
0.8                     0.944718       -0.327389
0.801                   0.944581       -0.327783
0.802                   0.944444       -0.328177
0.803                   0.944307        -0.32857
0.804                    0.94417       -0.328964
0.805                   0.944033       -0.329357
0.806                   0.943896       -0.329751
0.807                   0.943758       -0.330144
0.808                    0.94362       -0.330538
0.809                   0.943482       -0.330931
0.81                    0.943344       -0.331324
0.811                   0.943206       -0.331717
0.812                   0.943068        -0.33211
0.813                   0.942929       -0.332504
0.814                    0.94279       -0.332897
0.815                   0.942651       -0.333289
0.816                   0.942512       -0.333682
0.817                   0.942373       -0.334075
0.818                   0.942234       -0.334468
0.819                   0.942094       -0.334861
0.82                    0.941954       -0.335253
0.821                   0.941814       -0.335646
0.822                   0.941674       -0.336038
0.823                   0.941534       -0.336431
0.824                   0.941394       -0.336823
0.825                   0.941253       -0.337216
0.826                   0.941112       -0.337608
0.827                   0.940972          -0.338
0.828                    0.94083       -0.338392
0.829                   0.940689       -0.338785
0.83                    0.940548       -0.339177
0.831                   0.940406       -0.339569
0.832                   0.940265       -0.339961
0.833                   0.940123       -0.340352
0.834                   0.939981       -0.340744
0.835                   0.939839       -0.341136
0.836                   0.939696       -0.341528
0.837                   0.939554       -0.341919
0.838                   0.939411       -0.342311
0.839                   0.939268       -0.342702
0.84                    0.939125       -0.343094
0.841                   0.938982       -0.343485
0.842                   0.938839       -0.343877
0.843                   0.938695       -0.344268
0.844                   0.938552       -0.344659
0.845                   0.938408        -0.34505
0.846                   0.938264       -0.345441
0.847                    0.93812       -0.345832
0.848                   0.937975       -0.346223
0.849                   0.937831       -0.346614
0.85                    0.937686       -0.347005
0.851                   0.937541       -0.347396
0.852                   0.937397       -0.347787
0.853                   0.937251       -0.348177
0.854                   0.937106       -0.348568
0.855                   0.936961       -0.348959
0.856                   0.936815       -0.349349
0.857                   0.936669       -0.349739
0.858                   0.936523        -0.35013
0.859                   0.936377        -0.35052
0.86                    0.936231        -0.35091
0.861                   0.936085         -0.3513
0.862                   0.935938       -0.351691
0.863                   0.935791       -0.352081
0.864                   0.935644       -0.352471
0.865                   0.935497       -0.352861
0.866                    0.93535        -0.35325
0.867                   0.935203        -0.35364
0.868                   0.935055        -0.35403
0.869                   0.934907        -0.35442
0.87                    0.934759       -0.354809
0.871                   0.934611       -0.355199
0.872                   0.934463       -0.355588
0.873                   0.934315       -0.355978
0.874                   0.934166       -0.356367
0.875                   0.934018       -0.356756
0.876                   0.933869       -0.357146
0.877                    0.93372       -0.357535
0.878                    0.93357       -0.357924
0.879                   0.933421       -0.358313
0.88                    0.933272       -0.358702
0.881                   0.933122       -0.359091
0.882                   0.932972        -0.35948
0.883                   0.932822       -0.359869
0.884                   0.932672       -0.360257
0.885                   0.932522       -0.360646
0.886                   0.932371       -0.361035
0.887                   0.932221       -0.361423
0.888                    0.93207       -0.361812
0.889                   0.931919         -0.3622
0.89                    0.931768       -0.362589
0.891                   0.931616       -0.362977
0.892                   0.931465       -0.363365
0.893                   0.931313       -0.363753
0.894                   0.931162       -0.364141
0.895                    0.93101       -0.364529
0.896                   0.930858       -0.364917
0.897                   0.930705       -0.365305
0.898                   0.930553       -0.365693
0.899                     0.9304       -0.366081
0.9                     0.930247       -0.366469
0.901                   0.930095       -0.366856
0.902                   0.929942       -0.367244
0.903                   0.929788       -0.367631
0.904                   0.929635       -0.368019
0.905                   0.929481       -0.368406
0.906                   0.929328       -0.368794
0.907                   0.929174       -0.369181
0.908                    0.92902       -0.369568
0.909                   0.928865       -0.369955
0.91                    0.928711       -0.370342
0.911                   0.928557       -0.370729
0.912                   0.928402       -0.371116
0.913                   0.928247       -0.371503
0.914                   0.928092        -0.37189
0.915                   0.927937       -0.372277
0.916                   0.927782       -0.372663
0.917                   0.927626        -0.37305
0.918                    0.92747       -0.373436
0.919                   0.927315       -0.373823
0.92                    0.927159       -0.374209
0.921                   0.927003       -0.374596
0.922                   0.926846       -0.374982
0.923                    0.92669       -0.375368
0.924                   0.926533       -0.375754
0.925                   0.926376        -0.37614
0.926                   0.926219       -0.376526
0.927                   0.926062       -0.376912
0.928                   0.925905       -0.377298
0.929                   0.925748       -0.377684
0.93                     0.92559        -0.37807
0.931                   0.925432       -0.378456
0.932                   0.925274       -0.378841
0.933                   0.925116       -0.379227
0.934                   0.924958       -0.379612
0.935                     0.9248       -0.379998
0.936                   0.924641       -0.380383
0.937                   0.924483       -0.380768
0.938                   0.924324       -0.381154
0.939                   0.924165       -0.381539
0.94                    0.924005       -0.381924
0.941                   0.923846       -0.382309
0.942                   0.923687       -0.382694
0.943                   0.923527       -0.383079
0.944                   0.923367       -0.383463
0.945                   0.923207       -0.383848
0.946                   0.923047       -0.384233
0.947                   0.922887       -0.384618
0.948                   0.922726       -0.385002
0.949                   0.922566       -0.385387
0.95                    0.922405       -0.385771
0.951                   0.922244       -0.386155
0.952                   0.922083        -0.38654
0.953                   0.921921       -0.386924
0.954                    0.92176       -0.387308
0.955                   0.921598       -0.387692
0.956                   0.921437       -0.388076
0.957                   0.921275        -0.38846
0.958                   0.921113       -0.388844
0.959                    0.92095       -0.389228
0.96                    0.920788       -0.389611
0.961                   0.920625       -0.389995
0.962                   0.920463       -0.390379
0.963                     0.9203       -0.390762
0.964                   0.920137       -0.391146
0.965                   0.919974       -0.391529
0.966                    0.91981       -0.391912
0.967                   0.919647       -0.392296
0.968                   0.919483       -0.392679
0.969                   0.919319       -0.393062
0.97                    0.919155       -0.393445
0.971                   0.918991       -0.393828
0.972                   0.918827       -0.394211
0.973                   0.918662       -0.394594
0.974                   0.918498       -0.394976
0.975                   0.918333       -0.395359
0.976                   0.918168       -0.395742
0.977                   0.918003       -0.396124
0.978                   0.917838       -0.396507
0.979                   0.917672       -0.396889
0.98                    0.917507       -0.397272
0.981                   0.917341       -0.397654
0.982                   0.917175       -0.398036
0.983                   0.917009       -0.398418
0.984                   0.916843         -0.3988
0.985                   0.916676       -0.399182
0.986                    0.91651       -0.399564
0.987                   0.916343       -0.399946
0.988                   0.916176       -0.400328
0.989                   0.916009        -0.40071
0.99                    0.915842       -0.401091
0.991                   0.915675       -0.401473
0.992                   0.915507       -0.401854
0.993                    0.91534       -0.402236
0.994                   0.915172       -0.402617
0.995                   0.915004       -0.402998
0.996                   0.914836        -0.40338
0.997                   0.914667       -0.403761
0.998                   0.914499       -0.404142
0.999                    0.91433       -0.404523
1                       0.914161       -0.404904
1.001                   0.913993       -0.405285
1.002                   0.913823       -0.405666
1.003                   0.913654       -0.406046
1.004                   0.913485       -0.406427
1.005                   0.913315       -0.406807
1.006                   0.913146       -0.407188
1.007                   0.912976       -0.407568
1.008                   0.912806       -0.407949
1.009                   0.912635       -0.408329
1.01                    0.912465       -0.408709
1.011                   0.912295        -0.40909
1.012                   0.912124        -0.40947
1.013                   0.911953        -0.40985
1.014                   0.911782        -0.41023
1.015                   0.911611       -0.410609
1.016                    0.91144       -0.410989
1.017                   0.911268       -0.411369
1.018                   0.911097       -0.411749
1.019                   0.910925       -0.412128
1.02                    0.910753       -0.412508
1.021                   0.910581       -0.412887
1.022                   0.910408       -0.413266
1.023                   0.910236       -0.413646
1.024                   0.910063       -0.414025
1.025                   0.909891       -0.414404
1.026                   0.909718       -0.414783
1.027                   0.909545       -0.415162
1.028                   0.909372       -0.415541
1.029                   0.909198        -0.41592
1.03                    0.909025       -0.416299
1.031                   0.908851       -0.416677
1.032                   0.908677       -0.417056
1.033                   0.908503       -0.417435
1.034                   0.908329       -0.417813
1.035                   0.908155       -0.418192
1.036                    0.90798        -0.41857
1.037                   0.907806       -0.418948
1.038                   0.907631       -0.419326
1.039                   0.907456       -0.419704
1.04                    0.907281       -0.420083
1.041                   0.907106        -0.42046
1.042                    0.90693       -0.420838
1.043                   0.906755       -0.421216
1.044                   0.906579       -0.421594
1.045                   0.906403       -0.421972
1.046                   0.906227       -0.422349
1.047                   0.906051       -0.422727
1.048                   0.905874       -0.423104
1.049                   0.905698       -0.423482
1.05                    0.905521       -0.423859
1.051                   0.905345       -0.424236
1.052                   0.905167       -0.424613
1.053                    0.90499        -0.42499
1.054                   0.904813       -0.425367
1.055                   0.904636       -0.425744
1.056                   0.904458       -0.426121
1.057                    0.90428       -0.426498
1.058                   0.904102       -0.426875
1.059                   0.903924       -0.427251
1.06                    0.903746       -0.427628
1.061                   0.903568       -0.428004
1.062                   0.903389       -0.428381
1.063                    0.90321       -0.428757
1.064                   0.903031       -0.429133
1.065                   0.902852       -0.429509
1.066                   0.902673       -0.429886
1.067                   0.902494       -0.430262
1.068                   0.902314       -0.430638
1.069                   0.902135       -0.431013
1.07                    0.901955       -0.431389
1.071                   0.901775       -0.431765
1.072                   0.901595       -0.432141
1.073                   0.901415       -0.432516
1.074                   0.901234       -0.432892
1.075                   0.901054       -0.433267
1.076                   0.900873       -0.433642
1.077                   0.900692       -0.434018
1.078                   0.900511       -0.434393
1.079                    0.90033       -0.434768
1.08                    0.900148       -0.435143
1.081                   0.899967       -0.435518
1.082                   0.899785       -0.435893
1.083                   0.899603       -0.436268
1.084                   0.899421       -0.436643
1.085                   0.899239       -0.437017
1.086                   0.899057       -0.437392
1.087                   0.898874       -0.437766
1.088                   0.898692       -0.438141
1.089                   0.898509       -0.438515
1.09                    0.898326       -0.438889
1.091                   0.898143       -0.439264
1.092                    0.89796       -0.439638
1.093                   0.897776       -0.440012
1.094                   0.897593       -0.440386
1.095                   0.897409        -0.44076
1.096                   0.897225       -0.441133
1.097                   0.897041       -0.441507
1.098                   0.896857       -0.441881
1.099                   0.896673       -0.442254
1.1                     0.896488       -0.442628
1.101                   0.896303       -0.443001
1.102                   0.896119       -0.443375
1.103                   0.895934       -0.443748
1.104                   0.895749       -0.444121
1.105                   0.895563       -0.444494
1.106                   0.895378       -0.444867
1.107                   0.895192        -0.44524
1.108                   0.895007       -0.445613
1.109                   0.894821       -0.445986
1.11                    0.894635       -0.446358
1.111                   0.894448       -0.446731
1.112                   0.894262       -0.447104
1.113                   0.894076       -0.447476
1.114                   0.893889       -0.447849
1.115                   0.893702       -0.448221
1.116                   0.893515       -0.448593
1.117                   0.893328       -0.448965
1.118                   0.893141       -0.449337
1.119                   0.892953       -0.449709
1.12                    0.892766       -0.450081
1.121                   0.892578       -0.450453
1.122                    0.89239       -0.450825
1.123                   0.892202       -0.451197
1.124                   0.892014       -0.451568
1.125                   0.891825        -0.45194
1.126                   0.891637       -0.452311
1.127                   0.891448       -0.452683
1.128                   0.891259       -0.453054
1.129                    0.89107       -0.453425
1.13                    0.890881       -0.453796
1.131                   0.890692       -0.454167
1.132                   0.890502       -0.454538
1.133                   0.890313       -0.454909
1.134                   0.890123        -0.45528
1.135                   0.889933       -0.455651
1.136                   0.889743       -0.456022
1.137                   0.889553       -0.456392
1.138                   0.889362       -0.456763
1.139                   0.889172       -0.457133
1.14                    0.888981       -0.457503
1.141                    0.88879       -0.457874
1.142                   0.888599       -0.458244
1.143                   0.888408       -0.458614
1.144                   0.888217       -0.458984
1.145                   0.888025       -0.459354
1.146                   0.887834       -0.459724
1.147                   0.887642       -0.460093
1.148                    0.88745       -0.460463
1.149                   0.887258       -0.460833
1.15                    0.887066       -0.461202
1.151                   0.886873       -0.461572
1.152                   0.886681       -0.461941
1.153                   0.886488        -0.46231
1.154                   0.886295        -0.46268
1.155                   0.886102       -0.463049
1.156                   0.885909       -0.463418
1.157                   0.885716       -0.463787
1.158                   0.885522       -0.464156
1.159                   0.885329       -0.464524
1.16                    0.885135       -0.464893
1.161                   0.884941       -0.465262
1.162                   0.884747        -0.46563
1.163                   0.884553       -0.465999
1.164                   0.884358       -0.466367
1.165                   0.884164       -0.466736
1.166                   0.883969       -0.467104
1.167                   0.883774       -0.467472
1.168                   0.883579        -0.46784
1.169                   0.883384       -0.468208
1.17                    0.883189       -0.468576
1.171                   0.882993       -0.468944
1.172                   0.882798       -0.469311
1.173                   0.882602       -0.469679
1.174                   0.882406       -0.470047
1.175                    0.88221       -0.470414
1.176                   0.882014       -0.470782
1.177                   0.881817       -0.471149
1.178                   0.881621       -0.471516
1.179                   0.881424       -0.471883
1.18                    0.881227        -0.47225
1.181                    0.88103       -0.472617
1.182                   0.880833       -0.472984
1.183                   0.880636       -0.473351
1.184                   0.880438       -0.473718
1.185                   0.880241       -0.474085
1.186                   0.880043       -0.474451
1.187                   0.879845       -0.474818
1.188                   0.879647       -0.475184
1.189                   0.879449        -0.47555
1.19                    0.879251       -0.475917
1.191                   0.879052       -0.476283
1.192                   0.878853       -0.476649
1.193                   0.878655       -0.477015
1.194                   0.878456       -0.477381
1.195                   0.878256       -0.477747
1.196                   0.878057       -0.478112
1.197                   0.877858       -0.478478
1.198                   0.877658       -0.478844
1.199                   0.877458       -0.479209
1.2                     0.877259       -0.479574
1.201                   0.877058        -0.47994
1.202                   0.876858       -0.480305
1.203                   0.876658        -0.48067
1.204                   0.876457       -0.481035
1.205                   0.876257         -0.4814
1.206                   0.876056       -0.481765
1.207                   0.875855        -0.48213
1.208                   0.875654       -0.482495
1.209                   0.875453       -0.482859
1.21                    0.875251       -0.483224
1.211                    0.87505       -0.483588
1.212                   0.874848       -0.483953
1.213                   0.874646       -0.484317
1.214                   0.874444       -0.484681
1.215                   0.874242       -0.485045
1.216                    0.87404        -0.48541
1.217                   0.873837       -0.485773
1.218                   0.873634       -0.486137
1.219                   0.873432       -0.486501
1.22                    0.873229       -0.486865
1.221                   0.873026       -0.487229
1.222                   0.872822       -0.487592
1.223                   0.872619       -0.487955
1.224                   0.872415       -0.488319
1.225                   0.872212       -0.488682
1.226                   0.872008       -0.489045
1.227                   0.871804       -0.489408
1.228                     0.8716       -0.489772
1.229                   0.871396       -0.490134
1.23                    0.871191       -0.490497
1.231                   0.870987        -0.49086
1.232                   0.870782       -0.491223
1.233                   0.870577       -0.491585
1.234                   0.870372       -0.491948
1.235                   0.870167        -0.49231
1.236                   0.869961       -0.492673
1.237                   0.869756       -0.493035
1.238                    0.86955       -0.493397
1.239                   0.869344        -0.49376
1.24                    0.869138       -0.494121
1.241                   0.868932       -0.494483
1.242                   0.868726       -0.494845
1.243                    0.86852       -0.495207
1.244                   0.868313       -0.495568
1.245                   0.868107        -0.49593
1.246                     0.8679       -0.496291
1.247                   0.867693       -0.496653
1.248                   0.867485       -0.497014
1.249                   0.867278       -0.497375
1.25                     0.86707       -0.497737
1.251                   0.866863       -0.498097
1.252                   0.866655       -0.498458
1.253                   0.866447       -0.498819
1.254                   0.866239        -0.49918
1.255                   0.866031       -0.499541
1.256                   0.865823       -0.499901
1.257                   0.865614       -0.500262
1.258                   0.865405       -0.500622
1.259                   0.865197       -0.500982
1.26                    0.864988       -0.501343
1.261                   0.864779       -0.501703
1.262                   0.864569       -0.502063
1.263                    0.86436       -0.502423
1.264                    0.86415       -0.502783
1.265                    0.86394       -0.503143
1.266                   0.863731       -0.503502
1.267                   0.863521       -0.503862
1.268                   0.863311       -0.504222
1.269                     0.8631       -0.504581
1.27                     0.86289        -0.50494
1.271                   0.862679         -0.5053
1.272                   0.862468       -0.505659
1.273                   0.862258       -0.506018
1.274                   0.862046       -0.506377
1.275                   0.861835       -0.506736
1.276                   0.861624       -0.507095
1.277                   0.861412       -0.507453
1.278                   0.861201       -0.507812
1.279                   0.860989       -0.508171
1.28                    0.860777       -0.508529
1.281                   0.860565       -0.508888
1.282                   0.860352       -0.509246
1.283                    0.86014       -0.509604
1.284                   0.859928       -0.509962
1.285                   0.859715        -0.51032
1.286                   0.859502       -0.510678
1.287                   0.859289       -0.511036
1.288                   0.859076       -0.511394
1.289                   0.858862       -0.511751
1.29                    0.858649       -0.512109
1.291                   0.858435       -0.512466
1.292                   0.858222       -0.512824
1.293                   0.858008       -0.513181
1.294                   0.857794       -0.513538
1.295                    0.85758       -0.513896
1.296                   0.857365       -0.514253
1.297                   0.857151        -0.51461
1.298                   0.856936       -0.514966
1.299                   0.856721       -0.515323
1.3                     0.856506        -0.51568
1.301                   0.856291       -0.516037
1.302                   0.856076       -0.516393
1.303                   0.855861       -0.516749
1.304                   0.855645       -0.517106
1.305                   0.855429       -0.517462
1.306                   0.855214       -0.517818
1.307                   0.854998       -0.518174
1.308                   0.854781        -0.51853
1.309                   0.854565       -0.518886
1.31                    0.854349       -0.519242
1.311                   0.854132       -0.519598
1.312                   0.853915       -0.519953
1.313                   0.853699       -0.520309
1.314                   0.853482       -0.520664
1.315                   0.853264       -0.521019
1.316                   0.853047       -0.521375
1.317                    0.85283        -0.52173
1.318                   0.852612       -0.522085
1.319                   0.852394        -0.52244
1.32                    0.852176       -0.522795
1.321                   0.851958       -0.523149
1.322                    0.85174       -0.523504
1.323                   0.851522       -0.523859
1.324                   0.851303       -0.524213
1.325                   0.851084       -0.524567
1.326                   0.850866       -0.524922
1.327                   0.850647       -0.525276
1.328                   0.850428        -0.52563
1.329                   0.850208       -0.525984
1.33                    0.849989       -0.526338
1.331                    0.84977       -0.526692
1.332                    0.84955       -0.527046
1.333                    0.84933       -0.527399
1.334                    0.84911       -0.527753
1.335                    0.84889       -0.528106
1.336                    0.84867        -0.52846
1.337                   0.848449       -0.528813
1.338                   0.848229       -0.529166
1.339                   0.848008       -0.529519
1.34                    0.847787       -0.529873
1.341                   0.847566       -0.530225
1.342                   0.847345       -0.530578
1.343                   0.847124       -0.530931
1.344                   0.846902       -0.531284
1.345                    0.84668       -0.531636
1.346                   0.846459       -0.531989
1.347                   0.846237       -0.532341
1.348                   0.846015       -0.532693
1.349                   0.845793       -0.533045
1.35                     0.84557       -0.533398
1.351                   0.845348        -0.53375
1.352                   0.845125       -0.534101
1.353                   0.844902       -0.534453
1.354                   0.844679       -0.534805
1.355                   0.844456       -0.535157
1.356                   0.844233       -0.535508
1.357                    0.84401        -0.53586
1.358                   0.843786       -0.536211
1.359                   0.843563       -0.536562
1.36                    0.843339       -0.536913
1.361                   0.843115       -0.537264
1.362                   0.842891       -0.537615
1.363                   0.842667       -0.537966
1.364                   0.842442       -0.538317
1.365                   0.842218       -0.538668
1.366                   0.841993       -0.539018
1.367                   0.841768       -0.539369
1.368                   0.841543       -0.539719
1.369                   0.841318       -0.540069
1.37                    0.841093        -0.54042
1.371                   0.840867        -0.54077
1.372                   0.840642        -0.54112
1.373                   0.840416        -0.54147
1.374                    0.84019        -0.54182
1.375                   0.839964       -0.542169
1.376                   0.839738       -0.542519
1.377                   0.839512       -0.542869
1.378                   0.839285       -0.543218
1.379                   0.839059       -0.543567
1.38                    0.838832       -0.543917
1.381                   0.838605       -0.544266
1.382                   0.838378       -0.544615
1.383                   0.838151       -0.544964
1.384                   0.837924       -0.545313
1.385                   0.837696       -0.545661
1.386                   0.837469        -0.54601
1.387                   0.837241       -0.546359
1.388                   0.837013       -0.546707
1.389                   0.836785       -0.547056
1.39                    0.836557       -0.547404
1.391                   0.836329       -0.547752
1.392                     0.8361         -0.5481
1.393                   0.835871       -0.548448
1.394                   0.835643       -0.548796
1.395                   0.835414       -0.549144
1.396                   0.835185       -0.549492
1.397                   0.834956       -0.549839
1.398                   0.834726       -0.550187
1.399                   0.834497       -0.550534
1.4                     0.834267       -0.550882
1.401                   0.834037       -0.551229
1.402                   0.833807       -0.551576
1.403                   0.833577       -0.551923
1.404                   0.833347        -0.55227
1.405                   0.833117       -0.552617
1.406                   0.832886       -0.552964
1.407                   0.832656        -0.55331
1.408                   0.832425       -0.553657
1.409                   0.832194       -0.554003
1.41                    0.831963        -0.55435
1.411                   0.831732       -0.554696
1.412                     0.8315       -0.555042
1.413                   0.831269       -0.555388
1.414                   0.831037       -0.555734
1.415                   0.830805        -0.55608
1.416                   0.830573       -0.556426
1.417                   0.830341       -0.556772
1.418                   0.830109       -0.557117
1.419                   0.829877       -0.557463
1.42                    0.829644       -0.557808
1.421                   0.829411       -0.558154
1.422                   0.829179       -0.558499
1.423                   0.828946       -0.558844
1.424                   0.828713       -0.559189
1.425                   0.828479       -0.559534
1.426                   0.828246       -0.559879
1.427                   0.828012       -0.560223
1.428                   0.827779       -0.560568
1.429                   0.827545       -0.560912
1.43                    0.827311       -0.561257
1.431                   0.827077       -0.561601
1.432                   0.826843       -0.561945
1.433                   0.826608       -0.562289
1.434                   0.826374       -0.562633
1.435                   0.826139       -0.562977
1.436                   0.825904       -0.563321
1.437                   0.825669       -0.563665
1.438                   0.825434       -0.564009
1.439                   0.825199       -0.564352
1.44                    0.824963       -0.564696
1.441                   0.824728       -0.565039
1.442                   0.824492       -0.565382
1.443                   0.824256       -0.565725
1.444                    0.82402       -0.566068
1.445                   0.823784       -0.566411
1.446                   0.823548       -0.566754
1.447                   0.823312       -0.567097
1.448                   0.823075        -0.56744
1.449                   0.822838       -0.567782
1.45                    0.822602       -0.568125
1.451                   0.822365       -0.568467
1.452                   0.822127       -0.568809
1.453                    0.82189       -0.569151
1.454                   0.821653       -0.569493
1.455                   0.821415       -0.569835
1.456                   0.821178       -0.570177
1.457                    0.82094       -0.570519
1.458                   0.820702       -0.570861
1.459                   0.820464       -0.571202
1.46                    0.820225       -0.571544
1.461                   0.819987       -0.571885
1.462                   0.819748       -0.572226
1.463                    0.81951       -0.572567
1.464                   0.819271       -0.572908
1.465                   0.819032       -0.573249
1.466                   0.818793        -0.57359
1.467                   0.818554       -0.573931
1.468                   0.818314       -0.574272
1.469                   0.818075       -0.574612
1.47                    0.817835       -0.574953
1.471                   0.817595       -0.575293
1.472                   0.817355       -0.575633
1.473                   0.817115       -0.575973
1.474                   0.816875       -0.576313
1.475                   0.816634       -0.576653
1.476                   0.816394       -0.576993
1.477                   0.816153       -0.577333
1.478                   0.815912       -0.577672
1.479                   0.815671       -0.578012
1.48                     0.81543       -0.578351
1.481                   0.815189       -0.578691
1.482                   0.814948        -0.57903
1.483                   0.814706       -0.579369
1.484                   0.814464       -0.579708
1.485                   0.814223       -0.580047
1.486                   0.813981       -0.580386
1.487                   0.813739       -0.580725
1.488                   0.813496       -0.581063
1.489                   0.813254       -0.581402
1.49                    0.813011        -0.58174
1.491                   0.812769       -0.582078
1.492                   0.812526       -0.582417
1.493                   0.812283       -0.582755
1.494                    0.81204       -0.583093
1.495                   0.811797       -0.583431
1.496                   0.811553       -0.583769
1.497                    0.81131       -0.584106
1.498                   0.811066       -0.584444
1.499                   0.810822       -0.584781
1.5                     0.810578       -0.585119
1.501                   0.810334       -0.585456
1.502                    0.81009       -0.585793
1.503                   0.809846        -0.58613
1.504                   0.809601       -0.586467
1.505                   0.809357       -0.586804
1.506                   0.809112       -0.587141
1.507                   0.808867       -0.587478
1.508                   0.808622       -0.587814
1.509                   0.808377       -0.588151
1.51                    0.808131       -0.588487
1.511                   0.807886       -0.588823
1.512                    0.80764       -0.589159
1.513                   0.807394       -0.589495
1.514                   0.807148       -0.589831
1.515                   0.806902       -0.590167
1.516                   0.806656       -0.590503
1.517                    0.80641       -0.590839
1.518                   0.806163       -0.591174
1.519                   0.805917        -0.59151
1.52                     0.80567       -0.591845
1.521                   0.805423        -0.59218
1.522                   0.805176       -0.592515
1.523                   0.804929        -0.59285
1.524                   0.804682       -0.593185
1.525                   0.804434        -0.59352
1.526                   0.804187       -0.593855
1.527                   0.803939        -0.59419
1.528                   0.803691       -0.594524
1.529                   0.803443       -0.594858
1.53                    0.803195       -0.595193
1.531                   0.802946       -0.595527
1.532                   0.802698       -0.595861
1.533                    0.80245       -0.596195
1.534                   0.802201       -0.596529
1.535                   0.801952       -0.596863
1.536                   0.801703       -0.597196
1.537                   0.801454        -0.59753
1.538                   0.801205       -0.597863
1.539                   0.800955       -0.598197
1.54                    0.800706        -0.59853
1.541                   0.800456       -0.598863
1.542                   0.800206       -0.599196
1.543                   0.799956       -0.599529
1.544                   0.799706       -0.599862
1.545                   0.799456       -0.600195
1.546                   0.799205       -0.600527
1.547                   0.798955        -0.60086
1.548                   0.798704       -0.601192
1.549                   0.798453       -0.601524
1.55                    0.798202       -0.601857
1.551                   0.797951       -0.602189
1.552                     0.7977       -0.602521
1.553                   0.797449       -0.602853
1.554                   0.797197       -0.603184
1.555                   0.796946       -0.603516
1.556                   0.796694       -0.603848
1.557                   0.796442       -0.604179
1.558                    0.79619        -0.60451
1.559                   0.795938       -0.604842
1.56                    0.795685       -0.605173
1.561                   0.795433       -0.605504
1.562                    0.79518       -0.605835
1.563                   0.794927       -0.606166
1.564                   0.794675       -0.606496
1.565                   0.794421       -0.606827
1.566                   0.794168       -0.607157
1.567                   0.793915       -0.607488
1.568                   0.793662       -0.607818
1.569                   0.793408       -0.608148
1.57                    0.793154       -0.608478
1.571                     0.7929       -0.608808
1.572                   0.792647       -0.609138
1.573                   0.792392       -0.609468
1.574                   0.792138       -0.609798
1.575                   0.791884       -0.610127
1.576                   0.791629       -0.610457
1.577                   0.791375       -0.610786
1.578                    0.79112       -0.611115
1.579                   0.790865       -0.611444
1.58                     0.79061       -0.611773
1.581                   0.790354       -0.612102
1.582                   0.790099       -0.612431
1.583                   0.789844        -0.61276
1.584                   0.789588       -0.613088
1.585                   0.789332       -0.613417
1.586                   0.789076       -0.613745
1.587                    0.78882       -0.614073
1.588                   0.788564       -0.614401
1.589                   0.788307       -0.614729
1.59                    0.788051       -0.615057
1.591                   0.787795       -0.615385
1.592                   0.787538       -0.615713
1.593                   0.787281       -0.616041
1.594                   0.787024       -0.616368
1.595                   0.786767       -0.616695
1.596                   0.786509       -0.617023
1.597                   0.786252        -0.61735
1.598                   0.785994       -0.617677
1.599                   0.785737       -0.618004
1.6                     0.785479       -0.618331
1.601                   0.785221       -0.618658
1.602                   0.784963       -0.618984
1.603                   0.784704       -0.619311
1.604                   0.784446       -0.619637
1.605                   0.784188       -0.619963
1.606                   0.783929        -0.62029
1.607                    0.78367       -0.620616
1.608                   0.783411       -0.620942
1.609                   0.783152       -0.621268
1.61                    0.782893       -0.621593
1.611                   0.782633       -0.621919
1.612                   0.782374       -0.622244
1.613                   0.782114        -0.62257
1.614                   0.781855       -0.622895
1.615                   0.781595        -0.62322
1.616                   0.781335       -0.623546
1.617                   0.781074       -0.623871
1.618                   0.780814       -0.624195
1.619                   0.780554        -0.62452
1.62                    0.780293       -0.624845
1.621                   0.780033       -0.625169
1.622                   0.779772       -0.625494
1.623                   0.779511       -0.625818
1.624                   0.779249       -0.626143
1.625                   0.778988       -0.626467
1.626                   0.778727       -0.626791
1.627                   0.778465       -0.627114
1.628                   0.778204       -0.627438
1.629                   0.777942       -0.627762
1.63                     0.77768       -0.628086
1.631                   0.777418       -0.628409
1.632                   0.777156       -0.628732
1.633                   0.776893       -0.629056
1.634                   0.776631       -0.629379
1.635                   0.776368       -0.629702
1.636                   0.776105       -0.630025
1.637                   0.775842       -0.630347
1.638                    0.77558        -0.63067
1.639                   0.775316       -0.630993
1.64                    0.775053       -0.631315
1.641                    0.77479       -0.631637
1.642                   0.774526        -0.63196
1.643                   0.774262       -0.632282
1.644                   0.773999       -0.632604
1.645                   0.773735       -0.632926
1.646                   0.773471       -0.633248
1.647                   0.773206       -0.633569
1.648                   0.772942       -0.633891
1.649                   0.772677       -0.634212
1.65                    0.772413       -0.634534
1.651                   0.772148       -0.634855
1.652                   0.771883       -0.635176
1.653                   0.771618       -0.635497
1.654                   0.771353       -0.635818
1.655                   0.771088       -0.636139
1.656                   0.770822       -0.636459
1.657                   0.770557        -0.63678
1.658                   0.770291         -0.6371
1.659                   0.770025       -0.637421
1.66                    0.769759       -0.637741
1.661                   0.769493       -0.638061
1.662                   0.769227       -0.638381
1.663                    0.76896       -0.638701
1.664                   0.768694       -0.639021
1.665                   0.768427       -0.639341
1.666                    0.76816        -0.63966
1.667                   0.767893       -0.639979
1.668                   0.767626       -0.640299
1.669                   0.767359       -0.640618
1.67                    0.767092       -0.640937
1.671                   0.766824       -0.641256
1.672                   0.766557       -0.641575
1.673                   0.766289       -0.641894
1.674                   0.766021       -0.642212
1.675                   0.765753       -0.642531
1.676                   0.765485       -0.642849
1.677                   0.765217       -0.643168
1.678                   0.764948       -0.643486
1.679                    0.76468       -0.643804
1.68                    0.764411       -0.644122
1.681                   0.764142        -0.64444
1.682                   0.763873       -0.644758
1.683                   0.763604       -0.645075
1.684                   0.763335       -0.645393
1.685                   0.763066        -0.64571
1.686                   0.762796       -0.646028
1.687                   0.762527       -0.646345
1.688                   0.762257       -0.646662
1.689                   0.761987       -0.646979
1.69                    0.761717       -0.647296
1.691                   0.761447       -0.647612
1.692                   0.761177       -0.647929
1.693                   0.760906       -0.648245
1.694                   0.760636       -0.648562
1.695                   0.760365       -0.648878
1.696                   0.760094       -0.649194
1.697                   0.759823        -0.64951
1.698                   0.759552       -0.649826
1.699                   0.759281       -0.650142
1.7                      0.75901       -0.650458
1.701                   0.758738       -0.650773
1.702                   0.758467       -0.651089
1.703                   0.758195       -0.651404
1.704                   0.757923       -0.651719
1.705                   0.757651       -0.652034
1.706                   0.757379        -0.65235
1.707                   0.757107       -0.652664
1.708                   0.756834       -0.652979
1.709                   0.756562       -0.653294
1.71                    0.756289       -0.653608
1.711                   0.756016       -0.653923
1.712                   0.755743       -0.654237
1.713                    0.75547       -0.654551
1.714                   0.755197       -0.654866
1.715                   0.754924        -0.65518
1.716                   0.754651       -0.655493
1.717                   0.754377       -0.655807
1.718                   0.754103       -0.656121
1.719                   0.753829       -0.656434
1.72                    0.753555       -0.656748
1.721                   0.753281       -0.657061
1.722                   0.753007       -0.657374
1.723                   0.752733       -0.657687
1.724                   0.752458          -0.658
1.725                   0.752184       -0.658313
1.726                   0.751909       -0.658626
1.727                   0.751634       -0.658938
1.728                   0.751359       -0.659251
1.729                   0.751084       -0.659563
1.73                    0.750809       -0.659875
1.731                   0.750533       -0.660187
1.732                   0.750258       -0.660499
1.733                   0.749982       -0.660811
1.734                   0.749706       -0.661123
1.735                    0.74943       -0.661435
1.736                   0.749154       -0.661746
1.737                   0.748878       -0.662058
1.738                   0.748601       -0.662369
1.739                   0.748325        -0.66268
1.74                    0.748049       -0.662991
1.741                   0.747772       -0.663302
1.742                   0.747495       -0.663613
1.743                   0.747218       -0.663924
1.744                   0.746941       -0.664234
1.745                   0.746664       -0.664545
1.746                   0.746386       -0.664855
1.747                   0.746109       -0.665166
1.748                   0.745831       -0.665476
1.749                   0.745553       -0.665786
1.75                    0.745275       -0.666096
1.751                   0.744997       -0.666405
1.752                   0.744719       -0.666715
1.753                   0.744441       -0.667025
1.754                   0.744162       -0.667334
1.755                   0.743884       -0.667643
1.756                   0.743605       -0.667953
1.757                   0.743327       -0.668262
1.758                   0.743048       -0.668571
1.759                   0.742768        -0.66888
1.76                    0.742489       -0.669188
1.761                    0.74221       -0.669497
1.762                    0.74193       -0.669805
1.763                   0.741651       -0.670114
1.764                   0.741371       -0.670422
1.765                   0.741091        -0.67073
1.766                   0.740811       -0.671038
1.767                   0.740531       -0.671346
1.768                   0.740251       -0.671654
1.769                   0.739971       -0.671961
1.77                     0.73969       -0.672269
1.771                    0.73941       -0.672576
1.772                   0.739129       -0.672884
1.773                   0.738848       -0.673191
1.774                   0.738567       -0.673498
1.775                   0.738286       -0.673805
1.776                   0.738005       -0.674112
1.777                   0.737723       -0.674419
1.778                   0.737442       -0.674725
1.779                    0.73716       -0.675032
1.78                    0.736878       -0.675338
1.781                   0.736596       -0.675644
1.782                   0.736314        -0.67595
1.783                   0.736032       -0.676256
1.784                    0.73575       -0.676562
1.785                   0.735467       -0.676868
1.786                   0.735185       -0.677174
1.787                   0.734902       -0.677479
1.788                   0.734619       -0.677785
1.789                   0.734336        -0.67809
1.79                    0.734053       -0.678395
1.791                    0.73377         -0.6787
1.792                   0.733487       -0.679005
1.793                   0.733203        -0.67931
1.794                    0.73292       -0.679615
1.795                   0.732636       -0.679919
1.796                   0.732352       -0.680223
1.797                   0.732068       -0.680528
1.798                   0.731784       -0.680832
1.799                     0.7315       -0.681136
1.8                     0.731216        -0.68144
1.801                   0.730931       -0.681744
1.802                   0.730647       -0.682048
1.803                   0.730362       -0.682351
1.804                   0.730077       -0.682655
1.805                   0.729792       -0.682958
1.806                   0.729507       -0.683261
1.807                   0.729222       -0.683564
1.808                   0.728936       -0.683867
1.809                   0.728651        -0.68417
1.81                    0.728365       -0.684473
1.811                    0.72808       -0.684776
1.812                   0.727794       -0.685078
1.813                   0.727508       -0.685381
1.814                   0.727221       -0.685683
1.815                   0.726935       -0.685985
1.816                   0.726649       -0.686287
1.817                   0.726363       -0.686589
1.818                   0.726076       -0.686891
1.819                   0.725789       -0.687192
1.82                    0.725502       -0.687494
1.821                   0.725215       -0.687795
1.822                   0.724928       -0.688097
1.823                   0.724641       -0.688398
1.824                   0.724353       -0.688699
1.825                   0.724066          -0.689
1.826                   0.723778       -0.689301
1.827                    0.72349       -0.689602
1.828                   0.723203       -0.689902
1.829                   0.722914       -0.690203
1.83                    0.722626       -0.690503
1.831                   0.722338       -0.690803
1.832                    0.72205       -0.691103
1.833                   0.721761       -0.691403
1.834                   0.721472       -0.691703
1.835                   0.721184       -0.692003
1.836                   0.720895       -0.692302
1.837                   0.720606       -0.692601
1.838                   0.720317       -0.692901
1.839                   0.720027         -0.6932
1.84                    0.719738       -0.693499
1.841                   0.719448       -0.693798
1.842                   0.719158       -0.694097
1.843                   0.718869       -0.694396
1.844                   0.718579       -0.694694
1.845                   0.718289       -0.694993
1.846                   0.717999       -0.695291
1.847                   0.717708        -0.69559
1.848                   0.717418       -0.695888
1.849                   0.717127       -0.696186
1.85                    0.716837       -0.696484
1.851                   0.716546       -0.696781
1.852                   0.716255       -0.697079
1.853                   0.715964       -0.697377
1.854                   0.715673       -0.697674
1.855                   0.715382       -0.697971
1.856                    0.71509       -0.698268
1.857                   0.714799       -0.698565
1.858                   0.714507       -0.698862
1.859                   0.714215       -0.699159
1.86                    0.713923       -0.699456
1.861                   0.713631       -0.699752
1.862                   0.713339       -0.700049
1.863                   0.713047       -0.700345
1.864                   0.712754       -0.700641
1.865                   0.712462       -0.700937
1.866                   0.712169       -0.701233
1.867                   0.711876       -0.701529
1.868                   0.711583       -0.701824
1.869                    0.71129        -0.70212
1.87                    0.710997       -0.702415
1.871                   0.710704       -0.702711
1.872                   0.710411       -0.703006
1.873                   0.710117       -0.703301
1.874                   0.709823       -0.703596
1.875                    0.70953       -0.703891
1.876                   0.709236       -0.704185
1.877                   0.708942        -0.70448
1.878                   0.708648       -0.704774
1.879                   0.708353       -0.705069
1.88                    0.708059       -0.705363
1.881                   0.707764       -0.705657
1.882                    0.70747       -0.705951
1.883                   0.707175       -0.706244
1.884                    0.70688       -0.706538
1.885                   0.706585       -0.706832
1.886                    0.70629       -0.707125
1.887                   0.705995       -0.707418
1.888                   0.705699       -0.707711
1.889                   0.705404       -0.708004
1.89                    0.705108       -0.708297
1.891                   0.704812        -0.70859
1.892                   0.704517       -0.708883
1.893                   0.704221       -0.709175
1.894                   0.703924       -0.709468
1.895                   0.703628        -0.70976
1.896                   0.703332       -0.710052
1.897                   0.703035       -0.710344
1.898                   0.702739       -0.710636
1.899                   0.702442       -0.710928
1.9                     0.702145        -0.71122
1.901                   0.701848       -0.711511
1.902                   0.701551       -0.711803
1.903                   0.701254       -0.712094
1.904                   0.700957       -0.712385
1.905                   0.700659       -0.712676
1.906                   0.700362       -0.712967
1.907                   0.700064       -0.713258
1.908                   0.699766       -0.713548
1.909                   0.699468       -0.713839
1.91                     0.69917       -0.714129
1.911                   0.698872        -0.71442
1.912                   0.698573        -0.71471
1.913                   0.698275          -0.715
1.914                   0.697976        -0.71529
1.915                   0.697678        -0.71558
1.916                   0.697379       -0.715869
1.917                    0.69708       -0.716159
1.918                   0.696781       -0.716448
1.919                   0.696482       -0.716737
1.92                    0.696182       -0.717026
1.921                   0.695883       -0.717315
1.922                   0.695583       -0.717604
1.923                   0.695284       -0.717893
1.924                   0.694984       -0.718182
1.925                   0.694684        -0.71847
1.926                   0.694384       -0.718759
1.927                   0.694084       -0.719047
1.928                   0.693784       -0.719335
1.929                   0.693483       -0.719623
1.93                    0.693183       -0.719911
1.931                   0.692882       -0.720198
1.932                   0.692581       -0.720486
1.933                    0.69228       -0.720774
1.934                    0.69198       -0.721061
1.935                   0.691678       -0.721348
1.936                   0.691377       -0.721635
1.937                   0.691076       -0.721922
1.938                   0.690774       -0.722209
1.939                   0.690473       -0.722496
1.94                    0.690171       -0.722782
1.941                   0.689869       -0.723069
1.942                   0.689567       -0.723355
1.943                   0.689265       -0.723641
1.944                   0.688963       -0.723928
1.945                   0.688661       -0.724213
1.946                   0.688358       -0.724499
1.947                   0.688056       -0.724785
1.948                   0.687753        -0.72507
1.949                    0.68745       -0.725356
1.95                    0.687147       -0.725641
1.951                   0.686844       -0.725926
1.952                   0.686541       -0.726211
1.953                   0.686238       -0.726496
1.954                   0.685935       -0.726781
1.955                   0.685631       -0.727066
1.956                   0.685327        -0.72735
1.957                   0.685024       -0.727635
1.958                    0.68472       -0.727919
1.959                   0.684416       -0.728203
1.96                    0.684112       -0.728487
1.961                   0.683807       -0.728771
1.962                   0.683503       -0.729055
1.963                   0.683199       -0.729339
1.964                   0.682894       -0.729622
1.965                   0.682589       -0.729905
1.966                   0.682285       -0.730189
1.967                    0.68198       -0.730472
1.968                   0.681675       -0.730755
1.969                   0.681369       -0.731038
1.97                    0.681064       -0.731321
1.971                   0.680759       -0.731603
1.972                   0.680453       -0.731886
1.973                   0.680147       -0.732168
1.974                   0.679842        -0.73245
1.975                   0.679536       -0.732732
1.976                    0.67923       -0.733014
1.977                   0.678924       -0.733296
1.978                   0.678617       -0.733578
1.979                   0.678311       -0.733859
1.98                    0.678005       -0.734141
1.981                   0.677698       -0.734422
1.982                   0.677391       -0.734703
1.983                   0.677084       -0.734984
1.984                   0.676778       -0.735265
1.985                   0.676471       -0.735546
1.986                   0.676163       -0.735826
1.987                   0.675856       -0.736107
1.988                   0.675548       -0.736387
1.989                   0.675241       -0.736668
1.99                    0.674933       -0.736948
1.991                   0.674626       -0.737228
1.992                   0.674318       -0.737508
1.993                    0.67401       -0.737787
1.994                   0.673701       -0.738067
1.995                   0.673393       -0.738347
1.996                   0.673085       -0.738626
1.997                   0.672776       -0.738905
1.998                   0.672468       -0.739184
1.999                   0.672159       -0.739463
2                        0.67185       -0.739742
