! TOUCHSTONE file generated by CST MICROWAVE STUDIO
! Date and time: Sun Aug  2 20:26:45 2026
! Project name: Sonda-Coaxial_21mm_DisifixB_v2_Agua_Comun.cst
! Parameters = {h_recipiente=20; l_conector=50; r_arandela=35; r_ext=10.5; r_int=3; r_recipiente=100; z_recipiente=-500}
! Header version: 2018
! Port assignment regex: !\s*Touchstone port\s*([0-9]+)\s*=\s*(CST MWS port|CST DS port)\s*([0-9]+|Zmin|Zmax)\s*\(\"(.*)\"\)(\s*mode\s*([0-9]+))?.*
! Touchstone port assignment:
! Touchstone port 1 = CST MWS port 1 ("")
# GHz S RI R 50
0.001                   0.999915        -0.00329
0.002                   0.999899     -0.00657996
0.003                   0.999872     -0.00986983
0.004                   0.999834      -0.0131596
0.005                   0.999786      -0.0164492
0.006                   0.999727      -0.0197385
0.007                   0.999657      -0.0230276
0.008                   0.999576      -0.0263164
0.009                   0.999485      -0.0296049
0.01                    0.999383       -0.032893
0.011                    0.99927      -0.0361806
0.012                   0.999147      -0.0394679
0.013                   0.999012      -0.0427546
0.014                   0.998867      -0.0460407
0.015                   0.998712      -0.0493263
0.016                   0.998545      -0.0526113
0.017                   0.998368      -0.0558957
0.018                   0.998179      -0.0591793
0.019                    0.99798      -0.0624623
0.02                    0.997771      -0.0657444
0.021                    0.99755      -0.0690258
0.022                   0.997319      -0.0723064
0.023                   0.997077       -0.075586
0.024                   0.996824      -0.0788648
0.025                   0.996561      -0.0821427
0.026                   0.996286      -0.0854195
0.027                   0.996001      -0.0886954
0.028                   0.995705      -0.0919702
0.029                   0.995398       -0.095244
0.03                    0.995081      -0.0985166
0.031                   0.994753       -0.101788
0.032                   0.994414       -0.105058
0.033                   0.994064       -0.108328
0.034                   0.993703       -0.111595
0.035                   0.993332       -0.114862
0.036                    0.99295       -0.118127
0.037                   0.992557       -0.121391
0.038                   0.992154       -0.124654
0.039                   0.991739       -0.127915
0.04                    0.991314       -0.131174
0.041                   0.990879       -0.134433
0.042                   0.990432       -0.137689
0.043                   0.989975       -0.140944
0.044                   0.989507       -0.144198
0.045                   0.989028        -0.14745
0.046                   0.988539         -0.1507
0.047                   0.988039       -0.153948
0.048                   0.987528       -0.157195
0.049                   0.987007        -0.16044
0.05                    0.986475       -0.163683
0.051                   0.985932       -0.166924
0.052                   0.985379       -0.170164
0.053                   0.984815       -0.173401
0.054                    0.98424       -0.176637
0.055                   0.983655        -0.17987
0.056                   0.983059       -0.183102
0.057                   0.982453       -0.186331
0.058                   0.981836       -0.189559
0.059                   0.981208       -0.192784
0.06                     0.98057       -0.196007
0.061                   0.979921       -0.199228
0.062                   0.979261       -0.202447
0.063                   0.978591       -0.205663
0.064                   0.977911       -0.208877
0.065                   0.977219       -0.212089
0.066                   0.976518       -0.215298
0.067                   0.975805       -0.218505
0.068                   0.975083        -0.22171
0.069                   0.974349       -0.224912
0.07                    0.973606       -0.228111
0.071                   0.972851       -0.231308
0.072                   0.972087       -0.234502
0.073                   0.971311       -0.237694
0.074                   0.970526       -0.240883
0.075                   0.969729        -0.24407
0.076                   0.968923       -0.247253
0.077                   0.968106       -0.250434
0.078                   0.967278       -0.253612
0.079                    0.96644       -0.256787
0.08                    0.965592        -0.25996
0.081                   0.964733       -0.263129
0.082                   0.963864       -0.266296
0.083                   0.962985       -0.269459
0.084                   0.962095        -0.27262
0.085                   0.961195       -0.275777
0.086                   0.960284       -0.278932
0.087                   0.959364       -0.282083
0.088                   0.958433       -0.285231
0.089                   0.957491       -0.288376
0.09                    0.956539       -0.291518
0.091                   0.955577       -0.294656
0.092                   0.954605       -0.297791
0.093                   0.953622       -0.300923
0.094                    0.95263       -0.304051
0.095                   0.951627       -0.307176
0.096                   0.950613       -0.310298
0.097                    0.94959       -0.313416
0.098                   0.948556       -0.316531
0.099                   0.947513       -0.319642
0.1                     0.946459        -0.32275
0.101                   0.945395       -0.325854
0.102                    0.94432       -0.328954
0.103                   0.943236       -0.332051
0.104                   0.942141       -0.335143
0.105                   0.941037       -0.338233
0.106                   0.939922       -0.341318
0.107                   0.938797         -0.3444
0.108                   0.937662       -0.347477
0.109                   0.936518       -0.350551
0.11                    0.935363       -0.353621
0.111                   0.934198       -0.356687
0.112                   0.933023        -0.35975
0.113                   0.931838       -0.362808
0.114                   0.930643       -0.365862
0.115                   0.929438       -0.368912
0.116                   0.928224       -0.371957
0.117                   0.926999       -0.374999
0.118                   0.925764       -0.378037
0.119                    0.92452        -0.38107
0.12                    0.923265       -0.384099
0.121                   0.922001       -0.387124
0.122                   0.920727       -0.390144
0.123                   0.919443        -0.39316
0.124                   0.918149       -0.396172
0.125                   0.916846        -0.39918
0.126                   0.915533       -0.402182
0.127                   0.914209       -0.405181
0.128                   0.912877       -0.408175
0.129                   0.911534       -0.411164
0.13                    0.910182       -0.414149
0.131                    0.90882       -0.417129
0.132                   0.907448       -0.420105
0.133                   0.906066       -0.423076
0.134                   0.904675       -0.426042
0.135                   0.903275       -0.429004
0.136                   0.901865        -0.43196
0.137                   0.900445       -0.434912
0.138                   0.899015       -0.437859
0.139                   0.897576       -0.440801
0.14                    0.896128       -0.443738
0.141                   0.894669       -0.446671
0.142                   0.893202       -0.449598
0.143                   0.891725       -0.452521
0.144                   0.890238       -0.455438
0.145                   0.888742       -0.458351
0.146                   0.887236       -0.461258
0.147                   0.885721        -0.46416
0.148                   0.884197       -0.467057
0.149                   0.882663       -0.469949
0.15                     0.88112       -0.472836
0.151                   0.879568       -0.475717
0.152                   0.878006       -0.478593
0.153                   0.876435       -0.481464
0.154                   0.874854        -0.48433
0.155                   0.873265        -0.48719
0.156                   0.871666       -0.490044
0.157                   0.870058       -0.492894
0.158                   0.868441       -0.495737
0.159                   0.866814       -0.498576
0.16                    0.865178       -0.501409
0.161                   0.863533       -0.504236
0.162                   0.861879       -0.507057
0.163                   0.860216       -0.509874
0.164                   0.858544       -0.512684
0.165                   0.856863       -0.515489
0.166                   0.855172       -0.518288
0.167                   0.853473       -0.521082
0.168                   0.851764       -0.523869
0.169                   0.850047       -0.526651
0.17                     0.84832       -0.529427
0.171                   0.846585       -0.532197
0.172                   0.844841       -0.534962
0.173                   0.843088        -0.53772
0.174                   0.841326       -0.540472
0.175                   0.839555       -0.543219
0.176                   0.837775       -0.545959
0.177                   0.835987       -0.548694
0.178                   0.834189       -0.551422
0.179                   0.832383       -0.554145
0.18                    0.830568       -0.556861
0.181                   0.828744       -0.559571
0.182                   0.826912       -0.562275
0.183                   0.825071       -0.564973
0.184                   0.823221       -0.567664
0.185                   0.821363        -0.57035
0.186                   0.819496       -0.573029
0.187                    0.81762       -0.575701
0.188                   0.815736       -0.578368
0.189                   0.813843       -0.581028
0.19                    0.811942       -0.583681
0.191                   0.810032       -0.586329
0.192                   0.808114       -0.588969
0.193                   0.806187       -0.591604
0.194                   0.804252       -0.594231
0.195                   0.802309       -0.596853
0.196                   0.800357       -0.599467
0.197                   0.798396       -0.602076
0.198                   0.796428       -0.604677
0.199                    0.79445       -0.607272
0.2                     0.792465        -0.60986
0.201                   0.790471       -0.612442
0.202                    0.78847       -0.615016
0.203                   0.786459       -0.617584
0.204                   0.784441       -0.620146
0.205                   0.782415         -0.6227
0.206                    0.78038       -0.625248
0.207                   0.778337       -0.627789
0.208                   0.776286       -0.630323
0.209                   0.774227        -0.63285
0.21                     0.77216        -0.63537
0.211                   0.770085       -0.637883
0.212                   0.768002       -0.640389
0.213                   0.765911       -0.642888
0.214                   0.763812        -0.64538
0.215                   0.761705       -0.647866
0.216                    0.75959       -0.650343
0.217                   0.757467       -0.652814
0.218                   0.755337       -0.655278
0.219                   0.753198       -0.657735
0.22                    0.751052       -0.660184
0.221                   0.748898       -0.662626
0.222                   0.746736       -0.665061
0.223                   0.744567       -0.667489
0.224                   0.742389        -0.66991
0.225                   0.740204       -0.672323
0.226                   0.738012       -0.674728
0.227                   0.735811       -0.677127
0.228                   0.733604       -0.679518
0.229                   0.731388       -0.681902
0.23                    0.729165       -0.684278
0.231                   0.726935       -0.686646
0.232                   0.724697       -0.689008
0.233                   0.722451       -0.691361
0.234                   0.720198       -0.693708
0.235                   0.717938       -0.696047
0.236                    0.71567       -0.698378
0.237                   0.713395       -0.700701
0.238                   0.711113       -0.703017
0.239                   0.708823       -0.705325
0.24                    0.706526       -0.707626
0.241                   0.704222       -0.709919
0.242                    0.70191       -0.712204
0.243                   0.699591       -0.714482
0.244                   0.697265       -0.716752
0.245                   0.694932       -0.719013
0.246                   0.692592       -0.721268
0.247                   0.690245       -0.723514
0.248                   0.687891       -0.725752
0.249                   0.685529       -0.727983
0.25                     0.68316       -0.730206
0.251                   0.680785       -0.732421
0.252                   0.678403       -0.734628
0.253                   0.676013       -0.736826
0.254                   0.673617       -0.739017
0.255                   0.671214         -0.7412
0.256                   0.668804       -0.743375
0.257                   0.666387       -0.745542
0.258                   0.663964       -0.747701
0.259                   0.661533       -0.749852
0.26                    0.659097       -0.751995
0.261                   0.656653       -0.754129
0.262                   0.654202       -0.756255
0.263                   0.651745       -0.758374
0.264                   0.649281       -0.760484
0.265                   0.646811       -0.762586
0.266                   0.644334       -0.764679
0.267                   0.641851       -0.766765
0.268                   0.639361       -0.768842
0.269                   0.636865       -0.770911
0.27                    0.634362       -0.772971
0.271                   0.631852       -0.775023
0.272                   0.629337       -0.777067
0.273                   0.626815       -0.779102
0.274                   0.624287        -0.78113
0.275                   0.621752       -0.783148
0.276                   0.619211       -0.785159
0.277                   0.616664        -0.78716
0.278                    0.61411       -0.789154
0.279                   0.611551       -0.791139
0.28                    0.608985       -0.793115
0.281                   0.606413       -0.795083
0.282                   0.603835       -0.797042
0.283                   0.601251       -0.798993
0.284                   0.598661       -0.800935
0.285                   0.596065       -0.802868
0.286                   0.593463       -0.804793
0.287                   0.590855        -0.80671
0.288                   0.588241       -0.808618
0.289                   0.585621       -0.810517
0.29                    0.582995       -0.812407
0.291                   0.580364       -0.814289
0.292                   0.577727       -0.816161
0.293                   0.575084       -0.818026
0.294                   0.572435       -0.819881
0.295                    0.56978       -0.821728
0.296                    0.56712       -0.823566
0.297                   0.564454       -0.825395
0.298                   0.561783       -0.827215
0.299                   0.559105       -0.829026
0.3                     0.556423       -0.830829
0.301                   0.553735       -0.832623
0.302                   0.551041       -0.834408
0.303                   0.548342       -0.836184
0.304                   0.545637        -0.83795
0.305                   0.542927       -0.839709
0.306                   0.540212       -0.841458
0.307                   0.537491       -0.843198
0.308                   0.534765       -0.844929
0.309                   0.532034       -0.846651
0.31                    0.529297       -0.848364
0.311                   0.526555       -0.850068
0.312                   0.523809       -0.851764
0.313                   0.521057        -0.85345
0.314                   0.518299       -0.855127
0.315                   0.515537       -0.856794
0.316                    0.51277       -0.858453
0.317                   0.509997       -0.860103
0.318                    0.50722       -0.861743
0.319                   0.504437       -0.863375
0.32                     0.50165       -0.864997
0.321                   0.498858        -0.86661
0.322                    0.49606       -0.868214
0.323                   0.493258       -0.869808
0.324                   0.490451       -0.871394
0.325                    0.48764        -0.87297
0.326                   0.484823       -0.874537
0.327                   0.482002       -0.876095
0.328                   0.479176       -0.877643
0.329                   0.476346       -0.879182
0.33                    0.473511       -0.880712
0.331                   0.470671       -0.882232
0.332                   0.467827       -0.883744
0.333                   0.464978       -0.885245
0.334                   0.462125       -0.886738
0.335                   0.459267       -0.888221
0.336                   0.456405       -0.889695
0.337                   0.453539       -0.891159
0.338                   0.450667       -0.892614
0.339                   0.447792        -0.89406
0.34                    0.444912       -0.895496
0.341                   0.442029       -0.896923
0.342                   0.439141        -0.89834
0.343                   0.436248       -0.899748
0.344                   0.433351       -0.901146
0.345                   0.430451       -0.902535
0.346                   0.427546       -0.903914
0.347                   0.424637       -0.905284
0.348                   0.421724       -0.906644
0.349                   0.418807       -0.907995
0.35                    0.415886       -0.909336
0.351                   0.412961       -0.910668
0.352                   0.410032        -0.91199
0.353                   0.407099       -0.913303
0.354                   0.404163       -0.914606
0.355                   0.401222       -0.915899
0.356                   0.398278       -0.917183
0.357                    0.39533       -0.918457
0.358                   0.392379       -0.919722
0.359                   0.389423       -0.920976
0.36                    0.386464       -0.922222
0.361                   0.383501       -0.923457
0.362                   0.380535       -0.924683
0.363                   0.377565         -0.9259
0.364                   0.374591       -0.927106
0.365                   0.371614       -0.928303
0.366                   0.368634        -0.92949
0.367                    0.36565       -0.930668
0.368                   0.362663       -0.931836
0.369                   0.359672       -0.932994
0.37                    0.356678       -0.934142
0.371                   0.353681       -0.935281
0.372                    0.35068       -0.936409
0.373                   0.347676       -0.937529
0.374                   0.344669       -0.938638
0.375                   0.341659       -0.939737
0.376                   0.338645       -0.940827
0.377                   0.335629       -0.941907
0.378                   0.332609       -0.942977
0.379                   0.329586       -0.944038
0.38                    0.326561       -0.945088
0.381                   0.323532       -0.946129
0.382                     0.3205        -0.94716
0.383                   0.317466       -0.948181
0.384                   0.314428       -0.949192
0.385                   0.311388       -0.950194
0.386                   0.308345       -0.951185
0.387                   0.305299       -0.952167
0.388                    0.30225       -0.953138
0.389                   0.299199         -0.9541
0.39                    0.296145       -0.955052
0.391                   0.293088       -0.955994
0.392                   0.290029       -0.956927
0.393                   0.286967       -0.957849
0.394                   0.283902       -0.958761
0.395                   0.280835       -0.959664
0.396                   0.277766       -0.960556
0.397                   0.274693       -0.961439
0.398                   0.271619       -0.962312
0.399                   0.268542       -0.963175
0.4                     0.265463       -0.964027
0.401                   0.262381        -0.96487
0.402                   0.259297       -0.965703
0.403                   0.256211       -0.966526
0.404                   0.253123       -0.967339
0.405                   0.250032       -0.968142
0.406                    0.24694       -0.968935
0.407                   0.243845       -0.969719
0.408                   0.240748       -0.970492
0.409                   0.237649       -0.971255
0.41                    0.234547       -0.972008
0.411                   0.231444       -0.972751
0.412                   0.228339       -0.973484
0.413                   0.225232       -0.974207
0.414                   0.222123       -0.974921
0.415                   0.219013       -0.975624
0.416                     0.2159       -0.976317
0.417                   0.212785          -0.977
0.418                   0.209669       -0.977673
0.419                   0.206551       -0.978336
0.42                    0.203432       -0.978989
0.421                    0.20031       -0.979632
0.422                   0.197187       -0.980265
0.423                   0.194062       -0.980888
0.424                   0.190936       -0.981501
0.425                   0.187808       -0.982104
0.426                   0.184679       -0.982697
0.427                   0.181548        -0.98328
0.428                   0.178416       -0.983852
0.429                   0.175282       -0.984415
0.43                    0.172147       -0.984968
0.431                   0.169011        -0.98551
0.432                   0.165873       -0.986043
0.433                   0.162734       -0.986565
0.434                   0.159594       -0.987078
0.435                   0.156453        -0.98758
0.436                    0.15331       -0.988072
0.437                   0.150166       -0.988555
0.438                   0.147021       -0.989027
0.439                   0.143875       -0.989489
0.44                    0.140728       -0.989941
0.441                    0.13758       -0.990383
0.442                   0.134431       -0.990815
0.443                   0.131281       -0.991237
0.444                    0.12813       -0.991649
0.445                   0.124978        -0.99205
0.446                   0.121825       -0.992442
0.447                   0.118671       -0.992824
0.448                   0.115517       -0.993195
0.449                   0.112362       -0.993557
0.45                    0.109206       -0.993908
0.451                   0.106049       -0.994249
0.452                   0.102892       -0.994581
0.453                  0.0997342       -0.994902
0.454                  0.0965755       -0.995213
0.455                  0.0934166       -0.995514
0.456                  0.0902569       -0.995805
0.457                  0.0870967       -0.996086
0.458                   0.083936       -0.996357
0.459                  0.0807749       -0.996618
0.46                   0.0776134       -0.996868
0.461                  0.0744515       -0.997109
0.462                  0.0712894        -0.99734
0.463                  0.0681267        -0.99756
0.464                  0.0649639       -0.997771
0.465                  0.0618007       -0.997971
0.466                  0.0586375       -0.998162
0.467                  0.0554742       -0.998342
0.468                  0.0523102       -0.998512
0.469                  0.0491466       -0.998672
0.47                   0.0459827       -0.998823
0.471                  0.0428188       -0.998963
0.472                  0.0396548       -0.999093
0.473                  0.0364909       -0.999213
0.474                   0.033327       -0.999323
0.475                  0.0301632       -0.999423
0.476                  0.0269993       -0.999513
0.477                  0.0238356       -0.999593
0.478                   0.020672       -0.999663
0.479                  0.0175089       -0.999723
0.48                   0.0143458       -0.999773
0.481                  0.0111831       -0.999813
0.482                 0.00802061       -0.999843
0.483                 0.00485842       -0.999863
0.484                  0.0016966       -0.999872
0.485                -0.00146506       -0.999872
0.486                -0.00462604       -0.999862
0.487                -0.00778679       -0.999842
0.488                 -0.0109468       -0.999812
0.489                 -0.0141063       -0.999772
0.49                  -0.0172652       -0.999722
0.491                  -0.020424       -0.999662
0.492                 -0.0235817       -0.999592
0.493                  -0.026739       -0.999512
0.494                 -0.0298957       -0.999422
0.495                 -0.0330513       -0.999322
0.496                 -0.0362067       -0.999212
0.497                  -0.039361       -0.999092
0.498                 -0.0425146       -0.998963
0.499                 -0.0456675       -0.998823
0.5                   -0.0488196       -0.998673
0.501                 -0.0519703       -0.998514
0.502                 -0.0551205       -0.998344
0.503                 -0.0582698       -0.998165
0.504                  -0.061418       -0.997976
0.505                 -0.0645653       -0.997777
0.506                 -0.0677115       -0.997567
0.507                 -0.0708565       -0.997348
0.508                 -0.0740005        -0.99712
0.509                 -0.0771433       -0.996881
0.51                  -0.0802849       -0.996632
0.511                 -0.0834256       -0.996374
0.512                 -0.0865647       -0.996105
0.513                 -0.0897029       -0.995827
0.514                 -0.0928395       -0.995539
0.515                 -0.0959752       -0.995241
0.516                  -0.099109       -0.994933
0.517                  -0.102242       -0.994616
0.518                  -0.105373       -0.994288
0.519                  -0.108503       -0.993951
0.52                   -0.111631       -0.993604
0.521                  -0.114758       -0.993247
0.522                  -0.117884       -0.992881
0.523                  -0.121007       -0.992504
0.524                   -0.12413       -0.992118
0.525                   -0.12725       -0.991722
0.526                  -0.130369       -0.991316
0.527                  -0.133487       -0.990901
0.528                  -0.136602       -0.990476
0.529                  -0.139716       -0.990041
0.53                   -0.142828       -0.989596
0.531                  -0.145938       -0.989141
0.532                  -0.149046       -0.988677
0.533                  -0.152153       -0.988203
0.534                  -0.155257        -0.98772
0.535                   -0.15836       -0.987226
0.536                  -0.161461       -0.986723
0.537                   -0.16456       -0.986211
0.538                  -0.167657       -0.985688
0.539                  -0.170751       -0.985157
0.54                   -0.173844       -0.984615
0.541                  -0.176935       -0.984064
0.542                  -0.180023       -0.983503
0.543                  -0.183109       -0.982932
0.544                  -0.186193       -0.982352
0.545                  -0.189275       -0.981762
0.546                  -0.192355       -0.981163
0.547                  -0.195432       -0.980554
0.548                  -0.198507       -0.979936
0.549                   -0.20158       -0.979307
0.55                   -0.204651        -0.97867
0.551                  -0.207718       -0.978023
0.552                  -0.210784       -0.977366
0.553                  -0.213847         -0.9767
0.554                  -0.216908       -0.976024
0.555                  -0.219966       -0.975339
0.556                  -0.223021       -0.974644
0.557                  -0.226074        -0.97394
0.558                  -0.229125       -0.973226
0.559                  -0.232173       -0.972503
0.56                   -0.235218        -0.97177
0.561                   -0.23826       -0.971028
0.562                    -0.2413       -0.970276
0.563                  -0.244337       -0.969515
0.564                  -0.247371       -0.968745
0.565                  -0.250403       -0.967965
0.566                  -0.253431       -0.967176
0.567                  -0.256456       -0.966378
0.568                   -0.25948        -0.96557
0.569                  -0.262499       -0.964752
0.57                   -0.265517       -0.963926
0.571                  -0.268531        -0.96309
0.572                  -0.271542       -0.962244
0.573                   -0.27455        -0.96139
0.574                  -0.277555       -0.960526
0.575                  -0.280557       -0.959653
0.576                  -0.283556        -0.95877
0.577                  -0.286551       -0.957878
0.578                  -0.289544       -0.956978
0.579                  -0.292533       -0.956067
0.58                   -0.295519       -0.955148
0.581                  -0.298502       -0.954219
0.582                  -0.301482       -0.953281
0.583                  -0.304458       -0.952334
0.584                  -0.307431       -0.951378
0.585                  -0.310401       -0.950413
0.586                  -0.313367       -0.949438
0.587                   -0.31633       -0.948454
0.588                  -0.319289       -0.947461
0.589                  -0.322245       -0.946459
0.59                   -0.325198       -0.945448
0.591                  -0.328146       -0.944428
0.592                  -0.331092       -0.943399
0.593                  -0.334033       -0.942361
0.594                  -0.336971       -0.941313
0.595                  -0.339906       -0.940257
0.596                  -0.342837       -0.939191
0.597                  -0.345764       -0.938117
0.598                  -0.348688       -0.937034
0.599                  -0.351607       -0.935941
0.6                    -0.354523        -0.93484
0.601                  -0.357436       -0.933729
0.602                  -0.360344        -0.93261
0.603                  -0.363249       -0.931482
0.604                  -0.366149       -0.930345
0.605                  -0.369046       -0.929199
0.606                  -0.371939       -0.928044
0.607                  -0.374828        -0.92688
0.608                  -0.377713       -0.925707
0.609                  -0.380594       -0.924526
0.61                   -0.383471       -0.923336
0.611                  -0.386344       -0.922136
0.612                  -0.389212       -0.920929
0.613                  -0.392077       -0.919712
0.614                  -0.394938       -0.918486
0.615                  -0.397794       -0.917252
0.616                  -0.400646       -0.916009
0.617                  -0.403494       -0.914758
0.618                  -0.406338       -0.913497
0.619                  -0.409177       -0.912228
0.62                   -0.412013        -0.91095
0.621                  -0.414843       -0.909664
0.622                   -0.41767       -0.908368
0.623                  -0.420492       -0.907065
0.624                   -0.42331       -0.905752
0.625                  -0.426124       -0.904431
0.626                  -0.428933       -0.903102
0.627                  -0.431737       -0.901763
0.628                  -0.434537       -0.900417
0.629                  -0.437332       -0.899061
0.63                   -0.440123       -0.897698
0.631                   -0.44291       -0.896325
0.632                  -0.445692       -0.894944
0.633                  -0.448469       -0.893555
0.634                  -0.451241       -0.892158
0.635                   -0.45401       -0.890751
0.636                  -0.456772       -0.889337
0.637                  -0.459531       -0.887913
0.638                  -0.462285       -0.886482
0.639                  -0.465034       -0.885042
0.64                   -0.467778       -0.883594
0.641                  -0.470518       -0.882137
0.642                  -0.473252       -0.880672
0.643                  -0.475982       -0.879199
0.644                  -0.478706       -0.877718
0.645                  -0.481427       -0.876228
0.646                  -0.484141        -0.87473
0.647                  -0.486852       -0.873224
0.648                  -0.489556       -0.871709
0.649                  -0.492257       -0.870187
0.65                   -0.494952       -0.868656
0.651                  -0.497642       -0.867116
0.652                  -0.500327       -0.865569
0.653                  -0.503006       -0.864014
0.654                  -0.505681        -0.86245
0.655                  -0.508351       -0.860878
0.656                  -0.511015       -0.859299
0.657                  -0.513674       -0.857711
0.658                  -0.516328       -0.856115
0.659                  -0.518977       -0.854511
0.66                    -0.52162       -0.852899
0.661                  -0.524259       -0.851279
0.662                  -0.526891       -0.849651
0.663                  -0.529519       -0.848015
0.664                  -0.532141       -0.846371
0.665                  -0.534758       -0.844719
0.666                  -0.537369       -0.843059
0.667                  -0.539975       -0.841392
0.668                  -0.542576       -0.839716
0.669                  -0.545171       -0.838032
0.67                    -0.54776       -0.836341
0.671                  -0.550344       -0.834642
0.672                  -0.552923       -0.832935
0.673                  -0.555496        -0.83122
0.674                  -0.558063       -0.829498
0.675                  -0.560625       -0.827768
0.676                  -0.563181        -0.82603
0.677                  -0.565732       -0.824284
0.678                  -0.568276       -0.822531
0.679                  -0.570816        -0.82077
0.68                   -0.573349       -0.819001
0.681                  -0.575877       -0.817225
0.682                  -0.578399       -0.815441
0.683                  -0.580915       -0.813649
0.684                  -0.583425        -0.81185
0.685                   -0.58593       -0.810043
0.686                  -0.588428       -0.808229
0.687                  -0.590921       -0.806407
0.688                  -0.593408       -0.804578
0.689                  -0.595889       -0.802741
0.69                   -0.598365       -0.800897
0.691                  -0.600833       -0.799045
0.692                  -0.603297       -0.797186
0.693                  -0.605754       -0.795319
0.694                  -0.608205       -0.793445
0.695                   -0.61065       -0.791564
0.696                  -0.613089       -0.789675
0.697                  -0.615522       -0.787779
0.698                  -0.617949       -0.785876
0.699                   -0.62037       -0.783965
0.7                    -0.622784       -0.782048
0.701                  -0.625193       -0.780122
0.702                  -0.627595        -0.77819
0.703                  -0.629991        -0.77625
0.704                  -0.632381       -0.774304
0.705                  -0.634765        -0.77235
0.706                  -0.637142       -0.770388
0.707                  -0.639513        -0.76842
0.708                  -0.641878       -0.766445
0.709                  -0.644236       -0.764463
0.71                   -0.646589       -0.762473
0.711                  -0.648934       -0.760476
0.712                  -0.651274       -0.758473
0.713                  -0.653607       -0.756462
0.714                  -0.655933       -0.754445
0.715                  -0.658253        -0.75242
0.716                  -0.660567       -0.750388
0.717                  -0.662874        -0.74835
0.718                  -0.665175       -0.746304
0.719                  -0.667469       -0.744252
0.72                   -0.669757       -0.742193
0.721                  -0.672037       -0.740127
0.722                  -0.674312       -0.738055
0.723                   -0.67658       -0.735975
0.724                  -0.678841       -0.733889
0.725                  -0.681096       -0.731795
0.726                  -0.683344       -0.729696
0.727                  -0.685585       -0.727589
0.728                   -0.68782       -0.725476
0.729                  -0.690047       -0.723356
0.73                   -0.692269       -0.721229
0.731                  -0.694483       -0.719096
0.732                  -0.696691       -0.716956
0.733                  -0.698891        -0.71481
0.734                  -0.701086       -0.712656
0.735                  -0.703273       -0.710497
0.736                  -0.705453       -0.708331
0.737                  -0.707626       -0.706158
0.738                  -0.709793       -0.703979
0.739                  -0.711953       -0.701794
0.74                   -0.714106       -0.699602
0.741                  -0.716252       -0.697403
0.742                  -0.718391       -0.695198
0.743                  -0.720523       -0.692987
0.744                  -0.722647        -0.69077
0.745                  -0.724766       -0.688546
0.746                  -0.726876       -0.686316
0.747                   -0.72898       -0.684079
0.748                  -0.731077       -0.681837
0.749                  -0.733167       -0.679588
0.75                    -0.73525       -0.677332
0.751                  -0.737325       -0.675071
0.752                  -0.739394       -0.672803
0.753                  -0.741455        -0.67053
0.754                  -0.743509        -0.66825
0.755                  -0.745556       -0.665964
0.756                  -0.747596       -0.663672
0.757                  -0.749629       -0.661374
0.758                  -0.751654        -0.65907
0.759                  -0.753672       -0.656759
0.76                   -0.755683       -0.654443
0.761                  -0.757687       -0.652121
0.762                  -0.759683       -0.649793
0.763                  -0.761672       -0.647459
0.764                  -0.763654       -0.645119
0.765                  -0.765628       -0.642773
0.766                  -0.767595       -0.640422
0.767                  -0.769555       -0.638064
0.768                  -0.771507       -0.635701
0.769                  -0.773452       -0.633332
0.77                   -0.775389       -0.630957
0.771                  -0.777319       -0.628576
0.772                  -0.779242        -0.62619
0.773                  -0.781157       -0.623798
0.774                  -0.783064         -0.6214
0.775                  -0.784964       -0.618997
0.776                  -0.786857       -0.616588
0.777                  -0.788742       -0.614173
0.778                  -0.790619       -0.611753
0.779                  -0.792489       -0.609327
0.78                   -0.794351       -0.606896
0.781                  -0.796206       -0.604459
0.782                  -0.798053       -0.602017
0.783                  -0.799892       -0.599569
0.784                  -0.801724       -0.597115
0.785                  -0.803548       -0.594657
0.786                  -0.805365       -0.592193
0.787                  -0.807174       -0.589723
0.788                  -0.808975       -0.587248
0.789                  -0.810768       -0.584768
0.79                   -0.812554       -0.582283
0.791                  -0.814332       -0.579792
0.792                  -0.816102       -0.577296
0.793                  -0.817864       -0.574795
0.794                  -0.819619       -0.572289
0.795                  -0.821366       -0.569777
0.796                  -0.823105        -0.56726
0.797                  -0.824836       -0.564739
0.798                  -0.826559       -0.562212
0.799                  -0.828275        -0.55968
0.8                    -0.829982       -0.557143
0.801                  -0.831682         -0.5546
0.802                  -0.833374       -0.552053
0.803                  -0.835058       -0.549501
0.804                  -0.836734       -0.546944
0.805                  -0.838402       -0.544382
0.806                  -0.840062       -0.541814
0.807                  -0.841714       -0.539242
0.808                  -0.843358       -0.536666
0.809                  -0.844994       -0.534084
0.81                   -0.846623       -0.531497
0.811                  -0.848243       -0.528906
0.812                  -0.849855        -0.52631
0.813                  -0.851459       -0.523709
0.814                  -0.853055       -0.521104
0.815                  -0.854643       -0.518493
0.816                  -0.856223       -0.515878
0.817                  -0.857794       -0.513259
0.818                  -0.859358       -0.510634
0.819                  -0.860913       -0.508006
0.82                   -0.862461       -0.505372
0.821                     -0.864       -0.502734
0.822                  -0.865531       -0.500092
0.823                  -0.867054       -0.497445
0.824                  -0.868569       -0.494793
0.825                  -0.870076       -0.492137
0.826                  -0.871574       -0.489477
0.827                  -0.873064       -0.486812
0.828                  -0.874546       -0.484143
0.829                  -0.876019       -0.481469
0.83                   -0.877485       -0.478791
0.831                  -0.878942       -0.476109
0.832                  -0.880391       -0.473422
0.833                  -0.881831       -0.470732
0.834                  -0.883263       -0.468037
0.835                  -0.884687       -0.465338
0.836                  -0.886103       -0.462634
0.837                   -0.88751       -0.459927
0.838                  -0.888909       -0.457215
0.839                    -0.8903       -0.454499
0.84                   -0.891682       -0.451779
0.841                  -0.893056       -0.449055
0.842                  -0.894421       -0.446327
0.843                  -0.895778       -0.443595
0.844                  -0.897127       -0.440859
0.845                  -0.898467       -0.438119
0.846                  -0.899799       -0.435376
0.847                  -0.901122       -0.432628
0.848                  -0.902437       -0.429876
0.849                  -0.903743        -0.42712
0.85                   -0.905041       -0.424361
0.851                  -0.906331       -0.421598
0.852                  -0.907611       -0.418831
0.853                  -0.908884        -0.41606
0.854                  -0.910148       -0.413285
0.855                  -0.911403       -0.410508
0.856                   -0.91265       -0.407726
0.857                  -0.913888        -0.40494
0.858                  -0.915118       -0.402151
0.859                  -0.916339       -0.399358
0.86                   -0.917552       -0.396562
0.861                  -0.918756       -0.393762
0.862                  -0.919951       -0.390959
0.863                  -0.921138       -0.388151
0.864                  -0.922316       -0.385341
0.865                  -0.923485       -0.382527
0.866                  -0.924646        -0.37971
0.867                  -0.925798       -0.376889
0.868                  -0.926942       -0.374065
0.869                  -0.928077       -0.371237
0.87                   -0.929203       -0.368407
0.871                  -0.930321       -0.365573
0.872                   -0.93143       -0.362735
0.873                   -0.93253       -0.359895
0.874                  -0.933621       -0.357051
0.875                  -0.934704       -0.354204
0.876                  -0.935778       -0.351354
0.877                  -0.936844         -0.3485
0.878                    -0.9379       -0.345644
0.879                  -0.938948       -0.342784
0.88                   -0.939987       -0.339922
0.881                  -0.941017       -0.337056
0.882                  -0.942039       -0.334187
0.883                  -0.943052       -0.331315
0.884                  -0.944056       -0.328441
0.885                  -0.945051       -0.325563
0.886                  -0.946037       -0.322683
0.887                  -0.947015       -0.319799
0.888                  -0.947983       -0.316913
0.889                  -0.948943       -0.314024
0.89                   -0.949894       -0.311132
0.891                  -0.950837       -0.308237
0.892                   -0.95177        -0.30534
0.893                  -0.952695        -0.30244
0.894                   -0.95361       -0.299537
0.895                  -0.954517       -0.296631
0.896                  -0.955415       -0.293723
0.897                  -0.956304       -0.290812
0.898                  -0.957184       -0.287898
0.899                  -0.958055       -0.284982
0.9                    -0.958917       -0.282064
0.901                  -0.959771       -0.279143
0.902                  -0.960615       -0.276219
0.903                  -0.961451       -0.273293
0.904                  -0.962277       -0.270365
0.905                  -0.963095       -0.267434
0.906                  -0.963904         -0.2645
0.907                  -0.964703       -0.261565
0.908                  -0.965494       -0.258626
0.909                  -0.966276       -0.255686
0.91                   -0.967049       -0.252744
0.911                  -0.967813       -0.249799
0.912                  -0.968567       -0.246852
0.913                  -0.969313       -0.243902
0.914                   -0.97005       -0.240951
0.915                  -0.970778       -0.237997
0.916                  -0.971497       -0.235041
0.917                  -0.972207       -0.232083
0.918                  -0.972908       -0.229123
0.919                  -0.973599       -0.226161
0.92                   -0.974282       -0.223197
0.921                  -0.974956       -0.220231
0.922                  -0.975621       -0.217263
0.923                  -0.976276       -0.214293
0.924                  -0.976923       -0.211321
0.925                   -0.97756       -0.208347
0.926                  -0.978189       -0.205371
0.927                  -0.978808       -0.202394
0.928                  -0.979418       -0.199415
0.929                   -0.98002       -0.196434
0.93                   -0.980612       -0.193451
0.931                  -0.981195       -0.190466
0.932                  -0.981769        -0.18748
0.933                  -0.982334       -0.184492
0.934                  -0.982889       -0.181502
0.935                  -0.983436       -0.178511
0.936                  -0.983974       -0.175518
0.937                  -0.984502       -0.172524
0.938                  -0.985021       -0.169528
0.939                  -0.985532        -0.16653
0.94                   -0.986033       -0.163531
0.941                  -0.986525       -0.160531
0.942                  -0.987007       -0.157529
0.943                  -0.987481       -0.154526
0.944                  -0.987945       -0.151521
0.945                  -0.988401       -0.148515
0.946                  -0.988847       -0.145507
0.947                  -0.989284       -0.142498
0.948                  -0.989712       -0.139488
0.949                  -0.990131       -0.136478
0.95                    -0.99054       -0.133465
0.951                  -0.990941       -0.130451
0.952                  -0.991332       -0.127436
0.953                  -0.991714        -0.12442
0.954                  -0.992087       -0.121403
0.955                   -0.99245       -0.118385
0.956                  -0.992805       -0.115366
0.957                   -0.99315       -0.112345
0.958                  -0.993486       -0.109324
0.959                  -0.993813       -0.106302
0.96                   -0.994131       -0.103279
0.961                  -0.994439       -0.100254
0.962                  -0.994739      -0.0972293
0.963                  -0.995029      -0.0942033
0.964                   -0.99531      -0.0911764
0.965                  -0.995582      -0.0881488
0.966                  -0.995844      -0.0851203
0.967                  -0.996097       -0.082091
0.968                  -0.996341      -0.0790612
0.969                  -0.996576      -0.0760303
0.97                   -0.996802      -0.0729989
0.971                  -0.997018      -0.0699669
0.972                  -0.997226       -0.066934
0.973                  -0.997423      -0.0639008
0.974                  -0.997612      -0.0608671
0.975                  -0.997792      -0.0578323
0.976                  -0.997962      -0.0547975
0.977                  -0.998123       -0.051762
0.978                  -0.998275       -0.048726
0.979                  -0.998417      -0.0456896
0.98                   -0.998551      -0.0426526
0.981                  -0.998675      -0.0396154
0.982                   -0.99879      -0.0365779
0.983                  -0.998895      -0.0335401
0.984                  -0.998992      -0.0305018
0.985                  -0.999079      -0.0274631
0.986                  -0.999157      -0.0244243
0.987                  -0.999225      -0.0213852
0.988                  -0.999285       -0.018346
0.989                  -0.999335      -0.0153066
0.99                   -0.999376      -0.0122669
0.991                  -0.999408     -0.00922724
0.992                   -0.99943     -0.00618754
0.993                  -0.999443     -0.00314756
0.994                  -0.999447    -0.000107557
0.995                  -0.999442      0.00293244
0.996                  -0.999427       0.0059724
0.997                  -0.999404      0.00901208
0.998                  -0.999371       0.0120521
0.999                  -0.999328       0.0150918
1                      -0.999277       0.0181317
1.001                  -0.999216       0.0211711
1.002                  -0.999146       0.0242105
1.003                  -0.999067       0.0272497
1.004                  -0.998978       0.0302887
1.005                  -0.998881       0.0333272
1.006                  -0.998774       0.0363658
1.007                  -0.998657       0.0394041
1.008                  -0.998532       0.0424416
1.009                  -0.998397       0.0454791
1.01                   -0.998253        0.048516
1.011                    -0.9981       0.0515528
1.012                  -0.997938       0.0545888
1.013                  -0.997766       0.0576248
1.014                  -0.997585         0.06066
1.015                  -0.997395       0.0636945
1.016                  -0.997195       0.0667288
1.017                  -0.996987       0.0697626
1.018                  -0.996769       0.0727953
1.019                  -0.996542       0.0758278
1.02                   -0.996305       0.0788596
1.021                   -0.99606       0.0818907
1.022                  -0.995805       0.0849211
1.023                  -0.995541       0.0879507
1.024                  -0.995268       0.0909795
1.025                  -0.994985       0.0940077
1.026                  -0.994694       0.0970347
1.027                  -0.994393        0.100061
1.028                  -0.994083        0.103087
1.029                  -0.993763        0.106111
1.03                   -0.993435        0.109135
1.031                  -0.993097        0.112158
1.032                   -0.99275         0.11518
1.033                  -0.992394        0.118201
1.034                  -0.992029         0.12122
1.035                  -0.991654        0.124239
1.036                  -0.991271        0.127257
1.037                  -0.990878        0.130273
1.038                  -0.990476        0.133289
1.039                  -0.990064        0.136303
1.04                   -0.989644        0.139316
1.041                  -0.989214        0.142328
1.042                  -0.988775        0.145338
1.043                  -0.988327        0.148348
1.044                   -0.98787        0.151356
1.045                  -0.987404        0.154362
1.046                  -0.986928        0.157368
1.047                  -0.986444        0.160372
1.048                   -0.98595        0.163374
1.049                  -0.985447        0.166376
1.05                   -0.984935        0.169375
1.051                  -0.984413        0.172374
1.052                  -0.983883         0.17537
1.053                  -0.983343        0.178365
1.054                  -0.982795        0.181359
1.055                  -0.982237        0.184351
1.056                   -0.98167        0.187341
1.057                  -0.981094         0.19033
1.058                  -0.980508        0.193317
1.059                  -0.979914        0.196303
1.06                   -0.979311        0.199286
1.061                  -0.978698        0.202268
1.062                  -0.978076        0.205248
1.063                  -0.977446        0.208226
1.064                  -0.976806        0.211203
1.065                  -0.976157        0.214178
1.066                  -0.975499         0.21715
1.067                  -0.974832        0.220121
1.068                  -0.974156         0.22309
1.069                  -0.973471        0.226057
1.07                   -0.972776        0.229022
1.071                  -0.972073        0.231985
1.072                   -0.97136        0.234946
1.073                  -0.970639        0.237904
1.074                  -0.969909        0.240861
1.075                  -0.969169        0.243816
1.076                  -0.968421        0.246768
1.077                  -0.967663        0.249718
1.078                  -0.966896        0.252666
1.079                  -0.966121        0.255612
1.08                   -0.965336        0.258556
1.081                  -0.964543        0.261497
1.082                   -0.96374        0.264436
1.083                  -0.962928        0.267373
1.084                  -0.962108        0.270307
1.085                  -0.961278        0.273239
1.086                  -0.960439        0.276169
1.087                  -0.959592        0.279095
1.088                  -0.958736         0.28202
1.089                   -0.95787        0.284942
1.09                   -0.956996        0.287862
1.091                  -0.956112        0.290779
1.092                   -0.95522        0.293693
1.093                  -0.954319        0.296605
1.094                  -0.953409        0.299514
1.095                   -0.95249         0.30242
1.096                  -0.951562        0.305325
1.097                  -0.950625        0.308226
1.098                   -0.94968        0.311124
1.099                  -0.948725         0.31402
1.1                    -0.947762        0.316913
1.101                  -0.946789        0.319803
1.102                  -0.945808         0.32269
1.103                  -0.944818        0.325575
1.104                  -0.943819        0.328456
1.105                  -0.942811        0.331334
1.106                  -0.941795         0.33421
1.107                  -0.940769        0.337083
1.108                  -0.939735        0.339952
1.109                  -0.938692        0.342819
1.11                    -0.93764        0.345683
1.111                   -0.93658        0.348543
1.112                   -0.93551        0.351401
1.113                  -0.934432        0.354255
1.114                  -0.933345        0.357106
1.115                  -0.932249        0.359954
1.116                  -0.931145        0.362799
1.117                  -0.930032        0.365641
1.118                   -0.92891        0.368479
1.119                  -0.927779        0.371314
1.12                    -0.92664        0.374146
1.121                  -0.925492        0.376974
1.122                  -0.924335        0.379799
1.123                  -0.923169        0.382621
1.124                  -0.921995        0.385439
1.125                  -0.920812        0.388254
1.126                  -0.919621        0.391065
1.127                  -0.918421        0.393873
1.128                  -0.917212        0.396677
1.129                  -0.915994        0.399478
1.13                   -0.914768        0.402275
1.131                  -0.913534        0.405069
1.132                   -0.91229        0.407859
1.133                  -0.911038        0.410645
1.134                  -0.909778        0.413428
1.135                  -0.908509        0.416207
1.136                  -0.907231        0.418982
1.137                  -0.905945        0.421754
1.138                   -0.90465        0.424522
1.139                  -0.903347        0.427286
1.14                   -0.902035        0.430046
1.141                  -0.900715        0.432802
1.142                  -0.899386        0.435555
1.143                  -0.898048        0.438303
1.144                  -0.896702        0.441048
1.145                  -0.895348        0.443788
1.146                  -0.893985        0.446525
1.147                  -0.892614        0.449258
1.148                  -0.891234        0.451986
1.149                  -0.889846        0.454711
1.15                    -0.88845        0.457432
1.151                  -0.887045        0.460148
1.152                  -0.885632         0.46286
1.153                   -0.88421        0.465569
1.154                  -0.882779        0.468273
1.155                  -0.881341        0.470972
1.156                  -0.879894        0.473668
1.157                  -0.878439        0.476359
1.158                  -0.876975        0.479046
1.159                  -0.875503        0.481729
1.16                   -0.874023        0.484408
1.161                  -0.872535        0.487082
1.162                  -0.871038        0.489751
1.163                  -0.869533        0.492416
1.164                  -0.868019        0.495077
1.165                  -0.866498        0.497734
1.166                  -0.864968        0.500385
1.167                   -0.86343        0.503033
1.168                  -0.861883        0.505676
1.169                  -0.860329        0.508314
1.17                   -0.858766        0.510948
1.171                  -0.857195        0.513577
1.172                  -0.855616        0.516201
1.173                  -0.854029        0.518821
1.174                  -0.852433        0.521436
1.175                   -0.85083        0.524047
1.176                  -0.849218        0.526653
1.177                  -0.847599        0.529253
1.178                  -0.845971         0.53185
1.179                  -0.844335        0.534441
1.18                   -0.842691        0.537028
1.181                  -0.841039        0.539609
1.182                  -0.839379        0.542186
1.183                  -0.837711        0.544758
1.184                  -0.836035        0.547325
1.185                  -0.834351        0.549887
1.186                  -0.832658        0.552444
1.187                  -0.830958        0.554996
1.188                   -0.82925        0.557543
1.189                  -0.827534        0.560085
1.19                   -0.825811        0.562622
1.191                  -0.824079        0.565154
1.192                  -0.822339        0.567681
1.193                  -0.820591        0.570202
1.194                  -0.818836        0.572719
1.195                  -0.817072         0.57523
1.196                  -0.815301        0.577736
1.197                  -0.813522        0.580237
1.198                  -0.811735        0.582732
1.199                   -0.80994        0.585222
1.2                    -0.808138        0.587707
1.201                  -0.806328        0.590187
1.202                   -0.80451        0.592661
1.203                  -0.802684         0.59513
1.204                   -0.80085        0.597593
1.205                  -0.799009        0.600051
1.206                   -0.79716        0.602504
1.207                  -0.795303        0.604951
1.208                  -0.793439        0.607392
1.209                  -0.791567        0.609828
1.21                   -0.789687        0.612258
1.211                    -0.7878        0.614683
1.212                  -0.785905        0.617103
1.213                  -0.784002        0.619516
1.214                  -0.782092        0.621924
1.215                  -0.780175        0.624326
1.216                  -0.778249        0.626723
1.217                  -0.776317        0.629114
1.218                  -0.774376        0.631499
1.219                  -0.772429        0.633878
1.22                   -0.770473        0.636252
1.221                  -0.768511         0.63862
1.222                   -0.76654        0.640982
1.223                  -0.764563        0.643338
1.224                  -0.762578        0.645688
1.225                  -0.760585        0.648032
1.226                  -0.758585         0.65037
1.227                  -0.756578        0.652703
1.228                  -0.754563        0.655029
1.229                  -0.752541         0.65735
1.23                   -0.750512        0.659664
1.231                  -0.748475        0.661972
1.232                  -0.746432        0.664275
1.233                   -0.74438        0.666571
1.234                  -0.742322        0.668861
1.235                  -0.740256        0.671145
1.236                  -0.738183        0.673423
1.237                  -0.736103        0.675694
1.238                  -0.734016         0.67796
1.239                  -0.731921        0.680219
1.24                    -0.72982        0.682472
1.241                  -0.727711        0.684719
1.242                  -0.725595        0.686959
1.243                  -0.723471        0.689193
1.244                  -0.721341        0.691421
1.245                  -0.719204        0.693642
1.246                   -0.71706        0.695857
1.247                  -0.714908        0.698065
1.248                   -0.71275        0.700268
1.249                  -0.710585        0.702463
1.25                   -0.708412        0.704652
1.251                  -0.706233        0.706835
1.252                  -0.704047        0.709011
1.253                  -0.701854        0.711181
1.254                  -0.699654        0.713344
1.255                  -0.697447          0.7155
1.256                  -0.695233         0.71765
1.257                  -0.693012        0.719794
1.258                  -0.690785         0.72193
1.259                   -0.68855         0.72406
1.26                   -0.686309        0.726183
1.261                  -0.684061          0.7283
1.262                  -0.681806        0.730409
1.263                  -0.679545        0.732513
1.264                  -0.677277        0.734609
1.265                  -0.675002        0.736698
1.266                   -0.67272        0.738781
1.267                  -0.670432        0.740856
1.268                  -0.668137        0.742925
1.269                  -0.665835        0.744987
1.27                   -0.663527        0.747042
1.271                  -0.661213        0.749091
1.272                  -0.658891        0.751132
1.273                  -0.656564        0.753166
1.274                  -0.654229        0.755193
1.275                  -0.651888        0.757213
1.276                  -0.649541        0.759226
1.277                  -0.647187        0.761233
1.278                  -0.644826        0.763231
1.279                  -0.642459        0.765224
1.28                   -0.640086        0.767208
1.281                  -0.637707        0.769186
1.282                  -0.635321        0.771156
1.283                  -0.632928         0.77312
1.284                   -0.63053        0.775076
1.285                  -0.628125        0.777025
1.286                  -0.625714        0.778966
1.287                  -0.623296          0.7809
1.288                  -0.620873        0.782827
1.289                  -0.618443        0.784747
1.29                   -0.616006         0.78666
1.291                  -0.613564        0.788565
1.292                  -0.611115        0.790463
1.293                  -0.608661        0.792353
1.294                    -0.6062        0.794236
1.295                  -0.603733        0.796111
1.296                   -0.60126        0.797979
1.297                  -0.598781         0.79984
1.298                  -0.596296        0.801693
1.299                  -0.593804        0.803538
1.3                    -0.591307        0.805376
1.301                  -0.588804        0.807207
1.302                  -0.586295         0.80903
1.303                   -0.58378        0.810845
1.304                  -0.581259        0.812652
1.305                  -0.578732        0.814452
1.306                    -0.5762        0.816245
1.307                  -0.573661         0.81803
1.308                  -0.571117        0.819807
1.309                  -0.568567        0.821576
1.31                   -0.566011        0.823338
1.311                  -0.563449        0.825091
1.312                  -0.560882        0.826838
1.313                  -0.558309        0.828576
1.314                  -0.555729        0.830307
1.315                  -0.553145        0.832029
1.316                  -0.550555        0.833744
1.317                  -0.547959        0.835451
1.318                  -0.545358         0.83715
1.319                  -0.542751        0.838841
1.32                   -0.540138        0.840524
1.321                   -0.53752          0.8422
1.322                  -0.534896        0.843867
1.323                  -0.532268        0.845526
1.324                  -0.529633        0.847178
1.325                  -0.526993        0.848821
1.326                  -0.524348        0.850456
1.327                  -0.521697        0.852084
1.328                  -0.519041        0.853703
1.329                   -0.51638        0.855314
1.33                   -0.513713        0.856917
1.331                  -0.511041        0.858512
1.332                  -0.508363        0.860099
1.333                   -0.50568        0.861678
1.334                  -0.502993        0.863248
1.335                    -0.5003         0.86481
1.336                  -0.497601        0.866364
1.337                  -0.494898         0.86791
1.338                  -0.492189        0.869447
1.339                  -0.489476        0.870977
1.34                   -0.486757        0.872498
1.341                  -0.484033         0.87401
1.342                  -0.481304        0.875515
1.343                   -0.47857        0.877011
1.344                  -0.475831        0.878499
1.345                  -0.473088        0.879978
1.346                  -0.470339        0.881449
1.347                  -0.467585        0.882911
1.348                  -0.464827        0.884365
1.349                  -0.462063        0.885811
1.35                   -0.459295        0.887248
1.351                  -0.456522        0.888677
1.352                  -0.453744        0.890097
1.353                  -0.450961        0.891509
1.354                  -0.448174        0.892912
1.355                  -0.445382        0.894307
1.356                  -0.442585        0.895693
1.357                  -0.439783         0.89707
1.358                  -0.436977        0.898439
1.359                  -0.434166          0.8998
1.36                   -0.431351        0.901151
1.361                  -0.428531        0.902495
1.362                  -0.425707        0.903829
1.363                  -0.422878        0.905155
1.364                  -0.420044        0.906472
1.365                  -0.417206         0.90778
1.366                  -0.414364        0.909079
1.367                  -0.411518         0.91037
1.368                  -0.408666        0.911653
1.369                  -0.405811        0.912926
1.37                   -0.402951        0.914191
1.371                  -0.400087        0.915446
1.372                  -0.397218        0.916693
1.373                  -0.394346        0.917931
1.374                  -0.391469        0.919161
1.375                  -0.388587        0.920381
1.376                  -0.385702        0.921593
1.377                  -0.382813        0.922795
1.378                  -0.379919        0.923989
1.379                  -0.377021        0.925174
1.38                    -0.37412         0.92635
1.381                  -0.371213        0.927517
1.382                  -0.368304        0.928675
1.383                   -0.36539        0.929824
1.384                  -0.362472        0.930964
1.385                   -0.35955        0.932095
1.386                  -0.356625        0.933217
1.387                  -0.353695         0.93433
1.388                  -0.350762        0.935434
1.389                  -0.347825        0.936528
1.39                   -0.344883        0.937614
1.391                  -0.341939        0.938691
1.392                   -0.33899        0.939758
1.393                  -0.336038        0.940817
1.394                  -0.333082        0.941866
1.395                  -0.330122        0.942906
1.396                  -0.327159        0.943937
1.397                  -0.324192        0.944959
1.398                  -0.321222        0.945971
1.399                  -0.318247        0.946975
1.4                     -0.31527        0.947969
1.401                  -0.312289        0.948954
1.402                  -0.309305        0.949929
1.403                  -0.306316        0.950896
1.404                  -0.303325        0.951853
1.405                   -0.30033        0.952801
1.406                  -0.297332        0.953739
1.407                  -0.294331        0.954669
1.408                  -0.291326        0.955588
1.409                  -0.288317        0.956499
1.41                   -0.285306          0.9574
1.411                  -0.282292        0.958292
1.412                  -0.279274        0.959175
1.413                  -0.276253        0.960048
1.414                  -0.273229        0.960911
1.415                  -0.270202        0.961766
1.416                  -0.267172        0.962611
1.417                  -0.264138        0.963446
1.418                  -0.261102        0.964272
1.419                  -0.258063        0.965088
1.42                   -0.255021        0.965895
1.421                  -0.251976        0.966693
1.422                  -0.248928        0.967481
1.423                  -0.245876         0.96826
1.424                  -0.242822        0.969029
1.425                  -0.239766        0.969788
1.426                  -0.236706        0.970538
1.427                  -0.233644        0.971279
1.428                  -0.230579        0.972009
1.429                  -0.227511        0.972731
1.43                   -0.224441        0.973442
1.431                  -0.221368        0.974144
1.432                  -0.218293        0.974837
1.433                  -0.215214         0.97552
1.434                  -0.212134        0.976193
1.435                   -0.20905        0.976857
1.436                  -0.205964        0.977511
1.437                  -0.202877        0.978155
1.438                  -0.199786        0.978789
1.439                  -0.196693        0.979414
1.44                   -0.193598         0.98003
1.441                    -0.1905        0.980635
1.442                    -0.1874        0.981231
1.443                  -0.184297        0.981817
1.444                  -0.181193        0.982393
1.445                  -0.178086         0.98296
1.446                  -0.174977        0.983517
1.447                  -0.171865        0.984064
1.448                  -0.168752        0.984601
1.449                  -0.165637        0.985129
1.45                   -0.162519        0.985647
1.451                  -0.159399        0.986155
1.452                  -0.156278        0.986653
1.453                  -0.153154        0.987141
1.454                  -0.150029         0.98762
1.455                  -0.146901        0.988088
1.456                  -0.143772        0.988547
1.457                   -0.14064        0.988996
1.458                  -0.137508        0.989435
1.459                  -0.134373        0.989865
1.46                   -0.131236        0.990284
1.461                  -0.128097        0.990694
1.462                  -0.124957        0.991093
1.463                  -0.121815        0.991483
1.464                  -0.118672        0.991863
1.465                  -0.115527        0.992233
1.466                   -0.11238        0.992593
1.467                  -0.109232        0.992943
1.468                  -0.106082        0.993283
1.469                  -0.102931        0.993613
1.47                  -0.0997785        0.993933
1.471                 -0.0966243        0.994243
1.472                 -0.0934687        0.994544
1.473                  -0.090312        0.994834
1.474                 -0.0871538        0.995114
1.475                 -0.0839942        0.995384
1.476                 -0.0808332        0.995645
1.477                 -0.0776714        0.995895
1.478                 -0.0745079        0.996135
1.479                 -0.0713436        0.996366
1.48                  -0.0681778        0.996586
1.481                 -0.0650112        0.996796
1.482                 -0.0618433        0.996996
1.483                 -0.0586745        0.997187
1.484                 -0.0555048        0.997367
1.485                 -0.0523336        0.997537
1.486                  -0.049162        0.997697
1.487                 -0.0459892        0.997847
1.488                 -0.0428155        0.997986
1.489                  -0.039641        0.998116
1.49                  -0.0364657        0.998236
1.491                 -0.0332893        0.998346
1.492                 -0.0301122        0.998445
1.493                 -0.0269347        0.998534
1.494                 -0.0237564        0.998614
1.495                 -0.0205772        0.998683
1.496                 -0.0173975        0.998742
1.497                 -0.0142173        0.998791
1.498                 -0.0110364         0.99883
1.499                -0.00785494        0.998859
1.5                  -0.00467298        0.998877
1.501                -0.00149057        0.998886
1.502                 0.00169228        0.998884
1.503                 0.00487551        0.998872
1.504                 0.00805936         0.99885
1.505                  0.0112433        0.998818
1.506                  0.0144275        0.998776
1.507                  0.0176123        0.998723
1.508                  0.0207973        0.998661
1.509                  0.0239825        0.998588
1.51                   0.0271673        0.998505
1.511                  0.0303528        0.998412
1.512                  0.0335384        0.998308
1.513                  0.0367243        0.998195
1.514                  0.0399098        0.998071
1.515                  0.0430955        0.997937
1.516                  0.0462815        0.997793
1.517                  0.0494674        0.997639
1.518                  0.0526529        0.997475
1.519                  0.0558383          0.9973
1.52                   0.0590236        0.997115
1.521                  0.0622089         0.99692
1.522                   0.065394        0.996715
1.523                  0.0685787        0.996499
1.524                  0.0717632        0.996274
1.525                  0.0749475        0.996038
1.526                  0.0781314        0.995792
1.527                  0.0813149        0.995536
1.528                   0.084498        0.995269
1.529                  0.0876806        0.994992
1.53                    0.090863        0.994705
1.531                  0.0940446        0.994408
1.532                  0.0972257        0.994101
1.533                   0.100406        0.993783
1.534                   0.103586        0.993456
1.535                   0.106766        0.993117
1.536                   0.109944        0.992769
1.537                   0.113122        0.992411
1.538                     0.1163        0.992042
1.539                   0.119476        0.991663
1.54                    0.122652        0.991274
1.541                   0.125827        0.990874
1.542                   0.129001        0.990465
1.543                   0.132174        0.990045
1.544                   0.135346        0.989615
1.545                   0.138518        0.989175
1.546                   0.141688        0.988724
1.547                   0.144857        0.988263
1.548                   0.148025        0.987792
1.549                   0.151192        0.987311
1.55                    0.154358         0.98682
1.551                   0.157523        0.986318
1.552                   0.160686        0.985806
1.553                   0.163849        0.985284
1.554                    0.16701        0.984752
1.555                    0.17017        0.984209
1.556                   0.173328        0.983657
1.557                   0.176485        0.983094
1.558                   0.179641        0.982521
1.559                   0.182795        0.981937
1.56                    0.185948        0.981344
1.561                   0.189099         0.98074
1.562                   0.192249        0.980126
1.563                   0.195397        0.979502
1.564                   0.198543        0.978868
1.565                   0.201688        0.978223
1.566                   0.204832        0.977568
1.567                   0.207973        0.976903
1.568                   0.211113        0.976228
1.569                   0.214251        0.975543
1.57                    0.217387        0.974847
1.571                   0.220522        0.974142
1.572                   0.223655        0.973426
1.573                   0.226786          0.9727
1.574                   0.229914        0.971964
1.575                   0.233041        0.971217
1.576                   0.236166        0.970461
1.577                   0.239288        0.969694
1.578                   0.242409        0.968917
1.579                   0.245528         0.96813
1.58                    0.248644        0.967333
1.581                   0.251758        0.966526
1.582                   0.254871        0.965709
1.583                    0.25798        0.964881
1.584                   0.261088        0.964043
1.585                   0.264193        0.963195
1.586                   0.267296        0.962338
1.587                   0.270397         0.96147
1.588                   0.273494        0.960592
1.589                    0.27659        0.959703
1.59                    0.279684        0.958805
1.591                   0.282774        0.957897
1.592                   0.285862        0.956978
1.593                   0.288948         0.95605
1.594                   0.292031        0.955111
1.595                   0.295111        0.954162
1.596                   0.298189        0.953204
1.597                   0.301264        0.952235
1.598                   0.304336        0.951256
1.599                   0.307406        0.950267
1.6                     0.310472        0.949268
1.601                   0.313536        0.948259
1.602                   0.316597         0.94724
1.603                   0.319655        0.946211
1.604                    0.32271        0.945172
1.605                   0.325762        0.944123
1.606                   0.328811        0.943064
1.607                   0.331857        0.941995
1.608                     0.3349        0.940916
1.609                    0.33794        0.939827
1.61                    0.340977        0.938728
1.611                   0.344011        0.937619
1.612                   0.347041        0.936501
1.613                   0.350068        0.935372
1.614                   0.353092        0.934233
1.615                   0.356112        0.933085
1.616                   0.359129        0.931926
1.617                   0.362143        0.930758
1.618                   0.365153        0.929579
1.619                    0.36816        0.928391
1.62                    0.371164        0.927193
1.621                   0.374164        0.925985
1.622                    0.37716        0.924767
1.623                   0.380153         0.92354
1.624                   0.383142        0.922302
1.625                   0.386128        0.921055
1.626                   0.389109        0.919798
1.627                   0.392088        0.918531
1.628                   0.395062        0.917254
1.629                   0.398032        0.915967
1.63                    0.400999        0.914671
1.631                   0.403962        0.913365
1.632                   0.406921        0.912049
1.633                   0.409877        0.910723
1.634                   0.412828        0.909388
1.635                   0.415775        0.908043
1.636                   0.418718        0.906688
1.637                   0.421657        0.905323
1.638                   0.424592        0.903949
1.639                   0.427524        0.902565
1.64                     0.43045        0.901172
1.641                   0.433373        0.899768
1.642                   0.436291        0.898355
1.643                   0.439206        0.896933
1.644                   0.442116        0.895501
1.645                   0.445021        0.894059
1.646                   0.447923        0.892607
1.647                   0.450819        0.891146
1.648                   0.453712        0.889676
1.649                     0.4566        0.888195
1.65                    0.459484        0.886706
1.651                   0.462363        0.885206
1.652                   0.465237        0.883698
1.653                   0.468107        0.882179
1.654                   0.470973        0.880651
1.655                   0.473834        0.879114
1.656                    0.47669        0.877567
1.657                   0.479541        0.876011
1.658                   0.482388        0.874445
1.659                    0.48523         0.87287
1.66                    0.488067        0.871286
1.661                   0.490899        0.869692
1.662                   0.493727        0.868088
1.663                   0.496549        0.866475
1.664                   0.499367        0.864853
1.665                   0.502179        0.863222
1.666                   0.504987        0.861581
1.667                   0.507789         0.85993
1.668                   0.510587        0.858271
1.669                    0.51338        0.856602
1.67                    0.516167        0.854924
1.671                   0.518949        0.853237
1.672                   0.521726         0.85154
1.673                   0.524498        0.849834
1.674                   0.527264        0.848119
1.675                   0.530026        0.846395
1.676                   0.532782        0.844661
1.677                   0.535532        0.842919
1.678                   0.538277        0.841167
1.679                   0.541017        0.839406
1.68                    0.543752        0.837636
1.681                    0.54648        0.835857
1.682                   0.549204        0.834069
1.683                   0.551922        0.832271
1.684                   0.554634        0.830465
1.685                   0.557341        0.828649
1.686                   0.560042        0.826825
1.687                   0.562737        0.824991
1.688                   0.565427        0.823149
1.689                   0.568111        0.821297
1.69                    0.570789        0.819437
1.691                   0.573462        0.817567
1.692                   0.576128        0.815689
1.693                   0.578789        0.813802
1.694                   0.581444        0.811906
1.695                   0.584093        0.810001
1.696                   0.586736        0.808087
1.697                   0.589373        0.806164
1.698                   0.592004        0.804233
1.699                   0.594629        0.802292
1.7                     0.597249        0.800343
1.701                   0.599861        0.798385
1.702                   0.602468        0.796419
1.703                   0.605069        0.794443
1.704                   0.607663        0.792459
1.705                   0.610251        0.790466
1.706                   0.612833        0.788465
1.707                   0.615409        0.786455
1.708                   0.617979        0.784436
1.709                   0.620542        0.782409
1.71                    0.623098        0.780373
1.711                   0.625648        0.778328
1.712                   0.628192        0.776275
1.713                    0.63073        0.774214
1.714                   0.633261        0.772144
1.715                   0.635785        0.770065
1.716                   0.638303        0.767978
1.717                   0.640814        0.765883
1.718                   0.643319        0.763779
1.719                   0.645817        0.761666
1.72                    0.648308        0.759545
1.721                   0.650793        0.757416
1.722                   0.653271        0.755279
1.723                   0.655742        0.753133
1.724                   0.658206        0.750979
1.725                   0.660664        0.748816
1.726                   0.663115        0.746646
1.727                   0.665559        0.744467
1.728                   0.667995        0.742279
1.729                   0.670425        0.740084
1.73                    0.672849        0.737881
1.731                   0.675265        0.735669
1.732                   0.677674        0.733449
1.733                   0.680076        0.731221
1.734                   0.682471        0.728985
1.735                   0.684858        0.726741
1.736                   0.687239        0.724489
1.737                   0.689613        0.722228
1.738                   0.691979         0.71996
1.739                   0.694338        0.717684
1.74                     0.69669          0.7154
1.741                   0.699035        0.713108
1.742                   0.701372        0.710808
1.743                   0.703702          0.7085
1.744                   0.706024        0.706184
1.745                    0.70834        0.703861
1.746                   0.710647        0.701529
1.747                   0.712948         0.69919
1.748                   0.715241        0.696843
1.749                   0.717526        0.694488
1.75                    0.719804        0.692126
1.751                   0.722074        0.689756
1.752                   0.724337        0.687378
1.753                   0.726592        0.684993
1.754                    0.72884        0.682599
1.755                   0.731079        0.680199
1.756                   0.733312         0.67779
1.757                   0.735536        0.675375
1.758                   0.737753        0.672951
1.759                   0.739961         0.67052
1.76                    0.742163        0.668082
1.761                   0.744356        0.665636
1.762                   0.746541        0.663183
1.763                   0.748719        0.660722
1.764                   0.750889        0.658254
1.765                    0.75305        0.655779
1.766                   0.755204        0.653296
1.767                    0.75735        0.650806
1.768                   0.759488        0.648309
1.769                   0.761617        0.645804
1.77                    0.763739        0.643293
1.771                   0.765853        0.640774
1.772                   0.767958        0.638248
1.773                   0.770055        0.635715
1.774                   0.772145        0.633174
1.775                   0.774225        0.630627
1.776                   0.776298        0.628072
1.777                   0.778363        0.625511
1.778                   0.780419        0.622942
1.779                   0.782467        0.620366
1.78                    0.784507        0.617784
1.781                   0.786538        0.615194
1.782                   0.788561        0.612598
1.783                   0.790576        0.609995
1.784                   0.792582        0.607385
1.785                    0.79458        0.604768
1.786                   0.796569        0.602144
1.787                   0.798549        0.599514
1.788                   0.800522        0.596876
1.789                   0.802486        0.594232
1.79                    0.804441        0.591582
1.791                   0.806387        0.588925
1.792                   0.808325        0.586261
1.793                   0.810254         0.58359
1.794                   0.812175        0.580913
1.795                   0.814087        0.578229
1.796                    0.81599        0.575539
1.797                   0.817885        0.572843
1.798                   0.819771         0.57014
1.799                   0.821648         0.56743
1.8                     0.823516        0.564714
1.801                   0.825375        0.561992
1.802                   0.827226        0.559264
1.803                   0.829067        0.556529
1.804                     0.8309        0.553787
1.805                   0.832724         0.55104
1.806                   0.834539        0.548286
1.807                   0.836345        0.545526
1.808                   0.838142         0.54276
1.809                    0.83993        0.539988
1.81                    0.841709         0.53721
1.811                   0.843479        0.534426
1.812                    0.84524        0.531635
1.813                   0.846991        0.528839
1.814                   0.848734        0.526036
1.815                   0.850468        0.523228
1.816                   0.852192        0.520414
1.817                   0.853907        0.517594
1.818                   0.855613        0.514768
1.819                    0.85731        0.511936
1.82                    0.858997        0.509098
1.821                   0.860676        0.506255
1.822                   0.862345        0.503406
1.823                   0.864004        0.500551
1.824                   0.865655         0.49769
1.825                   0.867295        0.494824
1.826                   0.868927        0.491952
1.827                   0.870549        0.489075
1.828                   0.872162        0.486192
1.829                   0.873765        0.483303
1.83                    0.875359        0.480409
1.831                   0.876944         0.47751
1.832                   0.878519        0.474605
1.833                   0.880084        0.471695
1.834                    0.88164        0.468779
1.835                   0.883187        0.465858
1.836                   0.884723        0.462932
1.837                   0.886251        0.460001
1.838                   0.887768        0.457064
1.839                   0.889276        0.454122
1.84                    0.890775        0.451175
1.841                   0.892263        0.448222
1.842                   0.893742        0.445265
1.843                   0.895212        0.442303
1.844                   0.896671        0.439335
1.845                   0.898121        0.436363
1.846                   0.899561        0.433385
1.847                   0.900992        0.430403
1.848                   0.902412        0.427415
1.849                   0.903823        0.424423
1.85                    0.905224        0.421426
1.851                   0.906615        0.418424
1.852                   0.907996        0.415418
1.853                   0.909367        0.412406
1.854                   0.910729         0.40939
1.855                    0.91208         0.40637
1.856                   0.913421        0.403344
1.857                   0.914753        0.400314
1.858                   0.916075        0.397279
1.859                   0.917386         0.39424
1.86                    0.918688        0.391196
1.861                    0.91998        0.388148
1.862                   0.921261        0.385096
1.863                   0.922533        0.382039
1.864                   0.923794        0.378977
1.865                   0.925045        0.375912
1.866                   0.926287        0.372842
1.867                   0.927518        0.369768
1.868                   0.928739        0.366689
1.869                    0.92995        0.363606
1.87                     0.93115         0.36052
1.871                   0.932341        0.357428
1.872                   0.933521        0.354333
1.873                   0.934691        0.351234
1.874                   0.935851        0.348131
1.875                   0.937001        0.345024
1.876                    0.93814        0.341913
1.877                    0.93927        0.338798
1.878                   0.940388        0.335679
1.879                   0.941497        0.332556
1.88                    0.942595        0.329429
1.881                   0.943683        0.326299
1.882                   0.944761        0.323164
1.883                   0.945828        0.320026
1.884                   0.946885        0.316885
1.885                   0.947931         0.31374
1.886                   0.948968        0.310591
1.887                   0.949993        0.307438
1.888                   0.951009        0.304282
1.889                   0.952013        0.301123
1.89                    0.953008         0.29796
1.891                   0.953992        0.294794
1.892                   0.954965        0.291624
1.893                   0.955928        0.288451
1.894                   0.956881        0.285274
1.895                   0.957823        0.282095
1.896                   0.958754        0.278911
1.897                   0.959675        0.275725
1.898                   0.960585        0.272536
1.899                   0.961485        0.269343
1.9                     0.962374        0.266148
1.901                   0.963253        0.262949
1.902                   0.964121        0.259747
1.903                   0.964978        0.256542
1.904                   0.965825        0.253335
1.905                   0.966661        0.250124
1.906                   0.967487        0.246911
1.907                   0.968302        0.243694
1.908                   0.969106        0.240475
1.909                     0.9699        0.237253
1.91                    0.970683        0.234028
1.911                   0.971455        0.230801
1.912                   0.972216        0.227571
1.913                   0.972967        0.224338
1.914                   0.973707        0.221103
1.915                   0.974437        0.217865
1.916                   0.975155        0.214624
1.917                   0.975863        0.211381
1.918                    0.97656        0.208136
1.919                   0.977247        0.204888
1.92                    0.977922        0.201638
1.921                   0.978587        0.198385
1.922                   0.979241        0.195131
1.923                   0.979884        0.191874
1.924                   0.980517        0.188614
1.925                   0.981138        0.185353
1.926                   0.981749        0.182089
1.927                   0.982349        0.178823
1.928                   0.982938        0.175555
1.929                   0.983516        0.172286
1.93                    0.984083        0.169014
1.931                    0.98464         0.16574
1.932                   0.985185        0.162464
1.933                    0.98572        0.159186
1.934                   0.986244        0.155907
1.935                   0.986757        0.152625
1.936                   0.987259        0.149342
1.937                    0.98775        0.146057
1.938                    0.98823        0.142771
1.939                   0.988699        0.139483
1.94                    0.989157        0.136193
1.941                   0.989605        0.132901
1.942                   0.990041        0.129608
1.943                   0.990467        0.126314
1.944                   0.990881        0.123018
1.945                   0.991285         0.11972
1.946                   0.991677        0.116421
1.947                   0.992059        0.113121
1.948                    0.99243        0.109819
1.949                   0.992789        0.106517
1.95                    0.993138        0.103212
1.951                   0.993476       0.0999071
1.952                   0.993802       0.0966006
1.953                   0.994118        0.093293
1.954                   0.994423       0.0899843
1.955                   0.994717       0.0866745
1.956                   0.994999       0.0833636
1.957                   0.995271       0.0800518
1.958                   0.995532       0.0767391
1.959                   0.995781       0.0734254
1.96                     0.99602       0.0701109
1.961                   0.996247       0.0667955
1.962                   0.996464       0.0634794
1.963                   0.996669       0.0601624
1.964                   0.996864       0.0568448
1.965                   0.997047       0.0535265
1.966                   0.997219       0.0502075
1.967                   0.997381        0.046888
1.968                   0.997531       0.0435679
1.969                    0.99767       0.0402472
1.97                    0.997798       0.0369261
1.971                   0.997915       0.0336045
1.972                   0.998021       0.0302825
1.973                   0.998116       0.0269601
1.974                     0.9982       0.0236374
1.975                   0.998273       0.0203143
1.976                   0.998335       0.0169911
1.977                   0.998385       0.0136676
1.978                   0.998425       0.0103439
1.979                   0.998454      0.00702008
1.98                    0.998471      0.00369615
1.981                   0.998477     0.000372155
1.982                   0.998473     -0.00295187
1.983                   0.998457     -0.00627588
1.984                    0.99843     -0.00959985
1.985                   0.998392      -0.0129237
1.986                   0.998343      -0.0162475
1.987                   0.998283      -0.0195711
1.988                   0.998212      -0.0228945
1.989                    0.99813      -0.0262176
1.99                    0.998037      -0.0295405
1.991                   0.997932      -0.0328631
1.992                   0.997817      -0.0361853
1.993                   0.997691      -0.0395071
1.994                   0.997553      -0.0428285
1.995                   0.997404      -0.0461494
1.996                   0.997245      -0.0494698
1.997                   0.997074      -0.0527896
1.998                   0.996893      -0.0561089
1.999                     0.9967      -0.0594275
2                       0.996496      -0.0627455
