! TOUCHSTONE file generated by CST MICROWAVE STUDIO
! Date and time: Sat Aug  1 14:11:21 2026
! Project name: Sonda-Coaxial_21mm_DisifixB_v2_Short.cst
! Parameters = {h_recipiente=5; l_conector=50; r_arandela=35; r_ext=10.5; r_int=3; r_recipiente=100; z_recipiente=-50}
! Header version: 2018
! Port assignment regex: !\s*Touchstone port\s*([0-9]+)\s*=\s*(CST MWS port|CST DS port)\s*([0-9]+|Zmin|Zmax)\s*\(\"(.*)\"\)(\s*mode\s*([0-9]+))?.*
! Touchstone port assignment:
! Touchstone port 1 = CST MWS port 1 ("")
# GHz S RI R 50
0.001                  -0.999185      0.00292818
0.002                  -0.999173      0.00585619
0.003                  -0.999152      0.00878393
0.004                  -0.999124       0.0117116
0.005                  -0.999087       0.0146392
0.006                  -0.999042       0.0175665
0.007                  -0.998989       0.0204934
0.008                  -0.998928         0.02342
0.009                  -0.998858       0.0263461
0.01                   -0.998781       0.0292719
0.011                  -0.998695       0.0321972
0.012                    -0.9986        0.035122
0.013                  -0.998498       0.0380461
0.014                  -0.998387         0.04097
0.015                  -0.998267       0.0438929
0.016                   -0.99814       0.0468152
0.017                  -0.998004       0.0497369
0.018                  -0.997859       0.0526578
0.019                  -0.997706       0.0555781
0.02                   -0.997545       0.0584978
0.021                  -0.997375       0.0614165
0.022                  -0.997197       0.0643343
0.023                   -0.99701       0.0672517
0.024                  -0.996814        0.070168
0.025                   -0.99661       0.0730836
0.026                  -0.996398       0.0759984
0.027                  -0.996177       0.0789123
0.028                  -0.995947       0.0818255
0.029                  -0.995709       0.0847375
0.03                   -0.995462       0.0876488
0.031                  -0.995207        0.090559
0.032                  -0.994943       0.0934687
0.033                   -0.99467        0.096377
0.034                  -0.994389       0.0992848
0.035                    -0.9941        0.102191
0.036                  -0.993801        0.105097
0.037                  -0.993495        0.108002
0.038                  -0.993179        0.110905
0.039                  -0.992855        0.113808
0.04                   -0.992522         0.11671
0.041                  -0.992181         0.11961
0.042                  -0.991831         0.12251
0.043                  -0.991473        0.125408
0.044                  -0.991106        0.128306
0.045                   -0.99073        0.131202
0.046                  -0.990346        0.134097
0.047                  -0.989953        0.136991
0.048                  -0.989552        0.139883
0.049                  -0.989142        0.142775
0.05                   -0.988724        0.145665
0.051                  -0.988297        0.148554
0.052                  -0.987862        0.151442
0.053                  -0.987418        0.154328
0.054                  -0.986965        0.157214
0.055                  -0.986504        0.160098
0.056                  -0.986034         0.16298
0.057                  -0.985556        0.165862
0.058                   -0.98507        0.168742
0.059                  -0.984575         0.17162
0.06                   -0.984071        0.174497
0.061                  -0.983559        0.177373
0.062                  -0.983038        0.180247
0.063                  -0.982509        0.183119
0.064                  -0.981972        0.185991
0.065                  -0.981426         0.18886
0.066                  -0.980871        0.191728
0.067                  -0.980308        0.194595
0.068                  -0.979737         0.19746
0.069                  -0.979157        0.200323
0.07                   -0.978569        0.203184
0.071                  -0.977972        0.206045
0.072                  -0.977367        0.208903
0.073                  -0.976754        0.211759
0.074                  -0.976132        0.214614
0.075                  -0.975501        0.217467
0.076                  -0.974863        0.220319
0.077                  -0.974215        0.223168
0.078                   -0.97356        0.226016
0.079                  -0.972896        0.228862
0.08                   -0.972224        0.231706
0.081                  -0.971543        0.234548
0.082                  -0.970854        0.237388
0.083                  -0.970156        0.240226
0.084                   -0.96945        0.243062
0.085                  -0.968736        0.245896
0.086                  -0.968014        0.248729
0.087                  -0.967283        0.251559
0.088                  -0.966544        0.254387
0.089                  -0.965796        0.257213
0.09                    -0.96504        0.260037
0.091                  -0.964276        0.262859
0.092                  -0.963504        0.265678
0.093                  -0.962723        0.268496
0.094                  -0.961934        0.271311
0.095                  -0.961137        0.274124
0.096                  -0.960331        0.276935
0.097                  -0.959517        0.279744
0.098                  -0.958695         0.28255
0.099                  -0.957864        0.285354
0.1                    -0.957026        0.288156
0.101                  -0.956179        0.290955
0.102                  -0.955324        0.293752
0.103                   -0.95446        0.296546
0.104                  -0.953588        0.299338
0.105                  -0.952709        0.302128
0.106                   -0.95182        0.304915
0.107                  -0.950924        0.307699
0.108                   -0.95002        0.310481
0.109                  -0.949107        0.313261
0.11                   -0.948186        0.316038
0.111                  -0.947257        0.318812
0.112                   -0.94632        0.321584
0.113                  -0.945374        0.324353
0.114                  -0.944421        0.327119
0.115                  -0.943459        0.329883
0.116                  -0.942489        0.332644
0.117                  -0.941511        0.335402
0.118                  -0.940525        0.338158
0.119                  -0.939531        0.340911
0.12                   -0.938528        0.343661
0.121                  -0.937518        0.346408
0.122                  -0.936499        0.349152
0.123                  -0.935472        0.351893
0.124                  -0.934438        0.354632
0.125                  -0.933395        0.357367
0.126                  -0.932344          0.3601
0.127                  -0.931285         0.36283
0.128                  -0.930218        0.365556
0.129                  -0.929143         0.36828
0.13                    -0.92806        0.371001
0.131                  -0.926969        0.373718
0.132                  -0.925869        0.376433
0.133                  -0.924762        0.379144
0.134                  -0.923647        0.381852
0.135                  -0.922524        0.384558
0.136                  -0.921393        0.387259
0.137                  -0.920253        0.389958
0.138                  -0.919106        0.392654
0.139                  -0.917951        0.395346
0.14                   -0.916788        0.398035
0.141                  -0.915617        0.400721
0.142                  -0.914438        0.403403
0.143                  -0.913251        0.406082
0.144                  -0.912056        0.408758
0.145                  -0.910854         0.41143
0.146                  -0.909643        0.414099
0.147                  -0.908425        0.416765
0.148                  -0.907198        0.419427
0.149                  -0.905964        0.422086
0.15                   -0.904722        0.424741
0.151                  -0.903472        0.427392
0.152                  -0.902214         0.43004
0.153                  -0.900948        0.432685
0.154                  -0.899675        0.435326
0.155                  -0.898394        0.437963
0.156                  -0.897105        0.440597
0.157                  -0.895807        0.443227
0.158                  -0.894503        0.445854
0.159                   -0.89319        0.448476
0.16                    -0.89187        0.451095
0.161                  -0.890542         0.45371
0.162                  -0.889206        0.456322
0.163                  -0.887862         0.45893
0.164                  -0.886511        0.461534
0.165                  -0.885152        0.464134
0.166                  -0.883785         0.46673
0.167                  -0.882411        0.469322
0.168                  -0.881029        0.471911
0.169                  -0.879639        0.474495
0.17                   -0.878242        0.477076
0.171                  -0.876837        0.479652
0.172                  -0.875424        0.482225
0.173                  -0.874003        0.484794
0.174                  -0.872575        0.487358
0.175                   -0.87114        0.489919
0.176                  -0.869696        0.492475
0.177                  -0.868246        0.495028
0.178                  -0.866787        0.497576
0.179                  -0.865321         0.50012
0.18                   -0.863847         0.50266
0.181                  -0.862366        0.505196
0.182                  -0.860877        0.507728
0.183                  -0.859381        0.510255
0.184                  -0.857877        0.512778
0.185                  -0.856366        0.515297
0.186                  -0.854847        0.517812
0.187                  -0.853321        0.520322
0.188                  -0.851787        0.522828
0.189                  -0.850246        0.525329
0.19                   -0.848698        0.527827
0.191                  -0.847141         0.53032
0.192                  -0.845578        0.532808
0.193                  -0.844007        0.535292
0.194                  -0.842429        0.537771
0.195                  -0.840843        0.540246
0.196                   -0.83925        0.542717
0.197                  -0.837649        0.545183
0.198                  -0.836041        0.547644
0.199                  -0.834426        0.550101
0.2                    -0.832803        0.552553
0.201                  -0.831174        0.555001
0.202                  -0.829536        0.557444
0.203                  -0.827892        0.559882
0.204                   -0.82624        0.562316
0.205                  -0.824581        0.564745
0.206                  -0.822915        0.567169
0.207                  -0.821241        0.569588
0.208                   -0.81956        0.572003
0.209                  -0.817872        0.574413
0.21                   -0.816177        0.576818
0.211                  -0.814475        0.579218
0.212                  -0.812765        0.581614
0.213                  -0.811048        0.584004
0.214                  -0.809324         0.58639
0.215                  -0.807593        0.588771
0.216                  -0.805855        0.591147
0.217                   -0.80411        0.593517
0.218                  -0.802357        0.595883
0.219                  -0.800597        0.598244
0.22                   -0.798831          0.6006
0.221                  -0.797057        0.602951
0.222                  -0.795276        0.605297
0.223                  -0.793488        0.607637
0.224                  -0.791694        0.609973
0.225                  -0.789891        0.612303
0.226                  -0.788083        0.614629
0.227                  -0.786267        0.616949
0.228                  -0.784444        0.619264
0.229                  -0.782614        0.621574
0.23                   -0.780777        0.623878
0.231                  -0.778934        0.626178
0.232                  -0.777083        0.628471
0.233                  -0.775226         0.63076
0.234                  -0.773361        0.633044
0.235                   -0.77149        0.635322
0.236                  -0.769612        0.637595
0.237                  -0.767727        0.639862
0.238                  -0.765835        0.642124
0.239                  -0.763936         0.64438
0.24                   -0.762031        0.646631
0.241                  -0.760119        0.648877
0.242                  -0.758199        0.651118
0.243                  -0.756274        0.653352
0.244                  -0.754341        0.655581
0.245                  -0.752402        0.657805
0.246                  -0.750456        0.660023
0.247                  -0.748503        0.662236
0.248                  -0.746544        0.664443
0.249                  -0.744578        0.666644
0.25                   -0.742605         0.66884
0.251                  -0.740626         0.67103
0.252                   -0.73864        0.673214
0.253                  -0.736647        0.675393
0.254                  -0.734648        0.677566
0.255                  -0.732642        0.679733
0.256                   -0.73063        0.681895
0.257                  -0.728611         0.68405
0.258                  -0.726585          0.6862
0.259                  -0.724553        0.688344
0.26                   -0.722515        0.690483
0.261                   -0.72047        0.692615
0.262                  -0.718418        0.694742
0.263                   -0.71636        0.696863
0.264                  -0.714296        0.698977
0.265                  -0.712225        0.701086
0.266                  -0.710148        0.703189
0.267                  -0.708064        0.705286
0.268                  -0.705975        0.707377
0.269                  -0.703878        0.709462
0.27                   -0.701776        0.711541
0.271                  -0.699667        0.713614
0.272                  -0.697551         0.71568
0.273                   -0.69543        0.717741
0.274                  -0.693302        0.719796
0.275                  -0.691167        0.721844
0.276                  -0.689027        0.723887
0.277                  -0.686881        0.725923
0.278                  -0.684728        0.727953
0.279                  -0.682569        0.729976
0.28                   -0.680403        0.731994
0.281                  -0.678232        0.734006
0.282                  -0.676054         0.73601
0.283                  -0.673871        0.738009
0.284                  -0.671681        0.740002
0.285                  -0.669485        0.741988
0.286                  -0.667283        0.743968
0.287                  -0.665075        0.745942
0.288                  -0.662861        0.747909
0.289                  -0.660641         0.74987
0.29                   -0.658415        0.751824
0.291                  -0.656182        0.753772
0.292                  -0.653944        0.755714
0.293                    -0.6517        0.757648
0.294                   -0.64945        0.759577
0.295                  -0.647194        0.761499
0.296                  -0.644933        0.763415
0.297                  -0.642665        0.765324
0.298                  -0.640391        0.767226
0.299                  -0.638111        0.769122
0.3                    -0.635826        0.771012
0.301                  -0.633535        0.772894
0.302                  -0.631238         0.77477
0.303                  -0.628935         0.77664
0.304                  -0.626627        0.778503
0.305                  -0.624313        0.780359
0.306                  -0.621993        0.782208
0.307                  -0.619667        0.784051
0.308                  -0.617336        0.785887
0.309                  -0.614999        0.787716
0.31                   -0.612656        0.789538
0.311                  -0.610308        0.791354
0.312                  -0.607954        0.793163
0.313                  -0.605595        0.794965
0.314                  -0.603229         0.79676
0.315                  -0.600859        0.798549
0.316                  -0.598483         0.80033
0.317                  -0.596101        0.802105
0.318                  -0.593714        0.803872
0.319                  -0.591321        0.805633
0.32                   -0.588923        0.807387
0.321                  -0.586519        0.809134
0.322                   -0.58411        0.810874
0.323                  -0.581695        0.812606
0.324                  -0.579276        0.814332
0.325                   -0.57685        0.816051
0.326                   -0.57442        0.817763
0.327                  -0.571984        0.819468
0.328                  -0.569543        0.821165
0.329                  -0.567096        0.822856
0.33                   -0.564644        0.824539
0.331                  -0.562188        0.826216
0.332                  -0.559725        0.827885
0.333                  -0.557257        0.829547
0.334                  -0.554785        0.831202
0.335                  -0.552307        0.832849
0.336                  -0.549824         0.83449
0.337                  -0.547336        0.836123
0.338                  -0.544843        0.837749
0.339                  -0.542344        0.839367
0.34                   -0.539841        0.840979
0.341                  -0.537332        0.842583
0.342                  -0.534819         0.84418
0.343                    -0.5323        0.845769
0.344                  -0.529776        0.847351
0.345                  -0.527248        0.848926
0.346                  -0.524715        0.850494
0.347                  -0.522176        0.852054
0.348                  -0.519633        0.853606
0.349                  -0.517085        0.855151
0.35                   -0.514532        0.856689
0.351                  -0.511974        0.858219
0.352                  -0.509411        0.859742
0.353                  -0.506843        0.861257
0.354                  -0.504271        0.862765
0.355                  -0.501693        0.864266
0.356                  -0.499112        0.865758
0.357                  -0.496525        0.867244
0.358                  -0.493934        0.868721
0.359                  -0.491338        0.870191
0.36                   -0.488737        0.871654
0.361                  -0.486132        0.873108
0.362                  -0.483522        0.874556
0.363                  -0.480907        0.875995
0.364                  -0.478288        0.877427
0.365                  -0.475664        0.878852
0.366                  -0.473036        0.880268
0.367                  -0.470403        0.881677
0.368                  -0.467766        0.883078
0.369                  -0.465125        0.884472
0.37                   -0.462479        0.885857
0.371                  -0.459828        0.887235
0.372                  -0.457173        0.888605
0.373                  -0.454514        0.889968
0.374                   -0.45185        0.891322
0.375                  -0.449182        0.892669
0.376                  -0.446509        0.894008
0.377                  -0.443833        0.895339
0.378                  -0.441152        0.896662
0.379                  -0.438467        0.897977
0.38                   -0.435778        0.899285
0.381                  -0.433084        0.900584
0.382                  -0.430386        0.901876
0.383                  -0.427684         0.90316
0.384                  -0.424978        0.904435
0.385                  -0.422268        0.905703
0.386                  -0.419553        0.906963
0.387                  -0.416835        0.908215
0.388                  -0.414113        0.909458
0.389                  -0.411386        0.910694
0.39                   -0.408656        0.911922
0.391                  -0.405921        0.913142
0.392                  -0.403183        0.914353
0.393                  -0.400441        0.915557
0.394                  -0.397694        0.916752
0.395                  -0.394944         0.91794
0.396                   -0.39219        0.919119
0.397                  -0.389432         0.92029
0.398                  -0.386671        0.921453
0.399                  -0.383905        0.922608
0.4                    -0.381136        0.923755
0.401                  -0.378363        0.924893
0.402                  -0.375586        0.926024
0.403                  -0.372806        0.927146
0.404                  -0.370022         0.92826
0.405                  -0.367234        0.929365
0.406                  -0.364442        0.930463
0.407                  -0.361647        0.931552
0.408                  -0.358849        0.932633
0.409                  -0.356047        0.933706
0.41                   -0.353241         0.93477
0.411                  -0.350432        0.935826
0.412                  -0.347619        0.936874
0.413                  -0.344803        0.937913
0.414                  -0.341983        0.938944
0.415                   -0.33916        0.939967
0.416                  -0.336334        0.940981
0.417                  -0.333504        0.941987
0.418                  -0.330671        0.942985
0.419                  -0.327834        0.943974
0.42                   -0.324995        0.944955
0.421                  -0.322151        0.945927
0.422                  -0.319305        0.946891
0.423                  -0.316455        0.947846
0.424                  -0.313603        0.948793
0.425                  -0.310747        0.949732
0.426                  -0.307888        0.950662
0.427                  -0.305026        0.951583
0.428                   -0.30216        0.952496
0.429                  -0.299292        0.953401
0.43                    -0.29642        0.954297
0.431                  -0.293546        0.955184
0.432                  -0.290668        0.956063
0.433                  -0.287788        0.956934
0.434                  -0.284905        0.957795
0.435                  -0.282018        0.958649
0.436                  -0.279129        0.959493
0.437                  -0.276237        0.960329
0.438                  -0.273342        0.961156
0.439                  -0.270444        0.961975
0.44                   -0.267543        0.962785
0.441                   -0.26464        0.963587
0.442                  -0.261734         0.96438
0.443                  -0.258825        0.965164
0.444                  -0.255913        0.965939
0.445                  -0.252999        0.966706
0.446                  -0.250082        0.967464
0.447                  -0.247162        0.968213
0.448                   -0.24424        0.968954
0.449                  -0.241315        0.969686
0.45                   -0.238388        0.970409
0.451                  -0.235458        0.971124
0.452                  -0.232526        0.971829
0.453                  -0.229591        0.972526
0.454                  -0.226653        0.973214
0.455                  -0.223713        0.973894
0.456                  -0.220771        0.974564
0.457                  -0.217827        0.975226
0.458                   -0.21488        0.975879
0.459                  -0.211931        0.976523
0.46                   -0.208979        0.977158
0.461                  -0.206026        0.977785
0.462                   -0.20307        0.978402
0.463                  -0.200111        0.979011
0.464                  -0.197151        0.979611
0.465                  -0.194188        0.980202
0.466                  -0.191223        0.980784
0.467                  -0.188257        0.981357
0.468                  -0.185288        0.981921
0.469                  -0.182316        0.982477
0.47                   -0.179344        0.983023
0.471                  -0.176369        0.983561
0.472                  -0.173392        0.984089
0.473                  -0.170412        0.984609
0.474                  -0.167432         0.98512
0.475                  -0.164449        0.985621
0.476                  -0.161464        0.986114
0.477                  -0.158477        0.986598
0.478                  -0.155489        0.987073
0.479                  -0.152499        0.987539
0.48                   -0.149507        0.987996
0.481                  -0.146513        0.988443
0.482                  -0.143518        0.988882
0.483                   -0.14052        0.989312
0.484                  -0.137522        0.989733
0.485                  -0.134521        0.990144
0.486                  -0.131519        0.990547
0.487                  -0.128515        0.990941
0.488                   -0.12551        0.991325
0.489                  -0.122504        0.991701
0.49                   -0.119496        0.992067
0.491                  -0.116486        0.992424
0.492                  -0.113475        0.992773
0.493                  -0.110462        0.993112
0.494                  -0.107448        0.993442
0.495                  -0.104433        0.993763
0.496                  -0.101416        0.994075
0.497                 -0.0983981        0.994377
0.498                 -0.0953788        0.994671
0.499                 -0.0923582        0.994956
0.5                   -0.0893364        0.995231
0.501                 -0.0863134        0.995497
0.502                 -0.0832893        0.995754
0.503                 -0.0802639        0.996002
0.504                 -0.0772375        0.996241
0.505                   -0.07421         0.99647
0.506                 -0.0711814        0.996691
0.507                 -0.0681517        0.996902
0.508                 -0.0651208        0.997104
0.509                 -0.0620894        0.997297
0.51                  -0.0590569        0.997481
0.511                 -0.0560233        0.997655
0.512                 -0.0529887         0.99782
0.513                 -0.0499534        0.997976
0.514                 -0.0469172        0.998123
0.515                 -0.0438805        0.998261
0.516                 -0.0408425        0.998389
0.517                  -0.037804        0.998508
0.518                 -0.0347648        0.998618
0.519                 -0.0317248        0.998719
0.52                   -0.028684        0.998811
0.521                 -0.0256427        0.998893
0.522                 -0.0226008        0.998966
0.523                 -0.0195583        0.999029
0.524                 -0.0165152        0.999084
0.525                 -0.0134716        0.999129
0.526                 -0.0104275        0.999165
0.527                -0.00738292        0.999192
0.528                -0.00433787        0.999209
0.529                 -0.0012924        0.999217
0.53                  0.00175346        0.999216
0.531                 0.00479994        0.999205
0.532                 0.00784651        0.999186
0.533                  0.0108934        0.999157
0.534                  0.0139408        0.999118
0.535                  0.0169882        0.999071
0.536                  0.0200359        0.999014
0.537                  0.0230837        0.998948
0.538                  0.0261318        0.998872
0.539                  0.0291799        0.998787
0.54                   0.0322285        0.998693
0.541                  0.0352768        0.998589
0.542                  0.0383255        0.998477
0.543                  0.0413739        0.998355
0.544                  0.0444224        0.998223
0.545                  0.0474708        0.998082
0.546                  0.0505192        0.997932
0.547                  0.0535675        0.997773
0.548                  0.0566161        0.997604
0.549                  0.0596641        0.997426
0.55                    0.062712        0.997238
0.551                  0.0657596        0.997042
0.552                   0.068807        0.996836
0.553                  0.0718542         0.99662
0.554                  0.0749013        0.996395
0.555                  0.0779481        0.996161
0.556                  0.0809943        0.995918
0.557                  0.0840401        0.995665
0.558                  0.0870856        0.995403
0.559                  0.0901308        0.995131
0.56                   0.0931754         0.99485
0.561                  0.0962197         0.99456
0.562                  0.0992632        0.994261
0.563                   0.102306        0.993951
0.564                   0.105349        0.993633
0.565                   0.108391        0.993306
0.566                   0.111432        0.992969
0.567                   0.114473        0.992622
0.568                   0.117513        0.992267
0.569                   0.120552        0.991902
0.57                     0.12359        0.991527
0.571                   0.126628        0.991143
0.572                   0.129665         0.99075
0.573                   0.132701        0.990348
0.574                   0.135736        0.989936
0.575                    0.13877        0.989515
0.576                   0.141804        0.989084
0.577                   0.144836        0.988644
0.578                   0.147868        0.988195
0.579                   0.150898        0.987736
0.58                    0.153928        0.987268
0.581                   0.156956        0.986791
0.582                   0.159983        0.986305
0.583                   0.163009        0.985808
0.584                   0.166034        0.985303
0.585                   0.169058        0.984788
0.586                   0.172081        0.984264
0.587                   0.175102        0.983731
0.588                   0.178122        0.983188
0.589                   0.181141        0.982636
0.59                    0.184158        0.982075
0.591                   0.187174        0.981504
0.592                   0.190189        0.980924
0.593                   0.193202        0.980335
0.594                   0.196214        0.979736
0.595                   0.199224        0.979128
0.596                   0.202233         0.97851
0.597                    0.20524        0.977884
0.598                   0.208246        0.977248
0.599                    0.21125        0.976602
0.6                     0.214253        0.975948
0.601                   0.217253        0.975284
0.602                   0.220253         0.97461
0.603                    0.22325        0.973928
0.604                   0.226246        0.973236
0.605                    0.22924        0.972535
0.606                   0.232232        0.971824
0.607                   0.235222        0.971104
0.608                   0.238211        0.970375
0.609                   0.241197        0.969637
0.61                    0.244182        0.968889
0.611                   0.247165        0.968132
0.612                   0.250145        0.967366
0.613                   0.253124        0.966591
0.614                   0.256101        0.965806
0.615                   0.259075        0.965012
0.616                   0.262048        0.964208
0.617                   0.265018        0.963396
0.618                   0.267987        0.962574
0.619                   0.270953        0.961743
0.62                    0.273917        0.960903
0.621                   0.276878        0.960053
0.622                   0.279838        0.959195
0.623                   0.282795        0.958327
0.624                   0.285749        0.957449
0.625                   0.288702        0.956563
0.626                   0.291652        0.955667
0.627                   0.294599        0.954763
0.628                   0.297545        0.953849
0.629                   0.300487        0.952925
0.63                    0.303427        0.951993
0.631                   0.306365        0.951051
0.632                     0.3093          0.9501
0.633                   0.312233         0.94914
0.634                   0.315162        0.948171
0.635                    0.31809        0.947193
0.636                   0.321014        0.946206
0.637                   0.323936        0.945209
0.638                   0.326855        0.944203
0.639                   0.329771        0.943188
0.64                    0.332685        0.942164
0.641                   0.335595        0.941131
0.642                   0.338503        0.940089
0.643                   0.341408        0.939038
0.644                    0.34431        0.937977
0.645                   0.347209        0.936907
0.646                   0.350105        0.935829
0.647                   0.352998        0.934741
0.648                   0.355888        0.933644
0.649                   0.358775        0.932539
0.65                    0.361659        0.931423
0.651                    0.36454          0.9303
0.652                   0.367418        0.929167
0.653                   0.370292        0.928024
0.654                   0.373163        0.926873
0.655                   0.376031        0.925713
0.656                   0.378896        0.924544
0.657                   0.381758        0.923366
0.658                   0.384616        0.922179
0.659                   0.387471        0.920983
0.66                    0.390322        0.919778
0.661                    0.39317        0.918564
0.662                   0.396015        0.917341
0.663                   0.398856        0.916109
0.664                   0.401693        0.914868
0.665                   0.404527        0.913618
0.666                   0.407358        0.912359
0.667                   0.410185        0.911091
0.668                   0.413008        0.909815
0.669                   0.415828        0.908529
0.67                    0.418644        0.907235
0.671                   0.421456        0.905931
0.672                   0.424265        0.904619
0.673                   0.427069        0.903298
0.674                   0.429871        0.901968
0.675                   0.432668         0.90063
0.676                   0.435461        0.899282
0.677                   0.438251        0.897926
0.678                   0.441036        0.896561
0.679                   0.443818        0.895187
0.68                    0.446595        0.893804
0.681                   0.449369        0.892412
0.682                   0.452139        0.891012
0.683                   0.454905        0.889603
0.684                   0.457666        0.888185
0.685                   0.460424        0.886759
0.686                   0.463177        0.885324
0.687                   0.465926         0.88388
0.688                   0.468671        0.882427
0.689                   0.471412        0.880966
0.69                    0.474148        0.879496
0.691                    0.47688        0.878017
0.692                   0.479609         0.87653
0.693                   0.482332        0.875033
0.694                   0.485051        0.873529
0.695                   0.487766        0.872016
0.696                   0.490477        0.870494
0.697                   0.493183        0.868963
0.698                   0.495884        0.867424
0.699                   0.498581        0.865877
0.7                     0.501274         0.86432
0.701                   0.503962        0.862756
0.702                   0.506645        0.861183
0.703                   0.509324        0.859601
0.704                   0.511998         0.85801
0.705                   0.514668        0.856412
0.706                   0.517332        0.854804
0.707                   0.519992        0.853189
0.708                   0.522648        0.851565
0.709                   0.525298        0.849932
0.71                    0.527944        0.848291
0.711                   0.530585        0.846641
0.712                    0.53322        0.844984
0.713                   0.535852        0.843317
0.714                   0.538478        0.841643
0.715                   0.541099         0.83996
0.716                   0.543715        0.838268
0.717                   0.546327        0.836569
0.718                   0.548933        0.834861
0.719                   0.551534        0.833145
0.72                     0.55413         0.83142
0.721                   0.556721        0.829687
0.722                   0.559307        0.827946
0.723                   0.561888        0.826196
0.724                   0.564463        0.824439
0.725                   0.567033        0.822673
0.726                   0.569598        0.820899
0.727                   0.572158        0.819117
0.728                   0.574712        0.817327
0.729                   0.577261        0.815528
0.73                    0.579805        0.813722
0.731                   0.582343        0.811907
0.732                   0.584876        0.810084
0.733                   0.587404        0.808253
0.734                   0.589925        0.806414
0.735                   0.592442        0.804567
0.736                   0.594953        0.802712
0.737                   0.597458        0.800849
0.738                   0.599959        0.798977
0.739                   0.602453        0.797098
0.74                    0.604941        0.795211
0.741                   0.607424        0.793316
0.742                   0.609901        0.791413
0.743                   0.612373        0.789502
0.744                   0.614839        0.787583
0.745                   0.617299        0.785656
0.746                   0.619753        0.783722
0.747                   0.622201        0.781779
0.748                   0.624644        0.779828
0.749                   0.627081         0.77787
0.75                    0.629512        0.775904
0.751                   0.631937        0.773931
0.752                   0.634356        0.771949
0.753                   0.636769        0.769959
0.754                   0.639176        0.767962
0.755                   0.641577        0.765958
0.756                   0.643972        0.763945
0.757                   0.646361        0.761925
0.758                   0.648744        0.759897
0.759                    0.65112        0.757862
0.76                    0.653491        0.755818
0.761                   0.655855        0.753768
0.762                   0.658213        0.751709
0.763                   0.660565        0.749643
0.764                   0.662911         0.74757
0.765                    0.66525        0.745489
0.766                   0.667583          0.7434
0.767                    0.66991        0.741304
0.768                    0.67223        0.739201
0.769                   0.674544        0.737089
0.77                    0.676851        0.734971
0.771                   0.679153        0.732845
0.772                   0.681447        0.730712
0.773                   0.683735        0.728571
0.774                   0.686017        0.726423
0.775                   0.688292        0.724267
0.776                   0.690561        0.722105
0.777                   0.692823        0.719935
0.778                   0.695078        0.717758
0.779                   0.697327        0.715573
0.78                    0.699569        0.713381
0.781                   0.701805        0.711182
0.782                   0.704033        0.708976
0.783                   0.706255        0.706762
0.784                    0.70847        0.704542
0.785                   0.710679        0.702314
0.786                    0.71288        0.700079
0.787                   0.715075        0.697837
0.788                   0.717263        0.695588
0.789                   0.719444        0.693332
0.79                    0.721618        0.691068
0.791                   0.723786        0.688798
0.792                   0.725946        0.686521
0.793                   0.728099        0.684237
0.794                   0.730246        0.681946
0.795                   0.732385        0.679648
0.796                   0.734517        0.677343
0.797                   0.736643        0.675031
0.798                   0.738761        0.672712
0.799                   0.740872        0.670386
0.8                     0.742976        0.668054
0.801                   0.745072        0.665715
0.802                   0.747162        0.663369
0.803                   0.749244        0.661016
0.804                   0.751319        0.658656
0.805                   0.753387         0.65629
0.806                   0.755448        0.653917
0.807                   0.757501        0.651538
0.808                   0.759547        0.649152
0.809                   0.761586        0.646759
0.81                    0.763617        0.644359
0.811                   0.765641        0.641953
0.812                   0.767657         0.63954
0.813                   0.769666        0.637121
0.814                   0.771668        0.634696
0.815                   0.773662        0.632263
0.816                   0.775648        0.629825
0.817                   0.777628         0.62738
0.818                   0.779599        0.624928
0.819                   0.781563         0.62247
0.82                    0.783519        0.620006
0.821                   0.785468        0.617536
0.822                   0.787409        0.615059
0.823                   0.789343        0.612576
0.824                   0.791268        0.610086
0.825                   0.793186         0.60759
0.826                   0.795097        0.605088
0.827                   0.796999         0.60258
0.828                   0.798894        0.600066
0.829                   0.800781        0.597545
0.83                    0.802661        0.595019
0.831                   0.804532        0.592486
0.832                   0.806396        0.589947
0.833                   0.808251        0.587402
0.834                   0.810099        0.584851
0.835                   0.811939        0.582295
0.836                   0.813771        0.579732
0.837                   0.815595        0.577163
0.838                   0.817411        0.574588
0.839                   0.819219        0.572007
0.84                    0.821019        0.569421
0.841                   0.822811        0.566828
0.842                   0.824595         0.56423
0.843                   0.826371        0.561626
0.844                   0.828139        0.559016
0.845                   0.829899        0.556401
0.846                    0.83165        0.553779
0.847                   0.833394        0.551152
0.848                   0.835129        0.548519
0.849                   0.836856        0.545881
0.85                    0.838575        0.543237
0.851                   0.840286        0.540588
0.852                   0.841988        0.537932
0.853                   0.843682        0.535272
0.854                   0.845368        0.532605
0.855                   0.847045        0.529934
0.856                   0.848715        0.527257
0.857                   0.850375        0.524574
0.858                   0.852028        0.521886
0.859                   0.853672        0.519192
0.86                    0.855308        0.516494
0.861                   0.856935         0.51379
0.862                   0.858554         0.51108
0.863                   0.860164        0.508365
0.864                   0.861766        0.505645
0.865                   0.863359         0.50292
0.866                   0.864944         0.50019
0.867                   0.866521        0.497454
0.868                   0.868089        0.494713
0.869                   0.869648        0.491968
0.87                    0.871198        0.489217
0.871                    0.87274        0.486461
0.872                   0.874274          0.4837
0.873                   0.875799        0.480934
0.874                   0.877315        0.478163
0.875                   0.878822        0.475387
0.876                   0.880321        0.472606
0.877                   0.881811         0.46982
0.878                   0.883293        0.467029
0.879                   0.884765        0.464234
0.88                    0.886229        0.461433
0.881                   0.887684        0.458628
0.882                    0.88913        0.455818
0.883                   0.890568        0.453004
0.884                   0.891997        0.450184
0.885                   0.893416         0.44736
0.886                   0.894827        0.444532
0.887                    0.89623        0.441699
0.888                   0.897623        0.438861
0.889                   0.899007        0.436018
0.89                    0.900382        0.433172
0.891                   0.901749         0.43032
0.892                   0.903106        0.427464
0.893                   0.904455        0.424604
0.894                   0.905795        0.421739
0.895                   0.907125         0.41887
0.896                   0.908447        0.415997
0.897                   0.909759        0.413119
0.898                   0.911063        0.410237
0.899                   0.912357         0.40735
0.9                     0.913642         0.40446
0.901                   0.914919        0.401565
0.902                   0.916186        0.398666
0.903                   0.917444        0.395763
0.904                   0.918693        0.392855
0.905                   0.919932        0.389944
0.906                   0.921163        0.387029
0.907                   0.922384        0.384109
0.908                   0.923597        0.381186
0.909                     0.9248        0.378258
0.91                    0.925993        0.375327
0.911                   0.927178        0.372391
0.912                   0.928353        0.369452
0.913                   0.929519        0.366509
0.914                   0.930676        0.363562
0.915                   0.931824        0.360612
0.916                   0.932962        0.357657
0.917                   0.934091        0.354699
0.918                    0.93521        0.351737
0.919                   0.936321        0.348772
0.92                    0.937422        0.345803
0.921                   0.938513         0.34283
0.922                   0.939595        0.339853
0.923                   0.940668        0.336873
0.924                   0.941731         0.33389
0.925                   0.942785        0.330903
0.926                    0.94383        0.327913
0.927                   0.944865        0.324919
0.928                    0.94589        0.321922
0.929                   0.946907        0.318921
0.93                    0.947913        0.315917
0.931                   0.948911         0.31291
0.932                   0.949898          0.3099
0.933                   0.950876        0.306886
0.934                   0.951845        0.303869
0.935                   0.952804        0.300849
0.936                   0.953754        0.297825
0.937                   0.954694        0.294799
0.938                   0.955624         0.29177
0.939                   0.956545        0.288737
0.94                    0.957457        0.285701
0.941                   0.958358        0.282663
0.942                   0.959251        0.279621
0.943                   0.960133        0.276577
0.944                   0.961006         0.27353
0.945                   0.961869        0.270479
0.946                   0.962723        0.267426
0.947                   0.963567         0.26437
0.948                   0.964401        0.261312
0.949                   0.965226         0.25825
0.95                     0.96604        0.255186
0.951                   0.966846         0.25212
0.952                   0.967641         0.24905
0.953                   0.968427        0.245978
0.954                   0.969203        0.242904
0.955                   0.969969        0.239826
0.956                   0.970726        0.236747
0.957                   0.971473        0.233665
0.958                    0.97221         0.23058
0.959                   0.972937        0.227493
0.96                    0.973655        0.224404
0.961                   0.974362        0.221312
0.962                    0.97506        0.218218
0.963                   0.975748        0.215121
0.964                   0.976427        0.212023
0.965                   0.977095        0.208922
0.966                   0.977754        0.205819
0.967                   0.978403        0.202713
0.968                   0.979042        0.199606
0.969                   0.979671        0.196496
0.97                     0.98029        0.193385
0.971                   0.980899        0.190271
0.972                   0.981499        0.187156
0.973                   0.982089        0.184038
0.974                   0.982669        0.180919
0.975                   0.983238        0.177797
0.976                   0.983798        0.174674
0.977                   0.984348        0.171549
0.978                   0.984889        0.168422
0.979                   0.985419        0.165293
0.98                    0.985939        0.162163
0.981                    0.98645        0.159031
0.982                    0.98695        0.155897
0.983                   0.987441        0.152761
0.984                   0.987921        0.149624
0.985                   0.988392        0.146485
0.986                   0.988852        0.143345
0.987                   0.989303        0.140204
0.988                   0.989744         0.13706
0.989                   0.990174        0.133916
0.99                    0.990595         0.13077
0.991                   0.991006        0.127622
0.992                   0.991407        0.124473
0.993                   0.991798        0.121323
0.994                   0.992178        0.118172
0.995                   0.992549        0.115019
0.996                    0.99291        0.111865
0.997                   0.993261         0.10871
0.998                   0.993601        0.105554
0.999                   0.993932        0.102397
1                       0.994253       0.0992383
1.001                   0.994563       0.0960788
1.002                   0.994864       0.0929183
1.003                   0.995155       0.0897568
1.004                   0.995435       0.0865944
1.005                   0.995706       0.0834311
1.006                   0.995966       0.0802669
1.007                   0.996216       0.0771018
1.008                   0.996457       0.0739359
1.009                   0.996687       0.0707692
1.01                    0.996907       0.0676018
1.011                   0.997117       0.0644336
1.012                   0.997318       0.0612648
1.013                   0.997508       0.0580953
1.014                   0.997688       0.0549251
1.015                   0.997857       0.0517544
1.016                   0.998017       0.0485832
1.017                   0.998167       0.0454114
1.018                   0.998307       0.0422391
1.019                   0.998436       0.0390664
1.02                    0.998556       0.0358932
1.021                   0.998665       0.0327197
1.022                   0.998765       0.0295458
1.023                   0.998854       0.0263716
1.024                   0.998933       0.0231971
1.025                   0.999002       0.0200223
1.026                   0.999061       0.0168474
1.027                    0.99911       0.0136722
1.028                   0.999149       0.0104969
1.029                   0.999177      0.00732144
1.03                    0.999196      0.00414591
1.031                   0.999204     0.000970332
1.032                   0.999203     -0.00220527
1.033                   0.999191     -0.00538086
1.034                   0.999169     -0.00855641
1.035                   0.999138      -0.0117319
1.036                   0.999096      -0.0149072
1.037                   0.999044      -0.0180824
1.038                   0.998982      -0.0212575
1.039                    0.99891      -0.0244323
1.04                    0.998827      -0.0276069
1.041                   0.998735      -0.0307812
1.042                   0.998632      -0.0339551
1.043                    0.99852      -0.0371288
1.044                   0.998397       -0.040302
1.045                   0.998264      -0.0434749
1.046                   0.998122      -0.0466473
1.047                   0.997969      -0.0498192
1.048                   0.997806      -0.0529906
1.049                   0.997633      -0.0561615
1.05                     0.99745      -0.0593318
1.051                   0.997257      -0.0625014
1.052                   0.997053      -0.0656705
1.053                    0.99684      -0.0688388
1.054                   0.996617      -0.0720065
1.055                   0.996383      -0.0751734
1.056                    0.99614      -0.0783395
1.057                   0.995886      -0.0815048
1.058                   0.995623      -0.0846693
1.059                   0.995349      -0.0878328
1.06                    0.995065      -0.0909955
1.061                   0.994771      -0.0941572
1.062                   0.994468       -0.097318
1.063                   0.994154       -0.100478
1.064                    0.99383       -0.103636
1.065                   0.993496       -0.106794
1.066                   0.993152       -0.109951
1.067                   0.992798       -0.113106
1.068                   0.992434        -0.11626
1.069                    0.99206       -0.119413
1.07                    0.991676       -0.122565
1.071                   0.991282       -0.125715
1.072                   0.990878       -0.128865
1.073                   0.990464       -0.132012
1.074                    0.99004       -0.135159
1.075                   0.989606       -0.138304
1.076                   0.989162       -0.141447
1.077                   0.988708        -0.14459
1.078                   0.988244        -0.14773
1.079                    0.98777       -0.150869
1.08                    0.987286       -0.154007
1.081                   0.986793       -0.157143
1.082                   0.986289       -0.160277
1.083                   0.985775        -0.16341
1.084                   0.985251        -0.16654
1.085                   0.984718        -0.16967
1.086                   0.984174       -0.172797
1.087                   0.983621       -0.175923
1.088                   0.983058       -0.179046
1.089                   0.982484       -0.182168
1.09                    0.981901       -0.185288
1.091                   0.981308       -0.188406
1.092                   0.980705       -0.191522
1.093                   0.980092       -0.194637
1.094                    0.97947       -0.197749
1.095                   0.978837       -0.200859
1.096                   0.978195       -0.203967
1.097                   0.977542       -0.207072
1.098                    0.97688       -0.210176
1.099                   0.976208       -0.213278
1.1                     0.975527       -0.216377
1.101                   0.974835       -0.219474
1.102                   0.974134       -0.222568
1.103                   0.973422       -0.225661
1.104                   0.972701       -0.228751
1.105                    0.97197       -0.231838
1.106                    0.97123       -0.234924
1.107                   0.970479       -0.238006
1.108                   0.969719       -0.241087
1.109                   0.968949       -0.244164
1.11                     0.96817        -0.24724
1.111                    0.96738       -0.250312
1.112                   0.966581       -0.253382
1.113                   0.965773        -0.25645
1.114                   0.964954       -0.259514
1.115                   0.964126       -0.262576
1.116                   0.963288       -0.265636
1.117                    0.96244       -0.268692
1.118                   0.961583       -0.271746
1.119                   0.960716       -0.274797
1.12                     0.95984       -0.277845
1.121                   0.958953        -0.28089
1.122                   0.958058       -0.283932
1.123                   0.957152       -0.286972
1.124                   0.956237       -0.290008
1.125                   0.955312       -0.293041
1.126                   0.954378       -0.296071
1.127                   0.953434       -0.299098
1.128                   0.952481       -0.302122
1.129                   0.951518       -0.305143
1.13                    0.950545       -0.308161
1.131                   0.949563       -0.311175
1.132                   0.948572       -0.314186
1.133                   0.947571       -0.317194
1.134                    0.94656       -0.320199
1.135                    0.94554         -0.3232
1.136                    0.94451       -0.326198
1.137                   0.943471       -0.329193
1.138                   0.942423       -0.332184
1.139                   0.941365       -0.335172
1.14                    0.940298       -0.338156
1.141                   0.939221       -0.341137
1.142                   0.938135       -0.344114
1.143                   0.937039       -0.347087
1.144                   0.935934       -0.350057
1.145                    0.93482       -0.353023
1.146                   0.933696       -0.355986
1.147                   0.932563       -0.358945
1.148                   0.931421         -0.3619
1.149                   0.930269       -0.364852
1.15                    0.929108       -0.367799
1.151                   0.927938       -0.370743
1.152                   0.926759       -0.373683
1.153                    0.92557       -0.376619
1.154                   0.924372       -0.379551
1.155                   0.923165       -0.382479
1.156                   0.921948       -0.385404
1.157                   0.920722       -0.388324
1.158                   0.919488        -0.39124
1.159                   0.918244       -0.394152
1.16                     0.91699        -0.39706
1.161                   0.915728       -0.399964
1.162                   0.914457       -0.402864
1.163                   0.913176        -0.40576
1.164                   0.911886       -0.408651
1.165                   0.910587       -0.411538
1.166                   0.909279       -0.414421
1.167                   0.907963         -0.4173
1.168                   0.906637       -0.420174
1.169                   0.905302       -0.423044
1.17                    0.903957       -0.425909
1.171                   0.902605        -0.42877
1.172                   0.901242       -0.431627
1.173                   0.899871       -0.434479
1.174                   0.898491       -0.437327
1.175                   0.897103        -0.44017
1.176                   0.895705       -0.443008
1.177                   0.894298       -0.445842
1.178                   0.892882       -0.448672
1.179                   0.891458       -0.451496
1.18                    0.890025       -0.454316
1.181                   0.888582       -0.457132
1.182                   0.887131       -0.459942
1.183                   0.885672       -0.462748
1.184                   0.884203       -0.465549
1.185                   0.882726       -0.468346
1.186                   0.881239       -0.471137
1.187                   0.879745       -0.473924
1.188                   0.878241       -0.476705
1.189                   0.876729       -0.479482
1.19                    0.875208       -0.482253
1.191                   0.873678        -0.48502
1.192                    0.87214       -0.487782
1.193                   0.870593       -0.490539
1.194                   0.869037        -0.49329
1.195                   0.867473       -0.496037
1.196                     0.8659       -0.498778
1.197                   0.864319       -0.501514
1.198                   0.862729       -0.504246
1.199                    0.86113       -0.506971
1.2                     0.859523       -0.509692
1.201                   0.857908       -0.512407
1.202                   0.856284       -0.515117
1.203                   0.854652       -0.517822
1.204                   0.853011       -0.520522
1.205                   0.851362       -0.523216
1.206                   0.849704       -0.525904
1.207                   0.848038       -0.528587
1.208                   0.846363       -0.531265
1.209                   0.844681       -0.533938
1.21                     0.84299       -0.536604
1.211                    0.84129       -0.539266
1.212                   0.839583       -0.541921
1.213                   0.837866       -0.544571
1.214                   0.836142       -0.547216
1.215                    0.83441       -0.549855
1.216                   0.832669       -0.552488
1.217                    0.83092       -0.555116
1.218                   0.829163       -0.557737
1.219                   0.827398       -0.560354
1.22                    0.825625       -0.562964
1.221                   0.823844       -0.565568
1.222                   0.822054       -0.568167
1.223                   0.820257        -0.57076
1.224                   0.818451       -0.573347
1.225                   0.816637       -0.575928
1.226                   0.814816       -0.578503
1.227                   0.812986       -0.581073
1.228                   0.811148       -0.583636
1.229                   0.809303       -0.586193
1.23                    0.807449       -0.588744
1.231                   0.805588        -0.59129
1.232                   0.803718       -0.593829
1.233                   0.801841       -0.596362
1.234                   0.799956       -0.598889
1.235                   0.798063        -0.60141
1.236                   0.796163       -0.603924
1.237                   0.794254       -0.606433
1.238                   0.792338       -0.608935
1.239                   0.790414       -0.611431
1.24                    0.788482       -0.613921
1.241                   0.786543       -0.616404
1.242                   0.784596       -0.618881
1.243                   0.782641       -0.621352
1.244                   0.780679       -0.623816
1.245                   0.778709       -0.626274
1.246                   0.776731       -0.628726
1.247                   0.774747       -0.631171
1.248                   0.772754        -0.63361
1.249                   0.770754       -0.636042
1.25                    0.768746       -0.638468
1.251                   0.766731       -0.640887
1.252                   0.764708         -0.6433
1.253                   0.762678       -0.645706
1.254                   0.760641       -0.648106
1.255                   0.758596       -0.650499
1.256                   0.756544       -0.652885
1.257                   0.754484       -0.655265
1.258                   0.752417       -0.657637
1.259                   0.750343       -0.660004
1.26                    0.748262       -0.662363
1.261                   0.746173       -0.664716
1.262                   0.744077       -0.667061
1.263                   0.741974       -0.669401
1.264                   0.739864       -0.671733
1.265                   0.737746       -0.674058
1.266                   0.735622       -0.676377
1.267                    0.73349       -0.678689
1.268                   0.731351       -0.680994
1.269                   0.729205       -0.683291
1.27                    0.727052       -0.685582
1.271                   0.724893       -0.687866
1.272                   0.722726       -0.690143
1.273                   0.720552       -0.692413
1.274                   0.718371       -0.694676
1.275                   0.716183       -0.696932
1.276                   0.713989        -0.69918
1.277                   0.711787       -0.701422
1.278                   0.709579       -0.703657
1.279                   0.707364       -0.705884
1.28                    0.705142       -0.708104
1.281                   0.702913       -0.710317
1.282                   0.700677       -0.712523
1.283                   0.698435       -0.714722
1.284                   0.696186       -0.716913
1.285                   0.693931       -0.719097
1.286                   0.691668       -0.721274
1.287                     0.6894       -0.723443
1.288                   0.687124       -0.725605
1.289                   0.684842        -0.72776
1.29                    0.682553       -0.729908
1.291                   0.680258       -0.732048
1.292                   0.677957        -0.73418
1.293                   0.675648       -0.736306
1.294                   0.673334       -0.738423
1.295                   0.671013       -0.740533
1.296                   0.668685       -0.742636
1.297                   0.666352       -0.744732
1.298                   0.664011       -0.746819
1.299                   0.661665       -0.748899
1.3                     0.659312       -0.750972
1.301                   0.656953       -0.753037
1.302                   0.654588       -0.755095
1.303                   0.652216       -0.757144
1.304                   0.649839       -0.759187
1.305                   0.647455       -0.761221
1.306                   0.645065       -0.763248
1.307                   0.642669       -0.765267
1.308                   0.640266       -0.767279
1.309                   0.637858       -0.769282
1.31                    0.635444       -0.771278
1.311                   0.633023       -0.773266
1.312                   0.630597       -0.775247
1.313                   0.628165        -0.77722
1.314                   0.625726       -0.779184
1.315                   0.623282       -0.781141
1.316                   0.620832       -0.783091
1.317                   0.618376       -0.785032
1.318                   0.615914       -0.786965
1.319                   0.613447        -0.78889
1.32                    0.610974       -0.790808
1.321                   0.608494       -0.792718
1.322                    0.60601       -0.794619
1.323                   0.603519       -0.796513
1.324                   0.601023       -0.798398
1.325                   0.598521       -0.800276
1.326                   0.596014       -0.802146
1.327                     0.5935       -0.804007
1.328                   0.590982       -0.805861
1.329                   0.588458       -0.807706
1.33                    0.585928       -0.809544
1.331                   0.583393       -0.811373
1.332                   0.580852       -0.813194
1.333                   0.578306       -0.815007
1.334                   0.575755       -0.816812
1.335                   0.573198       -0.818608
1.336                   0.570636       -0.820397
1.337                   0.568068       -0.822177
1.338                   0.565496       -0.823949
1.339                   0.562917       -0.825713
1.34                    0.560334       -0.827469
1.341                   0.557746       -0.829216
1.342                   0.555152       -0.830955
1.343                   0.552553       -0.832686
1.344                   0.549949       -0.834408
1.345                    0.54734       -0.836122
1.346                   0.544726       -0.837828
1.347                   0.542107       -0.839526
1.348                   0.539483       -0.841215
1.349                   0.536853       -0.842895
1.35                    0.534219       -0.844568
1.351                    0.53158       -0.846232
1.352                   0.528936       -0.847887
1.353                   0.526287       -0.849534
1.354                   0.523634       -0.851173
1.355                   0.520975       -0.852803
1.356                   0.518312       -0.854425
1.357                   0.515644       -0.856038
1.358                   0.512971       -0.857642
1.359                   0.510293       -0.859239
1.36                    0.507611       -0.860826
1.361                   0.504924       -0.862405
1.362                   0.502232       -0.863976
1.363                   0.499536       -0.865538
1.364                   0.496836       -0.867091
1.365                    0.49413       -0.868636
1.366                   0.491421       -0.870172
1.367                   0.488706         -0.8717
1.368                   0.485988       -0.873219
1.369                   0.483265       -0.874729
1.37                    0.480537       -0.876231
1.371                   0.477805       -0.877724
1.372                   0.475069       -0.879208
1.373                   0.472328       -0.880683
1.374                   0.469583        -0.88215
1.375                   0.466834       -0.883608
1.376                   0.464081       -0.885058
1.377                   0.461324       -0.886499
1.378                   0.458562       -0.887931
1.379                   0.455796       -0.889354
1.38                    0.453026       -0.890768
1.381                   0.450252       -0.892174
1.382                   0.447474       -0.893571
1.383                   0.444692       -0.894959
1.384                   0.441906       -0.896338
1.385                   0.439116       -0.897708
1.386                   0.436322        -0.89907
1.387                   0.433524       -0.900423
1.388                   0.430722       -0.901767
1.389                   0.427916       -0.903102
1.39                    0.425107       -0.904428
1.391                   0.422294       -0.905745
1.392                   0.419476       -0.907053
1.393                   0.416656       -0.908353
1.394                   0.413831       -0.909643
1.395                   0.411003       -0.910925
1.396                   0.408171       -0.912198
1.397                   0.405336       -0.913461
1.398                   0.402497       -0.914716
1.399                   0.399654       -0.915962
1.4                     0.396808       -0.917198
1.401                   0.393958       -0.918426
1.402                   0.391105       -0.919645
1.403                   0.388249       -0.920855
1.404                   0.385389       -0.922056
1.405                   0.382525       -0.923248
1.406                   0.379659        -0.92443
1.407                   0.376788       -0.925604
1.408                   0.373915       -0.926769
1.409                   0.371039       -0.927924
1.41                    0.368159       -0.929071
1.411                   0.365276       -0.930208
1.412                   0.362389       -0.931337
1.413                     0.3595       -0.932456
1.414                   0.356607       -0.933566
1.415                   0.353712       -0.934667
1.416                   0.350813        -0.93576
1.417                   0.347911       -0.936843
1.418                   0.345007       -0.937916
1.419                   0.342099       -0.938981
1.42                    0.339188       -0.940036
1.421                   0.336275       -0.941083
1.422                   0.333358        -0.94212
1.423                   0.330439       -0.943148
1.424                   0.327517       -0.944167
1.425                   0.324592       -0.945177
1.426                   0.321664       -0.946177
1.427                   0.318734       -0.947169
1.428                     0.3158       -0.948151
1.429                   0.312864       -0.949124
1.43                    0.309926       -0.950088
1.431                   0.306985       -0.951042
1.432                   0.304041       -0.951987
1.433                   0.301095       -0.952923
1.434                   0.298146        -0.95385
1.435                   0.295195       -0.954768
1.436                   0.292241       -0.955676
1.437                   0.289285       -0.956576
1.438                   0.286326       -0.957465
1.439                   0.283365       -0.958346
1.44                    0.280401       -0.959218
1.441                   0.277436        -0.96008
1.442                   0.274468       -0.960933
1.443                   0.271497       -0.961776
1.444                   0.268525        -0.96261
1.445                    0.26555       -0.963435
1.446                   0.262573       -0.964251
1.447                   0.259594       -0.965058
1.448                   0.256613       -0.965855
1.449                    0.25363       -0.966642
1.45                    0.250644       -0.967421
1.451                   0.247657        -0.96819
1.452                   0.244667        -0.96895
1.453                   0.241676       -0.969701
1.454                   0.238683       -0.970442
1.455                   0.235688       -0.971174
1.456                   0.232691       -0.971896
1.457                   0.229691        -0.97261
1.458                   0.226691       -0.973314
1.459                   0.223688       -0.974008
1.46                    0.220684       -0.974693
1.461                   0.217678       -0.975369
1.462                    0.21467       -0.976036
1.463                   0.211661       -0.976693
1.464                    0.20865       -0.977341
1.465                   0.205637       -0.977979
1.466                   0.202623       -0.978608
1.467                   0.199606       -0.979228
1.468                   0.196589       -0.979838
1.469                    0.19357       -0.980439
1.47                     0.19055       -0.981031
1.471                   0.187528       -0.981613
1.472                   0.184505       -0.982186
1.473                    0.18148       -0.982749
1.474                   0.178454       -0.983303
1.475                   0.175427       -0.983848
1.476                   0.172399       -0.984383
1.477                   0.169369       -0.984909
1.478                   0.166337       -0.985426
1.479                   0.163305       -0.985933
1.48                    0.160272        -0.98643
1.481                   0.157237       -0.986919
1.482                   0.154202       -0.987398
1.483                   0.151165       -0.987867
1.484                   0.148127       -0.988327
1.485                   0.145088       -0.988778
1.486                   0.142048        -0.98922
1.487                   0.139007       -0.989652
1.488                   0.135965       -0.990074
1.489                   0.132923       -0.990487
1.49                    0.129879       -0.990891
1.491                   0.126835       -0.991285
1.492                   0.123789        -0.99167
1.493                   0.120743       -0.992046
1.494                   0.117697       -0.992412
1.495                   0.114649       -0.992769
1.496                   0.111601       -0.993116
1.497                   0.108552       -0.993454
1.498                   0.105502       -0.993783
1.499                   0.102452       -0.994102
1.5                     0.099401       -0.994412
1.501                  0.0963498       -0.994712
1.502                  0.0932981       -0.995003
1.503                  0.0902454       -0.995284
1.504                  0.0871927       -0.995557
1.505                  0.0841392       -0.995819
1.506                  0.0810857       -0.996073
1.507                  0.0780315       -0.996317
1.508                  0.0749771       -0.996551
1.509                  0.0719223       -0.996776
1.51                   0.0688672       -0.996992
1.511                  0.0658117       -0.997199
1.512                  0.0627561       -0.997396
1.513                  0.0597003       -0.997583
1.514                  0.0566444       -0.997761
1.515                  0.0535884        -0.99793
1.516                  0.0505319        -0.99809
1.517                  0.0474754        -0.99824
1.518                  0.0444191       -0.998381
1.519                  0.0413628       -0.998512
1.52                   0.0383062       -0.998634
1.521                  0.0352496       -0.998747
1.522                  0.0321931        -0.99885
1.523                   0.029137       -0.998944
1.524                  0.0260807       -0.999028
1.525                  0.0230245       -0.999103
1.526                  0.0199688       -0.999169
1.527                  0.0169131       -0.999225
1.528                  0.0138575       -0.999272
1.529                   0.010802        -0.99931
1.53                  0.00774705       -0.999339
1.531                 0.00469262       -0.999358
1.532                  0.0016383       -0.999367
1.533                -0.00141589       -0.999368
1.534                -0.00446942       -0.999359
1.535                -0.00752277        -0.99934
1.536                 -0.0105754       -0.999313
1.537                 -0.0136278       -0.999276
1.538                 -0.0166797        -0.99923
1.539                 -0.0197308       -0.999174
1.54                  -0.0227813       -0.999109
1.541                 -0.0258315       -0.999035
1.542                  -0.028881       -0.998952
1.543                 -0.0319296       -0.998859
1.544                 -0.0349778       -0.998757
1.545                 -0.0380253       -0.998645
1.546                  -0.041072       -0.998525
1.547                  -0.044118       -0.998395
1.548                 -0.0471632       -0.998256
1.549                 -0.0502075       -0.998107
1.55                   -0.053251       -0.997949
1.551                 -0.0562936       -0.997783
1.552                 -0.0593352       -0.997606
1.553                 -0.0623762       -0.997421
1.554                  -0.065416       -0.997226
1.555                  -0.068455       -0.997022
1.556                 -0.0714925       -0.996809
1.557                 -0.0745295       -0.996586
1.558                 -0.0775653       -0.996355
1.559                 -0.0806001       -0.996114
1.56                  -0.0836335       -0.995864
1.561                  -0.086666       -0.995605
1.562                  -0.089697       -0.995336
1.563                 -0.0927271       -0.995058
1.564                 -0.0957559       -0.994771
1.565                 -0.0987834       -0.994475
1.566                   -0.10181        -0.99417
1.567                  -0.104835       -0.993856
1.568                  -0.107858       -0.993532
1.569                   -0.11088         -0.9932
1.57                   -0.113901       -0.992858
1.571                   -0.11692       -0.992507
1.572                  -0.119938       -0.992147
1.573                  -0.122955       -0.991777
1.574                   -0.12597       -0.991399
1.575                  -0.128983       -0.991011
1.576                  -0.131995       -0.990615
1.577                  -0.135005       -0.990209
1.578                  -0.138014       -0.989794
1.579                  -0.141021        -0.98937
1.58                   -0.144026       -0.988937
1.581                   -0.14703       -0.988495
1.582                  -0.150032       -0.988044
1.583                  -0.153032       -0.987584
1.584                   -0.15603       -0.987114
1.585                  -0.159027       -0.986636
1.586                  -0.162022       -0.986149
1.587                  -0.165014       -0.985653
1.588                  -0.168006       -0.985147
1.589                  -0.170994       -0.984633
1.59                   -0.173982       -0.984109
1.591                  -0.176967       -0.983577
1.592                   -0.17995       -0.983036
1.593                  -0.182931       -0.982485
1.594                  -0.185911       -0.981926
1.595                  -0.188888       -0.981357
1.596                  -0.191862        -0.98078
1.597                  -0.194835       -0.980194
1.598                  -0.197806       -0.979599
1.599                  -0.200775       -0.978995
1.6                    -0.203741       -0.978382
1.601                  -0.206705        -0.97776
1.602                  -0.209667       -0.977129
1.603                  -0.212626       -0.976489
1.604                  -0.215584       -0.975841
1.605                  -0.218538       -0.975183
1.606                  -0.221491       -0.974517
1.607                  -0.224441       -0.973842
1.608                  -0.227389       -0.973158
1.609                  -0.230334       -0.972465
1.61                   -0.233277       -0.971763
1.611                  -0.236217       -0.971053
1.612                  -0.239155       -0.970333
1.613                   -0.24209       -0.969605
1.614                  -0.245023       -0.968868
1.615                  -0.247953       -0.968123
1.616                  -0.250881       -0.967368
1.617                  -0.253806       -0.966605
1.618                  -0.256728       -0.965833
1.619                  -0.259647       -0.965052
1.62                   -0.262564       -0.964263
1.621                  -0.265478       -0.963465
1.622                   -0.26839       -0.962658
1.623                  -0.271298       -0.961842
1.624                  -0.274204       -0.961018
1.625                  -0.277106       -0.960185
1.626                  -0.280006       -0.959343
1.627                  -0.282904       -0.958493
1.628                  -0.285798       -0.957634
1.629                  -0.288689       -0.956767
1.63                   -0.291577        -0.95589
1.631                  -0.294462       -0.955006
1.632                  -0.297344       -0.954112
1.633                  -0.300223        -0.95321
1.634                  -0.303099         -0.9523
1.635                  -0.305972       -0.951381
1.636                  -0.308842       -0.950453
1.637                  -0.311709       -0.949517
1.638                  -0.314572       -0.948572
1.639                  -0.317433       -0.947619
1.64                    -0.32029       -0.946657
1.641                  -0.323144       -0.945687
1.642                  -0.325994       -0.944708
1.643                  -0.328841       -0.943721
1.644                  -0.331685       -0.942725
1.645                  -0.334526       -0.941721
1.646                  -0.337363       -0.940708
1.647                  -0.340197       -0.939687
1.648                  -0.343028       -0.938658
1.649                  -0.345854        -0.93762
1.65                   -0.348678       -0.936573
1.651                  -0.351498       -0.935519
1.652                  -0.354315       -0.934456
1.653                  -0.357128       -0.933384
1.654                  -0.359937       -0.932305
1.655                  -0.362743       -0.931217
1.656                  -0.365545        -0.93012
1.657                  -0.368344       -0.929016
1.658                  -0.371139       -0.927903
1.659                   -0.37393       -0.926781
1.66                   -0.376718       -0.925652
1.661                  -0.379501       -0.924514
1.662                  -0.382282       -0.923368
1.663                  -0.385058       -0.922214
1.664                   -0.38783       -0.921052
1.665                  -0.390599       -0.919881
1.666                  -0.393364       -0.918702
1.667                  -0.396125       -0.917515
1.668                  -0.398882        -0.91632
1.669                  -0.401635       -0.915117
1.67                   -0.404385       -0.913905
1.671                   -0.40713       -0.912686
1.672                  -0.409871       -0.911458
1.673                  -0.412608       -0.910222
1.674                  -0.415342       -0.908978
1.675                  -0.418071       -0.907727
1.676                  -0.420796       -0.906467
1.677                  -0.423517       -0.905199
1.678                  -0.426234       -0.903923
1.679                  -0.428947       -0.902639
1.68                   -0.431655       -0.901347
1.681                   -0.43436       -0.900047
1.682                   -0.43706       -0.898739
1.683                  -0.439756       -0.897423
1.684                  -0.442448       -0.896099
1.685                  -0.445135       -0.894767
1.686                  -0.447818       -0.893427
1.687                  -0.450497        -0.89208
1.688                  -0.453172       -0.890724
1.689                  -0.455841       -0.889361
1.69                   -0.458507        -0.88799
1.691                  -0.461168       -0.886611
1.692                  -0.463825       -0.885224
1.693                  -0.466478       -0.883829
1.694                  -0.469126       -0.882427
1.695                  -0.471769       -0.881016
1.696                  -0.474408       -0.879598
1.697                  -0.477043       -0.878173
1.698                  -0.479672       -0.876739
1.699                  -0.482298       -0.875298
1.7                    -0.484918       -0.873849
1.701                  -0.487534       -0.872392
1.702                  -0.490146       -0.870928
1.703                  -0.492752       -0.869456
1.704                  -0.495354       -0.867977
1.705                  -0.497951       -0.866489
1.706                  -0.500544       -0.864995
1.707                  -0.503132       -0.863492
1.708                  -0.505715       -0.861982
1.709                  -0.508292       -0.860465
1.71                   -0.510866       -0.858939
1.711                  -0.513435       -0.857407
1.712                  -0.515998       -0.855867
1.713                  -0.518557       -0.854319
1.714                  -0.521111       -0.852764
1.715                   -0.52366       -0.851201
1.716                  -0.526204       -0.849631
1.717                  -0.528743       -0.848054
1.718                  -0.531277       -0.846469
1.719                  -0.533806       -0.844876
1.72                    -0.53633       -0.843277
1.721                  -0.538849       -0.841669
1.722                  -0.541363       -0.840055
1.723                  -0.543872       -0.838433
1.724                  -0.546375       -0.836804
1.725                  -0.548874       -0.835167
1.726                  -0.551367       -0.833524
1.727                  -0.553855       -0.831873
1.728                  -0.556338       -0.830215
1.729                  -0.558816       -0.828549
1.73                   -0.561289       -0.826876
1.731                  -0.563756       -0.825197
1.732                  -0.566218       -0.823509
1.733                  -0.568675       -0.821815
1.734                  -0.571126       -0.820113
1.735                  -0.573572       -0.818405
1.736                  -0.576013       -0.816689
1.737                  -0.578449       -0.814966
1.738                  -0.580879       -0.813236
1.739                  -0.583303       -0.811499
1.74                   -0.585722       -0.809755
1.741                  -0.588136       -0.808004
1.742                  -0.590544       -0.806246
1.743                  -0.592947       -0.804481
1.744                  -0.595344       -0.802709
1.745                  -0.597736        -0.80093
1.746                  -0.600122       -0.799144
1.747                  -0.602503       -0.797351
1.748                  -0.604878       -0.795551
1.749                  -0.607247       -0.793744
1.75                   -0.609611        -0.79193
1.751                  -0.611969        -0.79011
1.752                  -0.614322       -0.788283
1.753                  -0.616669       -0.786448
1.754                   -0.61901       -0.784607
1.755                  -0.621345       -0.782759
1.756                  -0.623675       -0.780905
1.757                  -0.625999       -0.779044
1.758                  -0.628317       -0.777176
1.759                  -0.630629       -0.775301
1.76                   -0.632936       -0.773419
1.761                  -0.635237       -0.771531
1.762                  -0.637532       -0.769636
1.763                  -0.639821       -0.767735
1.764                  -0.642104       -0.765826
1.765                  -0.644381       -0.763912
1.766                  -0.646652       -0.761991
1.767                  -0.648918       -0.760063
1.768                  -0.651177       -0.758128
1.769                  -0.653431       -0.756187
1.77                   -0.655678        -0.75424
1.771                   -0.65792       -0.752285
1.772                  -0.660156       -0.750325
1.773                  -0.662385       -0.748358
1.774                  -0.664609       -0.746384
1.775                  -0.666826       -0.744405
1.776                  -0.669037       -0.742418
1.777                  -0.671242       -0.740426
1.778                  -0.673441       -0.738427
1.779                  -0.675634       -0.736421
1.78                   -0.677821        -0.73441
1.781                  -0.680001       -0.732392
1.782                  -0.682175       -0.730367
1.783                  -0.684343       -0.728337
1.784                  -0.686505         -0.7263
1.785                  -0.688661       -0.724257
1.786                   -0.69081       -0.722207
1.787                  -0.692953       -0.720152
1.788                   -0.69509        -0.71809
1.789                  -0.697221       -0.716022
1.79                   -0.699345       -0.713948
1.791                  -0.701463       -0.711868
1.792                  -0.703574       -0.709782
1.793                  -0.705679       -0.707689
1.794                  -0.707778       -0.705591
1.795                   -0.70987       -0.703487
1.796                  -0.711956       -0.701376
1.797                  -0.714035        -0.69926
1.798                  -0.716108       -0.697137
1.799                  -0.718175       -0.695009
1.8                    -0.720235       -0.692874
1.801                  -0.722288       -0.690734
1.802                  -0.724335       -0.688588
1.803                  -0.726375       -0.686436
1.804                  -0.728409       -0.684278
1.805                  -0.730436       -0.682114
1.806                  -0.732457       -0.679944
1.807                  -0.734471       -0.677769
1.808                  -0.736478       -0.675588
1.809                  -0.738479       -0.673401
1.81                   -0.740474       -0.671208
1.811                  -0.742461       -0.669009
1.812                  -0.744442       -0.666805
1.813                  -0.746416       -0.664595
1.814                  -0.748383       -0.662379
1.815                  -0.750344       -0.660158
1.816                  -0.752298       -0.657931
1.817                  -0.754245       -0.655699
1.818                  -0.756185       -0.653461
1.819                  -0.758119       -0.651217
1.82                   -0.760046       -0.648968
1.821                  -0.761966       -0.646713
1.822                  -0.763879       -0.644453
1.823                  -0.765785       -0.642187
1.824                  -0.767685       -0.639916
1.825                  -0.769577        -0.63764
1.826                  -0.771463       -0.635358
1.827                  -0.773341        -0.63307
1.828                  -0.775213       -0.630777
1.829                  -0.777078       -0.628479
1.83                   -0.778936       -0.626175
1.831                  -0.780787       -0.623867
1.832                  -0.782631       -0.621552
1.833                  -0.784468       -0.619233
1.834                  -0.786298       -0.616908
1.835                  -0.788121       -0.614578
1.836                  -0.789937       -0.612243
1.837                  -0.791746       -0.609903
1.838                  -0.793548       -0.607557
1.839                  -0.795343       -0.605206
1.84                   -0.797131        -0.60285
1.841                  -0.798911       -0.600489
1.842                  -0.800685       -0.598123
1.843                  -0.802451       -0.595752
1.844                  -0.804211       -0.593376
1.845                  -0.805963       -0.590995
1.846                  -0.807708       -0.588609
1.847                  -0.809445       -0.586217
1.848                  -0.811176       -0.583821
1.849                  -0.812899        -0.58142
1.85                   -0.814615       -0.579014
1.851                  -0.816324       -0.576603
1.852                  -0.818026       -0.574187
1.853                   -0.81972       -0.571766
1.854                  -0.821407        -0.56934
1.855                  -0.823087        -0.56691
1.856                  -0.824759       -0.564475
1.857                  -0.826425       -0.562035
1.858                  -0.828083        -0.55959
1.859                  -0.829733       -0.557141
1.86                   -0.831377       -0.554686
1.861                  -0.833012       -0.552227
1.862                  -0.834641       -0.549764
1.863                  -0.836262       -0.547296
1.864                  -0.837876       -0.544823
1.865                  -0.839482       -0.542346
1.866                  -0.841081       -0.539863
1.867                  -0.842672       -0.537377
1.868                  -0.844256       -0.534886
1.869                  -0.845833        -0.53239
1.87                   -0.847401        -0.52989
1.871                  -0.848963       -0.527385
1.872                  -0.850517       -0.524876
1.873                  -0.852064       -0.522363
1.874                  -0.853603       -0.519845
1.875                  -0.855134       -0.517322
1.876                  -0.856658       -0.514796
1.877                  -0.858175       -0.512265
1.878                  -0.859684        -0.50973
1.879                  -0.861185        -0.50719
1.88                   -0.862678       -0.504646
1.881                  -0.864165       -0.502098
1.882                  -0.865643       -0.499545
1.883                  -0.867114       -0.496989
1.884                  -0.868577       -0.494428
1.885                  -0.870033       -0.491863
1.886                  -0.871481       -0.489294
1.887                  -0.872921       -0.486721
1.888                  -0.874353       -0.484143
1.889                  -0.875778       -0.481562
1.89                   -0.877195       -0.478976
1.891                  -0.878605       -0.476387
1.892                  -0.880007       -0.473793
1.893                  -0.881401       -0.471196
1.894                  -0.882787       -0.468594
1.895                  -0.884166       -0.465989
1.896                  -0.885536       -0.463379
1.897                  -0.886899       -0.460766
1.898                  -0.888255       -0.458149
1.899                  -0.889602       -0.455528
1.9                    -0.890942       -0.452903
1.901                  -0.892274       -0.450275
1.902                  -0.893598       -0.447642
1.903                  -0.894914       -0.445006
1.904                  -0.896222       -0.442366
1.905                  -0.897522       -0.439722
1.906                  -0.898815       -0.437075
1.907                    -0.9001       -0.434424
1.908                  -0.901377       -0.431769
1.909                  -0.902646       -0.429111
1.91                   -0.903907       -0.426449
1.911                   -0.90516       -0.423783
1.912                  -0.906405       -0.421114
1.913                  -0.907643       -0.418442
1.914                  -0.908872       -0.415766
1.915                  -0.910094       -0.413086
1.916                  -0.911307       -0.410403
1.917                  -0.912513       -0.407716
1.918                   -0.91371       -0.405026
1.919                    -0.9149       -0.402333
1.92                   -0.916081       -0.399636
1.921                  -0.917255       -0.396936
1.922                   -0.91842       -0.394232
1.923                  -0.919578       -0.391526
1.924                  -0.920727       -0.388815
1.925                  -0.921869       -0.386102
1.926                  -0.923002       -0.383386
1.927                  -0.924128       -0.380666
1.928                  -0.925245       -0.377943
1.929                  -0.926354       -0.375217
1.93                   -0.927455       -0.372487
1.931                  -0.928548       -0.369755
1.932                  -0.929633       -0.367019
1.933                   -0.93071       -0.364281
1.934                  -0.931779       -0.361539
1.935                  -0.932839       -0.358794
1.936                  -0.933892       -0.356046
1.937                  -0.934936       -0.353296
1.938                  -0.935973       -0.350542
1.939                  -0.937001       -0.347785
1.94                   -0.938021       -0.345026
1.941                  -0.939032       -0.342263
1.942                  -0.940036       -0.339498
1.943                  -0.941031        -0.33673
1.944                  -0.942019       -0.333959
1.945                  -0.942998       -0.331185
1.946                  -0.943968       -0.328408
1.947                  -0.944931       -0.325629
1.948                  -0.945885       -0.322847
1.949                  -0.946831       -0.320062
1.95                   -0.947769       -0.317275
1.951                  -0.948699       -0.314484
1.952                   -0.94962       -0.311692
1.953                  -0.950534       -0.308896
1.954                  -0.951438       -0.306098
1.955                  -0.952335       -0.303298
1.956                  -0.953223       -0.300494
1.957                  -0.954103       -0.297689
1.958                  -0.954975       -0.294881
1.959                  -0.955839        -0.29207
1.96                   -0.956694       -0.289257
1.961                  -0.957541       -0.286442
1.962                   -0.95838       -0.283624
1.963                   -0.95921       -0.280803
1.964                  -0.960032       -0.277981
1.965                  -0.960845       -0.275156
1.966                   -0.96165       -0.272329
1.967                  -0.962447       -0.269499
1.968                  -0.963236       -0.266667
1.969                  -0.964016       -0.263833
1.97                   -0.964788       -0.260997
1.971                  -0.965551       -0.258158
1.972                  -0.966306       -0.255318
1.973                  -0.967053       -0.252475
1.974                  -0.967791        -0.24963
1.975                  -0.968521       -0.246783
1.976                  -0.969243       -0.243934
1.977                  -0.969956       -0.241082
1.978                   -0.97066       -0.238229
1.979                  -0.971357       -0.235374
1.98                   -0.972045       -0.232517
1.981                  -0.972724       -0.229658
1.982                  -0.973395       -0.226797
1.983                  -0.974058       -0.223934
1.984                  -0.974712       -0.221069
1.985                  -0.975357       -0.218202
1.986                  -0.975994       -0.215334
1.987                  -0.976623       -0.212463
1.988                  -0.977244       -0.209592
1.989                  -0.977855       -0.206718
1.99                   -0.978459       -0.203842
1.991                  -0.979054       -0.200965
1.992                   -0.97964       -0.198086
1.993                  -0.980218       -0.195205
1.994                  -0.980787       -0.192323
1.995                  -0.981348       -0.189439
1.996                  -0.981901       -0.186553
1.997                  -0.982445       -0.183666
1.998                   -0.98298       -0.180777
1.999                  -0.983507       -0.177887
2                      -0.984025       -0.174995
