! COPPER MOUNTAIN TECHNOLOGIES, R60, 23103002, 24.3.3/3.0
! Date: 24/6/2026 12:16:30
! Data: Format [Calibration Info]
! Frequency		S11: Mag/Ang F1                
# HZ S MA R 50
1.00000000E+06	 9.99979771E-01	-5.81683988E-03
2.00000000E+06	 9.99887049E-01	-1.81022875E-03
3.00000000E+06	 9.99953289E-01	 1.12066737E-02
4.00000000E+06	 9.99922715E-01	-3.08020208E-03
5.00000000E+06	 9.99927169E-01	-2.79520033E-03
6.00000000E+06	 9.99994013E-01	 3.42732455E-03
7.00000000E+06	 9.99978523E-01	 4.61736275E-04
8.00000000E+06	 1.00000750E+00	 1.14382864E-03
9.00000000E+06	 9.99908854E-01	 2.97083740E-03
1.00000000E+07	 9.99981613E-01	-9.19978448E-04
1.10000000E+07	 1.00006064E+00	-1.12893687E-04
1.20000000E+07	 1.00002719E+00	 4.50891202E-04
1.30000000E+07	 1.00004849E+00	-4.01233026E-04
1.40000000E+07	 1.00006367E+00	-4.58082958E-03
1.50000000E+07	 9.99898198E-01	-1.24959351E-03
1.60000000E+07	 9.99927682E-01	-6.63268871E-03
1.70000000E+07	 1.00003258E+00	-4.77137422E-03
1.80000000E+07	 1.00005910E+00	 2.76879762E-03
1.90000000E+07	 1.00005120E+00	-4.83864494E-03
2.00000000E+07	 9.99944815E-01	-4.02173069E-03
2.10000000E+07	 1.00002276E+00	-3.45026354E-03
2.20000000E+07	 1.00007797E+00	-6.30646419E-03
2.30000000E+07	 1.00009862E+00	-7.46636344E-03
2.40000000E+07	 1.00001208E+00	-4.66012388E-04
2.50000000E+07	 1.00004013E+00	-5.97143638E-03
2.60000000E+07	 1.00002234E+00	-1.04788487E-02
2.70000000E+07	 9.99907023E-01	-3.83870400E-03
2.80000000E+07	 1.00004788E+00	-1.22905381E-02
2.90000000E+07	 9.99965259E-01	-7.00078893E-04
3.00000000E+07	 1.00011664E+00	-8.32934501E-03
3.10000000E+07	 9.99966696E-01	-3.05645232E-03
3.20000000E+07	 9.99997183E-01	-5.01835201E-03
3.30000000E+07	 9.99967740E-01	-5.60084104E-03
3.40000000E+07	 9.99967788E-01	-2.18293697E-03
3.50000000E+07	 9.99990566E-01	 4.67110781E-03
3.60000000E+07	 1.00010645E+00	-5.75524313E-03
3.70000000E+07	 9.99994017E-01	-5.97351269E-03
3.80000000E+07	 9.99995836E-01	-4.16751394E-03
3.90000000E+07	 1.00004974E+00	-9.96553081E-03
4.00000000E+07	 1.00002065E+00	-5.79680921E-03
4.10000000E+07	 1.00017780E+00	 3.22695741E-03
4.20000000E+07	 9.99959335E-01	-6.66242560E-03
4.30000000E+07	 9.99933321E-01	-9.61173119E-03
4.40000000E+07	 1.00004275E+00	-4.02212054E-03
4.50000000E+07	 9.99891126E-01	-8.42185641E-03
4.60000000E+07	 9.99940530E-01	-1.01275659E-02
4.70000000E+07	 9.99952583E-01	-3.29802065E-03
4.80000000E+07	 9.99890459E-01	-6.66064943E-03
4.90000000E+07	 1.00002377E+00	-8.28345374E-03
5.00000000E+07	 9.99977909E-01	-1.40378399E-02
5.10000000E+07	 1.00000639E+00	-1.05972986E-02
5.20000000E+07	 9.99882542E-01	-6.29720795E-03
5.30000000E+07	 1.00002957E+00	-7.46376962E-03
5.40000000E+07	 9.99973548E-01	-9.52022817E-03
5.50000000E+07	 9.99885464E-01	-3.04755014E-03
5.60000000E+07	 1.00000102E+00	-6.15328802E-03
5.70000000E+07	 1.00004485E+00	-1.04791618E-02
5.80000000E+07	 1.00001432E+00	-1.43183298E-02
5.90000000E+07	 9.99933149E-01	-6.72699000E-03
6.00000000E+07	 9.99993581E-01	-4.28598087E-03
6.10000000E+07	 9.99878854E-01	-5.74301616E-03
6.20000000E+07	 9.99932342E-01	-8.92576092E-03
6.30000000E+07	 9.99935370E-01	-1.15259822E-02
6.40000000E+07	 9.99966626E-01	-1.00859808E-02
6.50000000E+07	 9.99993917E-01	-7.45683909E-03
6.60000000E+07	 1.00000396E+00	-1.44864505E-02
6.70000000E+07	 9.99975468E-01	-1.15485213E-02
6.80000000E+07	 9.99914954E-01	-6.21966642E-03
6.90000000E+07	 9.99912294E-01	-9.73417431E-03
7.00000000E+07	 9.99909467E-01	-1.37063586E-02
7.10000000E+07	 9.99860386E-01	-7.02868880E-03
7.20000000E+07	 9.99908019E-01	-9.11570188E-03
7.30000000E+07	 1.00001726E+00	-7.87585544E-03
7.40000000E+07	 9.99772317E-01	-1.18456096E-02
7.50000000E+07	 9.99765530E-01	-6.18582809E-03
7.60000000E+07	 9.99937827E-01	-1.09855319E-02
7.70000000E+07	 9.99886312E-01	-8.76843875E-03
7.80000000E+07	 1.00000648E+00	-9.80053190E-03
7.90000000E+07	 9.99917400E-01	-1.03490268E-02
8.00000000E+07	 9.99825993E-01	-7.92368917E-03
8.10000000E+07	 9.99791439E-01	-9.16164576E-03
8.20000000E+07	 9.99727915E-01	-9.10566753E-03
8.30000000E+07	 9.99825808E-01	-5.08066877E-03
8.40000000E+07	 9.99759539E-01	-1.08612623E-02
8.50000000E+07	 9.99779827E-01	-8.93000419E-03
8.60000000E+07	 9.99912776E-01	-1.40535918E-03
8.70000000E+07	 9.99882643E-01	-1.03942621E-02
8.80000000E+07	 9.99859331E-01	-2.59963479E-03
8.90000000E+07	 9.99913714E-01	-3.05457603E-03
9.00000000E+07	 9.99833313E-01	-8.47106133E-03
9.10000000E+07	 9.99901593E-01	-9.80227538E-03
9.20000000E+07	 9.99693570E-01	-1.08044136E-02
9.30000000E+07	 9.99858754E-01	-7.55132945E-03
9.40000000E+07	 9.99870666E-01	-9.11422517E-03
9.50000000E+07	 9.99831613E-01	-4.44302036E-03
9.60000000E+07	 9.99710106E-01	-5.78135984E-03
9.70000000E+07	 9.99736767E-01	-8.87608803E-03
9.80000000E+07	 9.99756482E-01	 2.38339633E-03
9.90000000E+07	 9.99806417E-01	-6.59148571E-03
1.00000000E+08	 9.99831083E-01	-3.69018740E-03
1.01000000E+08	 9.99794427E-01	 2.68794839E-03
1.02000000E+08	 9.99865278E-01	 2.10956962E-03
1.03000000E+08	 9.99893509E-01	-5.19875360E-04
1.04000000E+08	 9.99866144E-01	-1.59998988E-03
1.05000000E+08	 9.99742029E-01	 1.62266196E-04
1.06000000E+08	 9.99868502E-01	 4.42263886E-03
1.07000000E+08	 9.99816328E-01	-2.18400187E-03
1.08000000E+08	 9.99768923E-01	-7.15611914E-04
1.09000000E+08	 9.99747014E-01	-4.84209970E-03
1.10000000E+08	 9.99753205E-01	-2.01330706E-04
1.11000000E+08	 9.99725504E-01	-1.73540087E-03
1.12000000E+08	 9.99746709E-01	 1.62212309E-03
1.13000000E+08	 9.99753404E-01	-1.02656255E-03
1.14000000E+08	 9.99891067E-01	 1.09682013E-03
1.15000000E+08	 9.99765594E-01	 4.18552427E-04
1.16000000E+08	 9.99792804E-01	 1.35456176E-03
1.17000000E+08	 9.99752709E-01	-4.74382431E-03
1.18000000E+08	 9.99811374E-01	 5.90435648E-03
1.19000000E+08	 9.99645898E-01	-3.50254892E-03
1.20000000E+08	 9.99829789E-01	 7.14242217E-03
1.21000000E+08	 9.99947118E-01	 7.83333435E-03
1.22000000E+08	 9.99871293E-01	 2.91700625E-03
1.23000000E+08	 9.99704562E-01	 2.53496884E-03
1.24000000E+08	 9.99846718E-01	-2.35557222E-03
1.25000000E+08	 9.99790873E-01	-4.49234820E-03
1.26000000E+08	 9.99832670E-01	 5.32980496E-03
1.27000000E+08	 9.99851990E-01	-1.75653061E-03
1.28000000E+08	 9.99862175E-01	 4.11240601E-03
1.29000000E+08	 9.99681217E-01	 4.24832041E-03
1.30000000E+08	 9.99659001E-01	 3.88289478E-03
1.31000000E+08	 9.99760716E-01	-9.50928973E-04
1.32000000E+08	 9.99821243E-01	 7.57886197E-03
1.33000000E+08	 9.99832314E-01	 1.05069381E-02
1.34000000E+08	 9.99854763E-01	 4.03567849E-03
1.35000000E+08	 9.99719796E-01	 1.15293394E-02
1.36000000E+08	 9.99746464E-01	 7.62108145E-03
1.37000000E+08	 9.99920410E-01	 7.70892004E-03
1.38000000E+08	 9.99752132E-01	 1.20685960E-02
1.39000000E+08	 9.99800212E-01	 6.54712185E-03
1.40000000E+08	 9.99834531E-01	 2.20867059E-03
1.41000000E+08	 9.99936348E-01	 8.48946020E-03
1.42000000E+08	 9.99804592E-01	 9.98863185E-03
1.43000000E+08	 9.99796312E-01	 8.31933727E-03
1.44000000E+08	 9.99879515E-01	 9.57730716E-03
1.45000000E+08	 9.99807765E-01	 8.12627278E-03
1.46000000E+08	 9.99757892E-01	 1.94863744E-02
1.47000000E+08	 9.99724875E-01	 1.08520087E-02
1.48000000E+08	 9.99841374E-01	 1.43822346E-02
1.49000000E+08	 9.99790502E-01	 8.58164262E-03
1.50000000E+08	 9.99887638E-01	 7.05221878E-03
1.51000000E+08	 9.99851924E-01	 1.41873162E-02
1.52000000E+08	 9.99847562E-01	 1.77303888E-02
1.53000000E+08	 9.99890542E-01	 1.31725388E-02
1.54000000E+08	 9.99933842E-01	 1.29237817E-02
1.55000000E+08	 9.99722987E-01	 2.30994329E-02
1.56000000E+08	 9.99825095E-01	 6.14084507E-03
1.57000000E+08	 9.99882480E-01	 1.68368639E-02
1.58000000E+08	 9.99863480E-01	 1.84852695E-02
1.59000000E+08	 9.99856335E-01	 1.95643105E-02
1.60000000E+08	 9.99954900E-01	 1.58178278E-02
1.61000000E+08	 1.00002578E+00	 1.41763354E-02
1.62000000E+08	 9.99933681E-01	 1.52353725E-02
1.63000000E+08	 1.00000967E+00	 1.49567666E-02
1.64000000E+08	 9.99900327E-01	 1.98101151E-02
1.65000000E+08	 9.99825759E-01	 1.43290444E-02
1.66000000E+08	 9.99953538E-01	 1.21991352E-02
1.67000000E+08	 9.99943786E-01	 1.82889833E-02
1.68000000E+08	 9.99910442E-01	 2.59083779E-02
1.69000000E+08	 1.00003792E+00	 1.12570668E-02
1.70000000E+08	 9.99939971E-01	 1.67334889E-02
1.71000000E+08	 9.99899060E-01	 2.52991221E-02
1.72000000E+08	 9.99812301E-01	 1.46768640E-02
1.73000000E+08	 9.99886770E-01	 1.90728207E-02
1.74000000E+08	 9.99992218E-01	 1.47164819E-02
1.75000000E+08	 9.99906719E-01	 1.24135330E-02
1.76000000E+08	 9.99860987E-01	 2.13299367E-02
1.77000000E+08	 9.99947434E-01	 2.11120049E-02
1.78000000E+08	 9.99951700E-01	 1.72520788E-02
1.79000000E+08	 9.99988979E-01	 1.56522608E-02
1.80000000E+08	 9.99904540E-01	 1.34430692E-02
1.81000000E+08	 1.00005834E+00	 1.44433561E-02
1.82000000E+08	 9.99948206E-01	 1.86758126E-02
1.83000000E+08	 9.99954789E-01	 1.44899631E-02
1.84000000E+08	 9.99979579E-01	 1.85032461E-02
1.85000000E+08	 9.99984750E-01	 1.35257439E-02
1.86000000E+08	 1.00006394E+00	 1.40710547E-02
1.87000000E+08	 9.99934903E-01	 1.28588967E-02
1.88000000E+08	 9.99963810E-01	 1.44165157E-02
1.89000000E+08	 9.99938182E-01	 1.86061794E-02
1.90000000E+08	 9.99960760E-01	 1.35168444E-02
1.91000000E+08	 9.99893443E-01	 1.44777432E-02
1.92000000E+08	 1.00004614E+00	 5.57891568E-03
1.93000000E+08	 9.99963153E-01	 1.75682793E-02
1.94000000E+08	 1.00002080E+00	 1.44488194E-02
1.95000000E+08	 1.00000411E+00	 1.54132844E-02
1.96000000E+08	 1.00001144E+00	 1.60767196E-02
1.97000000E+08	 1.00003226E+00	 1.29980960E-02
1.98000000E+08	 9.99919801E-01	 1.39136502E-02
1.99000000E+08	 1.00003895E+00	 5.30135756E-03
2.00000000E+08	 1.00001874E+00	 1.49493878E-02
2.01000000E+08	 9.99908962E-01	 1.47696143E-02
2.02000000E+08	 1.00004918E+00	 1.22810124E-03
2.03000000E+08	 9.99882772E-01	 1.56199119E-02
2.04000000E+08	 9.99901613E-01	 7.82257351E-03
2.05000000E+08	 1.00003447E+00	 1.07979095E-02
2.06000000E+08	 9.99936104E-01	 1.41487248E-02
2.07000000E+08	 1.00005264E+00	 1.14247252E-02
2.08000000E+08	 9.99984659E-01	 1.02769321E-02
2.09000000E+08	 1.00019477E+00	 5.08418361E-03
2.10000000E+08	 1.00009900E+00	 1.69837582E-02
2.11000000E+08	 9.99966826E-01	 7.06529043E-03
2.12000000E+08	 9.99974815E-01	 8.12972479E-03
2.13000000E+08	 9.99983214E-01	 1.01076657E-02
2.14000000E+08	 9.99883004E-01	 6.67991739E-03
2.15000000E+08	 9.99986877E-01	 1.81742353E-03
2.16000000E+08	 9.99952435E-01	 8.46027889E-03
2.17000000E+08	 1.00003207E+00	 1.13149294E-02
2.18000000E+08	 1.00000388E+00	 7.75757236E-03
2.19000000E+08	 9.99946971E-01	 8.16982339E-03
2.20000000E+08	 9.99968160E-01	 1.06809126E-02
2.21000000E+08	 9.99956331E-01	 2.95672138E-03
2.22000000E+08	 9.99972078E-01	 6.00288417E-03
2.23000000E+08	 9.99913789E-01	 4.82973958E-03
2.24000000E+08	 9.99983760E-01	 1.09527539E-02
2.25000000E+08	 9.99859689E-01	 3.66808291E-03
2.26000000E+08	 9.99915878E-01	 4.86102336E-03
2.27000000E+08	 1.00003500E+00	 3.29002822E-03
2.28000000E+08	 1.00005705E+00	 7.18917707E-03
2.29000000E+08	 9.99995208E-01	 2.56552424E-03
2.30000000E+08	 9.99884034E-01	 3.76519980E-03
2.31000000E+08	 9.99854321E-01	 6.82589452E-03
2.32000000E+08	 9.99938577E-01	 3.51447235E-03
2.33000000E+08	 9.99944425E-01	 3.77181079E-03
2.34000000E+08	 9.99956271E-01	 4.51227773E-03
2.35000000E+08	 9.99934694E-01	 2.10849231E-03
2.36000000E+08	 9.99919647E-01	 3.81475757E-03
2.37000000E+08	 9.99826033E-01	 1.78875469E-03
2.38000000E+08	 9.99854166E-01	 1.48270429E-03
2.39000000E+08	 9.99862133E-01	 3.57540362E-03
2.40000000E+08	 1.00002515E+00	 1.62942153E-03
2.41000000E+08	 9.99816386E-01	 5.07570151E-04
2.42000000E+08	 9.99978418E-01	 8.28568563E-04
2.43000000E+08	 9.99773965E-01	-5.87778230E-03
2.44000000E+08	 9.99853039E-01	 8.96754947E-03
2.45000000E+08	 9.99940511E-01	 3.06367455E-05
2.46000000E+08	 9.99832773E-01	-4.29398229E-03
2.47000000E+08	 9.99873367E-01	-4.67669513E-04
2.48000000E+08	 9.99824298E-01	 2.17022087E-03
2.49000000E+08	 9.99936541E-01	-6.05731275E-03
2.50000000E+08	 9.99788606E-01	 1.94606720E-03
2.51000000E+08	 9.99815624E-01	-5.58604768E-03
2.52000000E+08	 9.99752875E-01	-5.41248451E-03
2.53000000E+08	 9.99791649E-01	-1.43069673E-03
2.54000000E+08	 9.99702430E-01	-8.41017152E-04
2.55000000E+08	 9.99855618E-01	 1.95371991E-03
2.56000000E+08	 9.99725949E-01	 3.25114868E-03
2.57000000E+08	 9.99832927E-01	-5.67285975E-03
2.58000000E+08	 9.99867087E-01	-5.02886245E-03
2.59000000E+08	 9.99862078E-01	 1.30958686E-03
2.60000000E+08	 9.99698798E-01	-7.47614927E-04
2.61000000E+08	 9.99864023E-01	-5.44291210E-03
2.62000000E+08	 9.99709958E-01	-3.04504750E-03
2.63000000E+08	 9.99761342E-01	-4.83185814E-03
2.64000000E+08	 9.99775857E-01	-8.12088025E-03
2.65000000E+08	 9.99831330E-01	-9.02500378E-03
2.66000000E+08	 9.99721729E-01	-2.95264448E-03
2.67000000E+08	 9.99804648E-01	-2.60485454E-03
2.68000000E+08	 9.99792603E-01	-2.56355604E-03
2.69000000E+08	 9.99805555E-01	-1.03912083E-02
2.70000000E+08	 9.99669296E-01	-6.88547001E-03
2.71000000E+08	 9.99542257E-01	-2.30716401E-03
2.72000000E+08	 9.99689163E-01	-2.91201793E-03
2.73000000E+08	 9.99781038E-01	 3.08577920E-03
2.74000000E+08	 9.99733252E-01	-6.26922032E-03
2.75000000E+08	 9.99668039E-01	-5.46592548E-03
2.76000000E+08	 9.99664681E-01	-3.72592709E-03
2.77000000E+08	 9.99676912E-01	-4.27401842E-04
2.78000000E+08	 9.99731623E-01	-7.54251717E-03
2.79000000E+08	 9.99690993E-01	-7.06794856E-03
2.80000000E+08	 9.99726921E-01	-5.78396304E-03
2.81000000E+08	 9.99863509E-01	-4.37216029E-03
2.82000000E+08	 9.99766829E-01	-6.60050650E-03
2.83000000E+08	 9.99579422E-01	-1.00419307E-02
2.84000000E+08	 9.99623082E-01	-1.96556763E-03
2.85000000E+08	 9.99626818E-01	-2.49224401E-03
2.86000000E+08	 9.99694235E-01	-4.98581730E-03
2.87000000E+08	 9.99680038E-01	 3.19736437E-04
2.88000000E+08	 9.99633907E-01	 4.36579405E-05
2.89000000E+08	 9.99745662E-01	-4.86927059E-03
2.90000000E+08	 9.99768632E-01	-7.97968574E-03
2.91000000E+08	 9.99656933E-01	-2.62231606E-03
2.92000000E+08	 9.99741061E-01	-4.61400970E-03
2.93000000E+08	 9.99595475E-01	 2.57144477E-03
2.94000000E+08	 9.99701980E-01	-8.48047573E-03
2.95000000E+08	 9.99662510E-01	 3.94697158E-03
2.96000000E+08	 9.99677096E-01	 5.39328336E-03
2.97000000E+08	 9.99649691E-01	 1.67145634E-03
2.98000000E+08	 9.99774878E-01	-4.91661110E-03
2.99000000E+08	 9.99650571E-01	-3.97356519E-03
3.00000000E+08	 9.99784163E-01	-4.65752966E-03
3.01000000E+08	 9.99632816E-01	 1.67446115E-03
3.02000000E+08	 9.99749179E-01	-7.99565555E-03
3.03000000E+08	 9.99653060E-01	-4.44015148E-05
3.04000000E+08	 9.99632019E-01	 5.83477484E-03
3.05000000E+08	 9.99631503E-01	 5.03136232E-03
3.06000000E+08	 9.99752674E-01	 1.19681797E-03
3.07000000E+08	 9.99628143E-01	 3.68502294E-03
3.08000000E+08	 9.99631961E-01	 6.43746522E-03
3.09000000E+08	 9.99692011E-01	 4.92488734E-03
3.10000000E+08	 9.99726322E-01	 7.54728859E-03
3.11000000E+08	 9.99659626E-01	 8.00477975E-03
3.12000000E+08	 9.99671108E-01	 5.27520140E-03
3.13000000E+08	 9.99641455E-01	 2.96686341E-03
3.14000000E+08	 9.99586257E-01	 7.81375350E-04
3.15000000E+08	 9.99737076E-01	 8.96562085E-03
3.16000000E+08	 9.99705733E-01	 7.60880865E-03
3.17000000E+08	 9.99672796E-01	 9.29837593E-03
3.18000000E+08	 9.99645705E-01	 6.82681100E-03
3.19000000E+08	 9.99696286E-01	 1.30494096E-02
3.20000000E+08	 9.99642622E-01	 9.66669392E-03
3.21000000E+08	 9.99825311E-01	 6.71133208E-03
3.22000000E+08	 9.99556420E-01	 6.45551335E-03
3.23000000E+08	 9.99613219E-01	 1.18508263E-02
3.24000000E+08	 9.99665296E-01	 1.20661312E-02
3.25000000E+08	 9.99693841E-01	 1.64175942E-02
3.26000000E+08	 9.99756277E-01	 1.00890258E-02
3.27000000E+08	 9.99763745E-01	 2.00318812E-02
3.28000000E+08	 9.99748749E-01	 1.35258932E-02
3.29000000E+08	 9.99575421E-01	 1.10839489E-02
3.30000000E+08	 9.99765873E-01	 1.46023622E-02
3.31000000E+08	 9.99739852E-01	 1.23891634E-02
3.32000000E+08	 9.99757431E-01	 1.22225254E-02
3.33000000E+08	 9.99760638E-01	 1.68656719E-02
3.34000000E+08	 9.99785629E-01	 1.99785849E-02
3.35000000E+08	 9.99671652E-01	 1.57130482E-02
3.36000000E+08	 9.99628939E-01	 1.42034219E-02
3.37000000E+08	 9.99615406E-01	 1.65199894E-02
3.38000000E+08	 9.99835934E-01	 2.00233894E-02
3.39000000E+08	 9.99686980E-01	 1.55653455E-02
3.40000000E+08	 9.99849970E-01	 1.51972047E-02
3.41000000E+08	 9.99694565E-01	 2.17218119E-02
3.42000000E+08	 9.99705193E-01	 2.70512225E-02
3.43000000E+08	 9.99761329E-01	 1.99183054E-02
3.44000000E+08	 9.99718357E-01	 1.61869309E-02
3.45000000E+08	 9.99818444E-01	 2.10821286E-02
3.46000000E+08	 9.99736961E-01	 2.31041857E-02
3.47000000E+08	 9.99796283E-01	 2.82238374E-02
3.48000000E+08	 9.99797091E-01	 1.71088974E-02
3.49000000E+08	 9.99795960E-01	 2.52361937E-02
3.50000000E+08	 9.99841044E-01	 1.90692963E-02
3.51000000E+08	 9.99770134E-01	 2.88039832E-02
3.52000000E+08	 9.99805796E-01	 3.06342355E-02
3.53000000E+08	 9.99849065E-01	 2.18316961E-02
3.54000000E+08	 9.99813541E-01	 3.04971291E-02
3.55000000E+08	 9.99784635E-01	 2.42842731E-02
3.56000000E+08	 9.99722982E-01	 3.12474096E-02
3.57000000E+08	 9.99903509E-01	 2.64364944E-02
3.58000000E+08	 9.99818389E-01	 3.29992719E-02
3.59000000E+08	 9.99917674E-01	 2.91899983E-02
3.60000000E+08	 9.99912365E-01	 3.31327335E-02
3.61000000E+08	 9.99778275E-01	 2.59200497E-02
3.62000000E+08	 9.99838188E-01	 3.01749811E-02
3.63000000E+08	 9.99824296E-01	 3.21171006E-02
3.64000000E+08	 9.99898578E-01	 3.04554355E-02
3.65000000E+08	 9.99812203E-01	 3.37065810E-02
3.66000000E+08	 9.99848809E-01	 3.13367640E-02
3.67000000E+08	 9.99984904E-01	 3.36833552E-02
3.68000000E+08	 9.99831181E-01	 3.47947777E-02
3.69000000E+08	 9.99882744E-01	 3.42669752E-02
3.70000000E+08	 9.99973899E-01	 3.27851387E-02
3.71000000E+08	 9.99976330E-01	 3.27545471E-02
3.72000000E+08	 9.99912971E-01	 3.35444315E-02
3.73000000E+08	 9.99881228E-01	 2.74965829E-02
3.74000000E+08	 9.99942015E-01	 3.24274430E-02
3.75000000E+08	 9.99928497E-01	 3.39595894E-02
3.76000000E+08	 9.99996055E-01	 3.13036967E-02
3.77000000E+08	 9.99971722E-01	 3.07762560E-02
3.78000000E+08	 9.99824417E-01	 3.79508220E-02
3.79000000E+08	 9.99944221E-01	 3.84560693E-02
3.80000000E+08	 9.99960342E-01	 3.68650930E-02
3.81000000E+08	 9.99921704E-01	 3.28087987E-02
3.82000000E+08	 9.99907360E-01	 2.75350213E-02
3.83000000E+08	 9.99994388E-01	 3.57252720E-02
3.84000000E+08	 9.99966562E-01	 3.01341917E-02
3.85000000E+08	 1.00013838E+00	 4.05559300E-02
3.86000000E+08	 9.99929368E-01	 3.66687541E-02
3.87000000E+08	 9.99841214E-01	 3.58488921E-02
3.88000000E+08	 1.00001923E+00	 3.37444509E-02
3.89000000E+08	 9.99943801E-01	 3.63112132E-02
3.90000000E+08	 9.99814246E-01	 3.38068218E-02
3.91000000E+08	 9.99967576E-01	 3.37773801E-02
3.92000000E+08	 9.99981963E-01	 3.23321078E-02
3.93000000E+08	 1.00004106E+00	 3.52797970E-02
3.94000000E+08	 9.99961968E-01	 3.33148780E-02
3.95000000E+08	 1.00001253E+00	 3.21245038E-02
3.96000000E+08	 9.99989526E-01	 3.55724465E-02
3.97000000E+08	 1.00007170E+00	 3.15671767E-02
3.98000000E+08	 1.00001049E+00	 3.53779693E-02
3.99000000E+08	 1.00000152E+00	 3.26480828E-02
4.00000000E+08	 9.99927148E-01	 3.33211231E-02
4.01000000E+08	 1.00003825E+00	 3.22867024E-02
4.02000000E+08	 9.99960066E-01	 4.14091719E-02
4.03000000E+08	 9.99910094E-01	 3.50022964E-02
4.04000000E+08	 9.99975701E-01	 3.47905275E-02
4.05000000E+08	 1.00006135E+00	 3.84914985E-02
4.06000000E+08	 1.00006978E+00	 3.39283885E-02
4.07000000E+08	 1.00003501E+00	 3.83474624E-02
4.08000000E+08	 9.99906721E-01	 3.79347682E-02
4.09000000E+08	 1.00000827E+00	 3.26426044E-02
4.10000000E+08	 1.00000300E+00	 3.96432153E-02
4.11000000E+08	 9.99954889E-01	 3.80439589E-02
4.12000000E+08	 9.99932371E-01	 3.42022870E-02
4.13000000E+08	 9.99969121E-01	 3.71756480E-02
4.14000000E+08	 9.99931275E-01	 3.70403553E-02
4.15000000E+08	 9.99959561E-01	 3.48568663E-02
4.16000000E+08	 1.00010459E+00	 3.61687025E-02
4.17000000E+08	 1.00002457E+00	 3.60448765E-02
4.18000000E+08	 1.00004027E+00	 4.01565201E-02
4.19000000E+08	 1.00000202E+00	 2.39717156E-02
4.20000000E+08	 1.00002854E+00	 3.81723831E-02
4.21000000E+08	 9.99914567E-01	 2.61840630E-02
4.22000000E+08	 9.99965709E-01	 3.45556934E-02
4.23000000E+08	 9.99976162E-01	 3.28642109E-02
4.24000000E+08	 1.00004741E+00	 3.29716730E-02
4.25000000E+08	 1.00000603E+00	 3.45376265E-02
4.26000000E+08	 9.99833333E-01	 2.89799230E-02
4.27000000E+08	 9.99953303E-01	 2.61154068E-02
4.28000000E+08	 9.99822993E-01	 3.14843464E-02
4.29000000E+08	 9.99869136E-01	 2.85962927E-02
4.30000000E+08	 1.00003706E+00	 3.27252718E-02
4.31000000E+08	 1.00007205E+00	 2.71527627E-02
4.32000000E+08	 9.99943715E-01	 2.86969534E-02
4.33000000E+08	 9.99962478E-01	 2.99847062E-02
4.34000000E+08	 9.99815158E-01	 3.00541704E-02
4.35000000E+08	 9.99939964E-01	 3.22584305E-02
4.36000000E+08	 9.99818930E-01	 2.76547243E-02
4.37000000E+08	 9.99815981E-01	 2.66287163E-02
4.38000000E+08	 9.99920347E-01	 2.69996374E-02
4.39000000E+08	 9.99884528E-01	 3.05019614E-02
4.40000000E+08	 9.99919906E-01	 3.30836285E-02
4.41000000E+08	 1.00001731E+00	 1.88525326E-02
4.42000000E+08	 9.99856955E-01	 2.30065892E-02
4.43000000E+08	 9.99874670E-01	 2.59967627E-02
4.44000000E+08	 9.99901586E-01	 2.32813671E-02
4.45000000E+08	 9.99872422E-01	 2.56537345E-02
4.46000000E+08	 9.99862743E-01	 2.79369274E-02
4.47000000E+08	 9.99914049E-01	 2.35944049E-02
4.48000000E+08	 9.99751366E-01	 1.79156320E-02
4.49000000E+08	 9.99813181E-01	 2.58939930E-02
4.50000000E+08	 9.99825122E-01	 2.37989229E-02
4.51000000E+08	 9.99843366E-01	 2.37976235E-02
4.52000000E+08	 9.99868992E-01	 2.63010020E-02
4.53000000E+08	 9.99837322E-01	 1.78168760E-02
4.54000000E+08	 9.99788185E-01	 2.07081295E-02
4.55000000E+08	 9.99919198E-01	 2.40946743E-02
4.56000000E+08	 9.99789178E-01	 2.02944384E-02
4.57000000E+08	 9.99846013E-01	 2.03492383E-02
4.58000000E+08	 9.99724075E-01	 2.65819716E-02
4.59000000E+08	 9.99907249E-01	 2.00562454E-02
4.60000000E+08	 9.99806745E-01	 2.85387016E-02
4.61000000E+08	 9.99758978E-01	 2.69374393E-02
4.62000000E+08	 9.99710258E-01	 2.12327863E-02
4.63000000E+08	 9.99872254E-01	 2.42033834E-02
4.64000000E+08	 9.99870092E-01	 1.99779443E-02
4.65000000E+08	 9.99764164E-01	 2.26724683E-02
4.66000000E+08	 9.99819337E-01	 1.94241841E-02
4.67000000E+08	 9.99905720E-01	 2.69247591E-02
4.68000000E+08	 9.99912385E-01	 1.89701074E-02
4.69000000E+08	 9.99764275E-01	 1.68163321E-02
4.70000000E+08	 9.99787213E-01	 1.44551586E-02
4.71000000E+08	 9.99776381E-01	 2.38597725E-02
4.72000000E+08	 9.99753527E-01	 2.37466917E-02
4.73000000E+08	 9.99736114E-01	 2.08290294E-02
4.74000000E+08	 9.99656220E-01	 2.15796470E-02
4.75000000E+08	 9.99677675E-01	 2.04505689E-02
4.76000000E+08	 9.99762977E-01	 2.12792831E-02
4.77000000E+08	 9.99687402E-01	 1.70425217E-02
4.78000000E+08	 9.99788136E-01	 2.04161161E-02
4.79000000E+08	 9.99639807E-01	 1.57762826E-02
4.80000000E+08	 9.99705355E-01	 1.98029625E-02
4.81000000E+08	 9.99783779E-01	 1.50364072E-02
4.82000000E+08	 9.99734171E-01	 1.77768782E-02
4.83000000E+08	 9.99618389E-01	 2.12721619E-02
4.84000000E+08	 9.99635890E-01	 2.21049190E-02
4.85000000E+08	 9.99732577E-01	 1.43525197E-02
4.86000000E+08	 9.99730651E-01	 2.25718893E-02
4.87000000E+08	 9.99708727E-01	 1.36223317E-02
4.88000000E+08	 9.99648070E-01	 1.54045509E-02
4.89000000E+08	 9.99581350E-01	 1.78929315E-02
4.90000000E+08	 9.99739481E-01	 1.77236135E-02
4.91000000E+08	 9.99664130E-01	 1.40267060E-02
4.92000000E+08	 9.99676749E-01	 1.73644901E-02
4.93000000E+08	 9.99669091E-01	 2.03083272E-02
4.94000000E+08	 9.99729170E-01	 1.51666146E-02
4.95000000E+08	 9.99644902E-01	 2.24714230E-02
4.96000000E+08	 9.99628928E-01	 1.85019837E-02
4.97000000E+08	 9.99598916E-01	 1.92454634E-02
4.98000000E+08	 9.99706509E-01	 1.62470376E-02
4.99000000E+08	 9.99653064E-01	 1.76671832E-02
5.00000000E+08	 9.99676688E-01	 2.17160610E-02
5.01000000E+08	 9.99619442E-01	 1.73666246E-02
5.02000000E+08	 9.99782474E-01	 2.66312553E-02
5.03000000E+08	 9.99692363E-01	 2.37311738E-02
5.04000000E+08	 9.99649590E-01	 1.54581253E-02
5.05000000E+08	 9.99663273E-01	 1.88561595E-02
5.06000000E+08	 9.99587572E-01	 2.19331100E-02
5.07000000E+08	 9.99661772E-01	 1.75095443E-02
5.08000000E+08	 9.99590631E-01	 1.95166831E-02
5.09000000E+08	 9.99716428E-01	 1.31390353E-02
5.10000000E+08	 9.99693605E-01	 2.08833849E-02
5.11000000E+08	 9.99702832E-01	 1.59938687E-02
5.12000000E+08	 9.99734240E-01	 2.18411766E-02
5.13000000E+08	 9.99753116E-01	 1.59151890E-02
5.14000000E+08	 9.99640232E-01	 2.03453523E-02
5.15000000E+08	 9.99534281E-01	 2.37009348E-02
5.16000000E+08	 9.99650520E-01	 2.48516792E-02
5.17000000E+08	 9.99751009E-01	 1.82470139E-02
5.18000000E+08	 9.99671382E-01	 1.87634971E-02
5.19000000E+08	 9.99634343E-01	 2.03647153E-02
5.20000000E+08	 9.99646503E-01	 1.50424723E-02
5.21000000E+08	 9.99630081E-01	 1.85097835E-02
5.22000000E+08	 9.99544029E-01	 2.02711043E-02
5.23000000E+08	 9.99676828E-01	 2.01738386E-02
5.24000000E+08	 9.99742863E-01	 2.69034548E-02
5.25000000E+08	 9.99844303E-01	 2.12408689E-02
5.26000000E+08	 9.99703341E-01	 1.78789144E-02
5.27000000E+08	 9.99591447E-01	 2.73255538E-02
5.28000000E+08	 9.99736223E-01	 2.46718096E-02
5.29000000E+08	 9.99817375E-01	 2.06278743E-02
5.30000000E+08	 9.99572260E-01	 2.30199493E-02
5.31000000E+08	 9.99592143E-01	 2.13326959E-02
5.32000000E+08	 9.99744447E-01	 1.72567905E-02
5.33000000E+08	 9.99709120E-01	 1.96158712E-02
5.34000000E+08	 9.99743809E-01	 1.64601852E-02
5.35000000E+08	 9.99810436E-01	 2.50072820E-02
5.36000000E+08	 9.99660919E-01	 2.05862569E-02
5.37000000E+08	 9.99756732E-01	 2.15670937E-02
5.38000000E+08	 9.99680596E-01	 2.44647662E-02
5.39000000E+08	 9.99759411E-01	 2.17251725E-02
5.40000000E+08	 9.99748810E-01	 2.49199380E-02
5.41000000E+08	 9.99737102E-01	 2.38789555E-02
5.42000000E+08	 9.99763402E-01	 2.89248999E-02
5.43000000E+08	 9.99639803E-01	 2.01795869E-02
5.44000000E+08	 9.99654663E-01	 2.11029829E-02
5.45000000E+08	 9.99804751E-01	 2.64468799E-02
5.46000000E+08	 9.99646179E-01	 3.10278576E-02
5.47000000E+08	 9.99787132E-01	 2.76527705E-02
5.48000000E+08	 9.99826093E-01	 3.17502478E-02
5.49000000E+08	 9.99802973E-01	 2.27007730E-02
5.50000000E+08	 9.99733026E-01	 3.33673272E-02
5.51000000E+08	 9.99778650E-01	 2.64600560E-02
5.52000000E+08	 9.99839254E-01	 3.49461732E-02
5.53000000E+08	 9.99812995E-01	 2.92739404E-02
5.54000000E+08	 9.99813316E-01	 2.75026252E-02
5.55000000E+08	 9.99745098E-01	 3.35192122E-02
5.56000000E+08	 9.99826732E-01	 3.15077169E-02
5.57000000E+08	 9.99766789E-01	 3.60628727E-02
5.58000000E+08	 9.99722750E-01	 2.47223187E-02
5.59000000E+08	 9.99690796E-01	 2.48391554E-02
5.60000000E+08	 9.99846188E-01	 2.47071156E-02
5.61000000E+08	 9.99897674E-01	 2.96482639E-02
5.62000000E+08	 9.99883790E-01	 2.62185935E-02
5.63000000E+08	 9.99801165E-01	 2.99135182E-02
5.64000000E+08	 9.99818095E-01	 3.32495267E-02
5.65000000E+08	 9.99908321E-01	 2.73869396E-02
5.66000000E+08	 9.99848462E-01	 3.26541176E-02
5.67000000E+08	 9.99985193E-01	 2.38510743E-02
5.68000000E+08	 9.99889239E-01	 3.19905744E-02
5.69000000E+08	 9.99912880E-01	 3.00935618E-02
5.70000000E+08	 9.99880942E-01	 2.55306360E-02
5.71000000E+08	 9.99945158E-01	 3.07647079E-02
5.72000000E+08	 9.99839278E-01	 3.03036363E-02
5.73000000E+08	 9.99877515E-01	 2.75706565E-02
5.74000000E+08	 9.99890815E-01	 3.82627366E-02
5.75000000E+08	 9.99937013E-01	 3.26597222E-02
5.76000000E+08	 9.99874950E-01	 3.24270366E-02
5.77000000E+08	 9.99907381E-01	 3.47671443E-02
5.78000000E+08	 9.99847480E-01	 2.72789604E-02
5.79000000E+08	 9.99896566E-01	 3.25580988E-02
5.80000000E+08	 9.99909476E-01	 3.10094635E-02
5.81000000E+08	 9.99859246E-01	 3.22141515E-02
5.82000000E+08	 9.99860190E-01	 3.56631134E-02
5.83000000E+08	 1.00000814E+00	 2.89022241E-02
5.84000000E+08	 9.99970361E-01	 3.04093922E-02
5.85000000E+08	 9.99793381E-01	 3.22050281E-02
5.86000000E+08	 1.00001550E+00	 3.21056543E-02
5.87000000E+08	 9.99962453E-01	 3.10438727E-02
5.88000000E+08	 1.00001483E+00	 2.38081933E-02
5.89000000E+08	 9.99834630E-01	 3.25108543E-02
5.90000000E+08	 9.99972973E-01	 3.55139257E-02
5.91000000E+08	 9.99998766E-01	 2.66893740E-02
5.92000000E+08	 9.99840193E-01	 3.26862950E-02
5.93000000E+08	 1.00007654E+00	 3.37522459E-02
5.94000000E+08	 9.99919883E-01	 3.35372368E-02
5.95000000E+08	 9.99946250E-01	 3.19187709E-02
5.96000000E+08	 1.00004392E+00	 2.88995513E-02
5.97000000E+08	 9.99940990E-01	 3.19164680E-02
5.98000000E+08	 9.99973216E-01	 3.20697532E-02
5.99000000E+08	 9.99989711E-01	 3.23419473E-02
6.00000000E+08	 1.00001766E+00	 3.33536004E-02
6.01000000E+08	 9.99879033E-01	 3.04173089E-02
6.02000000E+08	 9.99908753E-01	 3.62691174E-02
6.03000000E+08	 9.99989214E-01	 3.68755925E-02
6.04000000E+08	 1.00008912E+00	 2.85750188E-02
6.05000000E+08	 9.99891612E-01	 3.01194609E-02
6.06000000E+08	 9.99961472E-01	 3.65259967E-02
6.07000000E+08	 9.99960548E-01	 3.23682171E-02
6.08000000E+08	 1.00002746E+00	 3.33106312E-02
6.09000000E+08	 9.99905446E-01	 2.96218914E-02
6.10000000E+08	 9.99987320E-01	 3.45143062E-02
6.11000000E+08	 9.99915939E-01	 3.24025068E-02
6.12000000E+08	 9.99893842E-01	 3.79716462E-02
6.13000000E+08	 9.99930828E-01	 3.08020051E-02
6.14000000E+08	 9.99847504E-01	 3.36813017E-02
6.15000000E+08	 9.99887640E-01	 3.05775674E-02
6.16000000E+08	 9.99870028E-01	 2.95901040E-02
6.17000000E+08	 1.00002258E+00	 3.36408896E-02
6.18000000E+08	 9.99919879E-01	 2.84473598E-02
6.19000000E+08	 1.00009829E+00	 3.04651006E-02
6.20000000E+08	 1.00002392E+00	 3.54409651E-02
6.21000000E+08	 9.99974769E-01	 3.29592014E-02
6.22000000E+08	 9.99841037E-01	 3.04944784E-02
6.23000000E+08	 9.99880539E-01	 3.11146080E-02
6.24000000E+08	 9.99918871E-01	 3.24948578E-02
6.25000000E+08	 9.99939046E-01	 3.54158793E-02
6.26000000E+08	 9.99919533E-01	 3.18852938E-02
6.27000000E+08	 1.00000642E+00	 3.01960271E-02
6.28000000E+08	 9.99990380E-01	 3.44355617E-02
6.29000000E+08	 9.99863557E-01	 3.55397032E-02
6.30000000E+08	 9.99989359E-01	 3.29800439E-02
6.31000000E+08	 1.00000475E+00	 2.97295725E-02
6.32000000E+08	 9.99940413E-01	 3.83820711E-02
6.33000000E+08	 9.99945257E-01	 3.36690374E-02
6.34000000E+08	 9.99889716E-01	 3.73496708E-02
6.35000000E+08	 9.99863471E-01	 3.53179950E-02
6.36000000E+08	 9.99894886E-01	 3.05902059E-02
6.37000000E+08	 1.00004963E+00	 2.77186790E-02
6.38000000E+08	 9.99989970E-01	 3.64091475E-02
6.39000000E+08	 1.00001390E+00	 2.61294998E-02
6.40000000E+08	 9.99896221E-01	 3.43431334E-02
6.41000000E+08	 9.99798798E-01	 3.08426583E-02
6.42000000E+08	 9.99849972E-01	 2.49255270E-02
6.43000000E+08	 9.99790023E-01	 3.39006606E-02
6.44000000E+08	 9.99883808E-01	 2.84859755E-02
6.45000000E+08	 9.99802643E-01	 2.88215653E-02
6.46000000E+08	 9.99831169E-01	 2.70762553E-02
6.47000000E+08	 9.99804298E-01	 2.78354473E-02
6.48000000E+08	 9.99894733E-01	 3.28970757E-02
6.49000000E+08	 9.99773736E-01	 3.26651942E-02
6.50000000E+08	 9.99830386E-01	 2.39657152E-02
6.51000000E+08	 9.99764882E-01	 2.64287603E-02
6.52000000E+08	 9.99747606E-01	 2.68746294E-02
6.53000000E+08	 9.99887832E-01	 3.05786883E-02
6.54000000E+08	 9.99731153E-01	 3.31393450E-02
6.55000000E+08	 9.99790735E-01	 3.26857718E-02
6.56000000E+08	 9.99835178E-01	 2.95921339E-02
6.57000000E+08	 9.99742772E-01	 2.62930023E-02
6.58000000E+08	 9.99770476E-01	 2.97815005E-02
6.59000000E+08	 9.99772004E-01	 2.93922873E-02
6.60000000E+08	 9.99810079E-01	 2.98775583E-02
6.61000000E+08	 9.99758791E-01	 2.47056018E-02
6.62000000E+08	 9.99733394E-01	 3.00321604E-02
6.63000000E+08	 9.99693121E-01	 3.27177639E-02
6.64000000E+08	 9.99669199E-01	 2.84111294E-02
6.65000000E+08	 9.99778177E-01	 3.12872826E-02
6.66000000E+08	 9.99704418E-01	 2.81702783E-02
6.67000000E+08	 9.99733977E-01	 2.66010685E-02
6.68000000E+08	 9.99658529E-01	 2.86748527E-02
6.69000000E+08	 9.99603707E-01	 3.25354927E-02
6.70000000E+08	 9.99699779E-01	 3.09550991E-02
6.71000000E+08	 9.99746376E-01	 2.81937964E-02
6.72000000E+08	 9.99586047E-01	 2.33210216E-02
6.73000000E+08	 9.99630918E-01	 2.87562829E-02
6.74000000E+08	 9.99671317E-01	 2.64750436E-02
6.75000000E+08	 9.99515687E-01	 2.95405800E-02
6.76000000E+08	 9.99542767E-01	 2.89269583E-02
6.77000000E+08	 9.99704601E-01	 2.72388824E-02
6.78000000E+08	 9.99645464E-01	 2.43017998E-02
6.79000000E+08	 9.99614440E-01	 2.62762509E-02
6.80000000E+08	 9.99564678E-01	 2.65177141E-02
6.81000000E+08	 9.99624592E-01	 2.21709727E-02
6.82000000E+08	 9.99672582E-01	 2.52056927E-02
6.83000000E+08	 9.99538806E-01	 2.10246604E-02
6.84000000E+08	 9.99587296E-01	 2.66953180E-02
6.85000000E+08	 9.99559810E-01	 2.53158201E-02
6.86000000E+08	 9.99564469E-01	 2.73143387E-02
6.87000000E+08	 9.99500285E-01	 2.18046405E-02
6.88000000E+08	 9.99533788E-01	 2.20519190E-02
6.89000000E+08	 9.99574154E-01	 2.52778819E-02
6.90000000E+08	 9.99504004E-01	 2.38691781E-02
6.91000000E+08	 9.99560308E-01	 1.57506255E-02
6.92000000E+08	 9.99460941E-01	 2.36832137E-02
6.93000000E+08	 9.99500849E-01	 2.03591835E-02
6.94000000E+08	 9.99646089E-01	 2.96729994E-02
6.95000000E+08	 9.99458492E-01	 2.43467617E-02
6.96000000E+08	 9.99517593E-01	 2.83137936E-02
6.97000000E+08	 9.99477465E-01	 2.19913055E-02
6.98000000E+08	 9.99588324E-01	 2.45008914E-02
6.99000000E+08	 9.99381021E-01	 3.21221309E-02
7.00000000E+08	 9.99574280E-01	 2.99834558E-02
7.01000000E+08	 9.99418409E-01	 2.05089494E-02
7.02000000E+08	 9.99478084E-01	 1.84354907E-02
7.03000000E+08	 9.99445718E-01	 2.25005236E-02
7.04000000E+08	 9.99380672E-01	 2.48087614E-02
7.05000000E+08	 9.99407110E-01	 2.05007325E-02
7.06000000E+08	 9.99370938E-01	 2.64994985E-02
7.07000000E+08	 9.99543930E-01	 2.34950116E-02
7.08000000E+08	 9.99439705E-01	 2.21379391E-02
7.09000000E+08	 9.99444590E-01	 2.45407048E-02
7.10000000E+08	 9.99538226E-01	 2.33405508E-02
7.11000000E+08	 9.99328110E-01	 2.49752851E-02
7.12000000E+08	 9.99403095E-01	 2.66976267E-02
7.13000000E+08	 9.99350985E-01	 2.59088712E-02
7.14000000E+08	 9.99499177E-01	 2.93741300E-02
7.15000000E+08	 9.99359132E-01	 2.53284859E-02
7.16000000E+08	 9.99365425E-01	 2.54918518E-02
7.17000000E+08	 9.99406149E-01	 3.36568445E-02
7.18000000E+08	 9.99519670E-01	 2.13542015E-02
7.19000000E+08	 9.99489306E-01	 2.35153963E-02
7.20000000E+08	 9.99452490E-01	 3.25835218E-02
7.21000000E+08	 9.99500696E-01	 2.50509605E-02
7.22000000E+08	 9.99416412E-01	 2.40936935E-02
7.23000000E+08	 9.99375949E-01	 2.61055148E-02
7.24000000E+08	 9.99582710E-01	 2.82502210E-02
7.25000000E+08	 9.99428308E-01	 3.11590549E-02
7.26000000E+08	 9.99488884E-01	 2.21290091E-02
7.27000000E+08	 9.99458658E-01	 2.31166306E-02
7.28000000E+08	 9.99486053E-01	 2.90155079E-02
7.29000000E+08	 9.99410944E-01	 2.80851880E-02
7.30000000E+08	 9.99501583E-01	 2.90380616E-02
7.31000000E+08	 9.99415958E-01	 2.95036378E-02
7.32000000E+08	 9.99504551E-01	 2.81629932E-02
7.33000000E+08	 9.99500620E-01	 3.13072975E-02
7.34000000E+08	 9.99505029E-01	 2.50223009E-02
7.35000000E+08	 9.99452395E-01	 2.83357328E-02
7.36000000E+08	 9.99530409E-01	 2.54888551E-02
7.37000000E+08	 9.99457351E-01	 2.97753050E-02
7.38000000E+08	 9.99498650E-01	 2.78418355E-02
7.39000000E+08	 9.99372127E-01	 2.44766047E-02
7.40000000E+08	 9.99494133E-01	 2.50056422E-02
7.41000000E+08	 9.99537163E-01	 3.18193570E-02
7.42000000E+08	 9.99500990E-01	 3.37046141E-02
7.43000000E+08	 9.99478233E-01	 2.78516494E-02
7.44000000E+08	 9.99498136E-01	 2.54901481E-02
7.45000000E+08	 9.99675618E-01	 2.15409503E-02
7.46000000E+08	 9.99439535E-01	 2.36708751E-02
7.47000000E+08	 9.99624714E-01	 2.68655878E-02
7.48000000E+08	 9.99454705E-01	 2.33226674E-02
7.49000000E+08	 9.99507807E-01	 2.53372788E-02
7.50000000E+08	 9.99578360E-01	 3.01670533E-02
7.51000000E+08	 9.99662640E-01	 2.25924927E-02
7.52000000E+08	 9.99526002E-01	 2.04073408E-02
7.53000000E+08	 9.99548866E-01	 2.31945816E-02
7.54000000E+08	 9.99488769E-01	 2.36945508E-02
7.55000000E+08	 9.99626167E-01	 2.46656716E-02
7.56000000E+08	 9.99573994E-01	 2.37984297E-02
7.57000000E+08	 9.99619037E-01	 2.02640537E-02
7.58000000E+08	 9.99619575E-01	 2.64166224E-02
7.59000000E+08	 9.99605651E-01	 2.26574590E-02
7.60000000E+08	 9.99524564E-01	 2.33103150E-02
7.61000000E+08	 9.99551080E-01	 2.17504647E-02
7.62000000E+08	 9.99653822E-01	 2.40827872E-02
7.63000000E+08	 9.99667868E-01	 2.25885158E-02
7.64000000E+08	 9.99700165E-01	 2.67411619E-02
7.65000000E+08	 9.99693284E-01	 1.87204249E-02
7.66000000E+08	 9.99677538E-01	 2.79601684E-02
7.67000000E+08	 9.99712205E-01	 2.64465446E-02
7.68000000E+08	 9.99609754E-01	 2.50921574E-02
7.69000000E+08	 9.99601752E-01	 2.34269245E-02
7.70000000E+08	 9.99681547E-01	 1.93917612E-02
7.71000000E+08	 9.99707752E-01	 2.24666829E-02
7.72000000E+08	 9.99572445E-01	 2.62574790E-02
7.73000000E+08	 9.99623868E-01	 1.92642262E-02
7.74000000E+08	 9.99606936E-01	 1.78478245E-02
7.75000000E+08	 9.99677801E-01	 2.01837720E-02
7.76000000E+08	 9.99561389E-01	 2.47816213E-02
7.77000000E+08	 9.99644860E-01	 1.92245515E-02
7.78000000E+08	 9.99713043E-01	 2.03050090E-02
7.79000000E+08	 9.99590212E-01	 2.14510949E-02
7.80000000E+08	 9.99655286E-01	 1.76703387E-02
7.81000000E+08	 9.99697068E-01	 2.30918700E-02
7.82000000E+08	 9.99840862E-01	 2.04769110E-02
7.83000000E+08	 9.99671069E-01	 2.27387978E-02
7.84000000E+08	 9.99681391E-01	 2.38860027E-02
7.85000000E+08	 9.99700077E-01	 1.89536223E-02
7.86000000E+08	 9.99660517E-01	 1.97423337E-02
7.87000000E+08	 9.99585794E-01	 1.64905366E-02
7.88000000E+08	 9.99750720E-01	 1.95363774E-02
7.89000000E+08	 9.99709236E-01	 2.43829720E-02
7.90000000E+08	 9.99615757E-01	 2.01392496E-02
7.91000000E+08	 9.99636485E-01	 2.03638281E-02
7.92000000E+08	 9.99672744E-01	 2.08426924E-02
7.93000000E+08	 9.99806415E-01	 1.93862365E-02
7.94000000E+08	 9.99714866E-01	 1.99921638E-02
7.95000000E+08	 9.99782358E-01	 1.08213406E-02
7.96000000E+08	 9.99854621E-01	 1.31475390E-02
7.97000000E+08	 9.99691912E-01	 1.71146482E-02
7.98000000E+08	 9.99625528E-01	 1.70551426E-02
7.99000000E+08	 9.99747600E-01	 1.42182340E-02
8.00000000E+08	 9.99771909E-01	 1.48867578E-02
8.01000000E+08	 9.99657150E-01	 1.50941917E-02
8.02000000E+08	 9.99705514E-01	 1.56989450E-02
8.03000000E+08	 9.99683015E-01	 1.45004816E-02
8.04000000E+08	 9.99799355E-01	 1.50702610E-02
8.05000000E+08	 9.99708719E-01	 8.67343444E-03
8.06000000E+08	 9.99715401E-01	 1.37098192E-02
8.07000000E+08	 9.99774047E-01	 1.34266740E-02
8.08000000E+08	 9.99708515E-01	 1.24203105E-02
8.09000000E+08	 9.99688339E-01	 5.77790590E-03
8.10000000E+08	 9.99814130E-01	 1.39017123E-02
8.11000000E+08	 9.99797844E-01	 1.53558514E-02
8.12000000E+08	 9.99711391E-01	 1.31320801E-02
8.13000000E+08	 9.99677206E-01	 1.15210490E-02
8.14000000E+08	 9.99758597E-01	 1.31231400E-02
8.15000000E+08	 9.99724935E-01	 7.89064535E-03
8.16000000E+08	 9.99752331E-01	 1.42577021E-02
8.17000000E+08	 9.99731518E-01	 7.72226725E-03
8.18000000E+08	 9.99793896E-01	 7.93900940E-03
8.19000000E+08	 9.99638545E-01	 5.74655442E-03
8.20000000E+08	 9.99792081E-01	 8.38561840E-03
8.21000000E+08	 9.99751263E-01	 8.94368085E-03
8.22000000E+08	 9.99793440E-01	 7.46179812E-03
8.23000000E+08	 9.99817858E-01	 1.15938381E-02
8.24000000E+08	 9.99649361E-01	 5.74773975E-03
8.25000000E+08	 9.99834691E-01	 3.71528066E-03
8.26000000E+08	 9.99739501E-01	 4.03883206E-03
8.27000000E+08	 9.99665793E-01	 6.58417128E-03
8.28000000E+08	 9.99723617E-01	 6.69564477E-03
8.29000000E+08	 9.99673903E-01	-7.39312279E-05
8.30000000E+08	 9.99676587E-01	 2.03576050E-03
8.31000000E+08	 9.99750958E-01	 6.26671340E-03
8.32000000E+08	 9.99747399E-01	 1.59374841E-03
8.33000000E+08	 9.99816190E-01	 4.25906340E-03
8.34000000E+08	 9.99739213E-01	-4.54887428E-03
8.35000000E+08	 9.99699526E-01	-1.55933278E-04
8.36000000E+08	 9.99695973E-01	 1.06061406E-03
8.37000000E+08	 9.99748791E-01	 7.23837996E-03
8.38000000E+08	 9.99722283E-01	 2.83027316E-03
8.39000000E+08	 9.99684642E-01	-4.37542443E-03
8.40000000E+08	 9.99701904E-01	-1.37074799E-03
8.41000000E+08	 9.99698653E-01	 2.17728976E-03
8.42000000E+08	 9.99660360E-01	 9.28209349E-05
8.43000000E+08	 9.99543157E-01	 2.08806893E-03
8.44000000E+08	 9.99650470E-01	 5.64927827E-03
8.45000000E+08	 9.99545334E-01	 2.57181583E-04
8.46000000E+08	 9.99525717E-01	 2.86944357E-03
8.47000000E+08	 9.99688723E-01	 2.94654160E-03
8.48000000E+08	 9.99625776E-01	-6.61285531E-04
8.49000000E+08	 9.99666182E-01	-5.07994385E-04
8.50000000E+08	 9.99619703E-01	 2.89384287E-03
8.51000000E+08	 9.99577143E-01	-2.82433997E-03
8.52000000E+08	 9.99629084E-01	-5.33284656E-03
8.53000000E+08	 9.99574636E-01	-6.12499181E-03
8.54000000E+08	 9.99574582E-01	-1.22096341E-02
8.55000000E+08	 9.99607569E-01	-7.99318834E-03
8.56000000E+08	 9.99522721E-01	-1.04605544E-02
8.57000000E+08	 9.99618339E-01	-6.58712100E-03
8.58000000E+08	 9.99622226E-01	-2.91632706E-03
8.59000000E+08	 9.99622120E-01	-7.03472037E-03
8.60000000E+08	 9.99593958E-01	-9.03863753E-03
8.61000000E+08	 9.99600142E-01	 2.28487721E-03
8.62000000E+08	 9.99581480E-01	-1.38634623E-02
8.63000000E+08	 9.99464574E-01	-7.13472155E-03
8.64000000E+08	 9.99591201E-01	-7.87443352E-03
8.65000000E+08	 9.99625143E-01	-1.28576545E-02
8.66000000E+08	 9.99581773E-01	-1.37851698E-02
8.67000000E+08	 9.99650172E-01	-5.22032414E-03
8.68000000E+08	 9.99418581E-01	-6.38958037E-03
8.69000000E+08	 9.99411413E-01	-1.25230721E-02
8.70000000E+08	 9.99568212E-01	-1.05090473E-02
8.71000000E+08	 9.99575831E-01	-1.00344458E-02
8.72000000E+08	 9.99554104E-01	-1.15138775E-02
8.73000000E+08	 9.99474080E-01	-1.55182873E-02
8.74000000E+08	 9.99643998E-01	-1.48000023E-02
8.75000000E+08	 9.99455118E-01	-1.15412592E-02
8.76000000E+08	 9.99461459E-01	-1.32533185E-02
8.77000000E+08	 9.99488208E-01	-1.07670597E-02
8.78000000E+08	 9.99418326E-01	-1.50291420E-02
8.79000000E+08	 9.99482835E-01	-1.25276411E-02
8.80000000E+08	 9.99536986E-01	-1.06113674E-02
8.81000000E+08	 9.99615021E-01	-1.45443594E-02
8.82000000E+08	 9.99355433E-01	-1.54785927E-02
8.83000000E+08	 9.99580015E-01	-1.67274818E-02
8.84000000E+08	 9.99547662E-01	-9.04410277E-03
8.85000000E+08	 9.99308354E-01	-1.55250658E-02
8.86000000E+08	 9.99504949E-01	-1.31137239E-02
8.87000000E+08	 9.99635816E-01	-1.77435816E-02
8.88000000E+08	 9.99417007E-01	-1.06018227E-02
8.89000000E+08	 9.99394098E-01	-1.67888363E-02
8.90000000E+08	 9.99471161E-01	-1.75448201E-02
8.91000000E+08	 9.99569628E-01	-1.93467350E-02
8.92000000E+08	 9.99467651E-01	-7.52343876E-03
8.93000000E+08	 9.99573552E-01	-1.44908743E-02
8.94000000E+08	 9.99513995E-01	-8.96528844E-03
8.95000000E+08	 9.99341055E-01	-1.74919875E-02
8.96000000E+08	 9.99470336E-01	-1.25028865E-02
8.97000000E+08	 9.99389552E-01	-1.25920456E-02
8.98000000E+08	 9.99395469E-01	-1.72157577E-02
8.99000000E+08	 9.99346501E-01	-1.33841300E-02
9.00000000E+08	 9.99383546E-01	-1.09732142E-02
9.01000000E+08	 9.99309098E-01	-1.50213469E-02
9.02000000E+08	 9.99484062E-01	-1.77318526E-02
9.03000000E+08	 9.99503783E-01	-1.61704831E-02
9.04000000E+08	 9.99342973E-01	-1.50956882E-02
9.05000000E+08	 9.99343566E-01	-1.75091751E-02
9.06000000E+08	 9.99365913E-01	-8.06788644E-03
9.07000000E+08	 9.99363149E-01	-1.52063620E-02
9.08000000E+08	 9.99471076E-01	-1.13323725E-02
9.09000000E+08	 9.99501479E-01	-1.27688466E-02
9.10000000E+08	 9.99306233E-01	-1.15805900E-02
9.11000000E+08	 9.99370864E-01	-1.27144864E-02
9.12000000E+08	 9.99407237E-01	-1.20336086E-02
9.13000000E+08	 9.99387869E-01	-1.14521416E-02
9.14000000E+08	 9.99278005E-01	-1.51643269E-02
9.15000000E+08	 9.99404967E-01	-1.08433362E-02
9.16000000E+08	 9.99269978E-01	-1.66298128E-02
9.17000000E+08	 9.99363562E-01	-1.32018908E-02
9.18000000E+08	 9.99372710E-01	-1.70434023E-02
9.19000000E+08	 9.99455166E-01	-1.27679328E-02
9.20000000E+08	 9.99429543E-01	-9.24100809E-03
9.21000000E+08	 9.99206597E-01	-9.02717080E-03
9.22000000E+08	 9.99339267E-01	-1.08712884E-02
9.23000000E+08	 9.99362618E-01	-1.29009263E-02
9.24000000E+08	 9.99292356E-01	-1.25352829E-02
9.25000000E+08	 9.99337028E-01	-1.13963285E-02
9.26000000E+08	 9.99422135E-01	-5.55797987E-03
9.27000000E+08	 9.99316923E-01	-6.85897804E-03
9.28000000E+08	 9.99433515E-01	-4.55436591E-03
9.29000000E+08	 9.99273938E-01	-5.26537851E-03
9.30000000E+08	 9.99371810E-01	-1.01201073E-02
9.31000000E+08	 9.99398373E-01	-8.15732782E-03
9.32000000E+08	 9.99404112E-01	-1.25657720E-02
9.33000000E+08	 9.99388129E-01	-8.26651741E-03
9.34000000E+08	 9.99259469E-01	-5.86383444E-03
9.35000000E+08	 9.99433055E-01	-5.28068811E-03
9.36000000E+08	 9.99328588E-01	-6.86501493E-03
9.37000000E+08	 9.99472448E-01	-1.14388794E-02
9.38000000E+08	 9.99449541E-01	-7.66615399E-03
9.39000000E+08	 9.99453344E-01	-4.52378683E-03
9.40000000E+08	 9.99416934E-01	-6.83340270E-03
9.41000000E+08	 9.99503754E-01	-3.25258843E-03
9.42000000E+08	 9.99441060E-01	-2.41811351E-03
9.43000000E+08	 9.99398447E-01	-7.00397925E-03
9.44000000E+08	 9.99411425E-01	 1.74986031E-03
9.45000000E+08	 9.99488241E-01	 4.33083626E-03
9.46000000E+08	 9.99493601E-01	 1.51058129E-03
9.47000000E+08	 9.99395480E-01	-7.99542192E-03
9.48000000E+08	 9.99330082E-01	-2.57719600E-03
9.49000000E+08	 9.99461881E-01	 7.29964764E-04
9.50000000E+08	 9.99478254E-01	 1.69185245E-03
9.51000000E+08	 9.99490265E-01	 1.56504321E-03
9.52000000E+08	 9.99429108E-01	-1.07409745E-03
9.53000000E+08	 9.99390332E-01	 9.87493618E-04
9.54000000E+08	 9.99433597E-01	-8.04640276E-05
9.55000000E+08	 9.99422045E-01	-7.67369438E-04
9.56000000E+08	 9.99262082E-01	 3.73826367E-03
9.57000000E+08	 9.99454375E-01	 8.91182130E-03
9.58000000E+08	 9.99394870E-01	 4.15734241E-03
9.59000000E+08	 9.99406404E-01	 4.12009759E-03
9.60000000E+08	 9.99390190E-01	-1.48740085E-03
9.61000000E+08	 9.99587675E-01	 1.77335338E-03
9.62000000E+08	 9.99407889E-01	 3.99024926E-03
9.63000000E+08	 9.99370723E-01	 6.27740500E-03
9.64000000E+08	 9.99521758E-01	-2.20201282E-03
9.65000000E+08	 9.99416231E-01	 7.32430767E-03
9.66000000E+08	 9.99449051E-01	 4.47810431E-03
9.67000000E+08	 9.99470514E-01	 7.51704045E-03
9.68000000E+08	 9.99466576E-01	 1.50428372E-03
9.69000000E+08	 9.99505956E-01	 3.27770783E-03
9.70000000E+08	 9.99517840E-01	 7.41911221E-04
9.71000000E+08	 9.99502358E-01	 1.03621222E-02
9.72000000E+08	 9.99484083E-01	 5.82525106E-03
9.73000000E+08	 9.99534735E-01	 9.79726019E-03
9.74000000E+08	 9.99517827E-01	 4.16325254E-03
9.75000000E+08	 9.99565128E-01	 7.26665077E-03
9.76000000E+08	 9.99605550E-01	 4.23007139E-03
9.77000000E+08	 9.99483004E-01	 1.93527018E-03
9.78000000E+08	 9.99523910E-01	 8.53945085E-03
9.79000000E+08	 9.99552072E-01	 6.70935423E-03
9.80000000E+08	 9.99527196E-01	 4.11368851E-03
9.81000000E+08	 9.99575804E-01	 1.02651449E-02
9.82000000E+08	 9.99508974E-01	 7.67781646E-03
9.83000000E+08	 9.99629702E-01	 9.33260353E-03
9.84000000E+08	 9.99646817E-01	 6.58447747E-03
9.85000000E+08	 9.99511542E-01	 1.41200832E-02
9.86000000E+08	 9.99623454E-01	 1.70858969E-02
9.87000000E+08	 9.99535629E-01	 1.10329217E-02
9.88000000E+08	 9.99662142E-01	 6.70590857E-03
9.89000000E+08	 9.99540983E-01	 8.87697708E-03
9.90000000E+08	 9.99647037E-01	 1.45362115E-03
9.91000000E+08	 9.99588616E-01	 1.45101401E-02
9.92000000E+08	 9.99594678E-01	 9.64036730E-03
9.93000000E+08	 9.99565443E-01	 6.79288347E-03
9.94000000E+08	 9.99629498E-01	 8.44443869E-03
9.95000000E+08	 9.99550508E-01	 9.56789824E-03
9.96000000E+08	 9.99567717E-01	 7.78584435E-03
9.97000000E+08	 9.99648061E-01	 1.42155417E-02
9.98000000E+08	 9.99697788E-01	 1.06465981E-02
9.99000000E+08	 9.99632598E-01	 1.26200063E-02
1.00000000E+09	 9.99594117E-01	 1.08053291E-02
1.00100000E+09	 9.99680204E-01	 1.32417733E-02
1.00200000E+09	 9.99677696E-01	 9.87927754E-03
1.00300000E+09	 9.99646916E-01	 9.83012345E-03
1.00400000E+09	 9.99638136E-01	 1.06801235E-02
1.00500000E+09	 9.99685975E-01	 1.02220511E-02
1.00600000E+09	 9.99663833E-01	 9.66975814E-03
1.00700000E+09	 9.99575130E-01	 1.77260503E-02
1.00800000E+09	 9.99587503E-01	 6.92596164E-03
1.00900000E+09	 9.99680645E-01	 4.96305797E-03
1.01000000E+09	 9.99704617E-01	 8.91698348E-03
1.01100000E+09	 9.99590430E-01	 1.24376410E-02
1.01200000E+09	 9.99625830E-01	 9.45699328E-03
1.01300000E+09	 9.99604506E-01	 1.49604596E-02
1.01400000E+09	 9.99551454E-01	 1.60958133E-02
1.01500000E+09	 9.99592437E-01	 1.20181818E-02
1.01600000E+09	 9.99781823E-01	 3.07200929E-03
1.01700000E+09	 9.99618476E-01	 1.09048864E-02
1.01800000E+09	 9.99736165E-01	 8.30868032E-03
1.01900000E+09	 9.99754261E-01	 9.79786807E-03
1.02000000E+09	 9.99664324E-01	 1.64561792E-02
1.02100000E+09	 9.99771507E-01	 1.45485823E-02
1.02200000E+09	 9.99646372E-01	 6.69579508E-03
1.02300000E+09	 9.99716452E-01	 1.44742348E-02
1.02400000E+09	 9.99690542E-01	 8.92723675E-03
1.02500000E+09	 9.99656402E-01	 1.12934584E-02
1.02600000E+09	 9.99754877E-01	 3.85806718E-03
1.02700000E+09	 9.99553139E-01	 6.16590491E-03
1.02800000E+09	 9.99660097E-01	 7.98175049E-03
1.02900000E+09	 9.99638106E-01	 1.39127102E-02
1.03000000E+09	 9.99822114E-01	 1.11912281E-03
1.03100000E+09	 9.99668929E-01	 5.08951036E-03
1.03200000E+09	 9.99653749E-01	-9.89579879E-04
1.03300000E+09	 9.99576309E-01	 1.70871082E-03
1.03400000E+09	 9.99611414E-01	 1.29101206E-03
1.03500000E+09	 9.99644242E-01	 1.04365653E-02
1.03600000E+09	 9.99693255E-01	 8.21739901E-03
1.03700000E+09	 9.99601594E-01	 1.43581442E-02
1.03800000E+09	 9.99505826E-01	 8.51977313E-03
1.03900000E+09	 9.99462881E-01	 6.82343460E-04
1.04000000E+09	 9.99604776E-01	 9.90809477E-03
1.04100000E+09	 9.99518306E-01	 3.25938644E-03
1.04200000E+09	 9.99568244E-01	 7.57298399E-03
1.04300000E+09	 9.99590096E-01	 4.44370133E-03
1.04400000E+09	 9.99695969E-01	 8.16249610E-03
1.04500000E+09	 9.99599459E-01	 8.87463065E-03
1.04600000E+09	 9.99592092E-01	 1.93128285E-03
1.04700000E+09	 9.99591936E-01	-1.32395998E-03
1.04800000E+09	 9.99791073E-01	 5.11979399E-03
1.04900000E+09	 9.99592627E-01	 5.57020946E-03
1.05000000E+09	 9.99628813E-01	 1.62969893E-03
1.05100000E+09	 9.99614354E-01	 1.74933018E-04
1.05200000E+09	 9.99597066E-01	 4.85326831E-03
1.05300000E+09	 9.99535225E-01	 4.50185944E-04
1.05400000E+09	 9.99594437E-01	-2.01203167E-03
1.05500000E+09	 9.99618031E-01	 2.50292933E-03
1.05600000E+09	 9.99589993E-01	-3.96465449E-03
1.05700000E+09	 9.99693220E-01	-3.37808849E-03
1.05800000E+09	 9.99569057E-01	 6.19000200E-03
1.05900000E+09	 9.99573051E-01	-1.72658511E-03
1.06000000E+09	 9.99551499E-01	 1.96664406E-03
1.06100000E+09	 9.99472531E-01	 1.37411425E-03
1.06200000E+09	 9.99541968E-01	-5.25498387E-03
1.06300000E+09	 9.99569181E-01	-3.12933144E-03
1.06400000E+09	 9.99496305E-01	 2.63119368E-03
1.06500000E+09	 9.99513411E-01	-2.65736440E-03
1.06600000E+09	 9.99555717E-01	-1.04380157E-02
1.06700000E+09	 9.99565031E-01	 9.39127200E-03
1.06800000E+09	 9.99524467E-01	-7.96999380E-03
1.06900000E+09	 9.99602384E-01	-9.30264931E-03
1.07000000E+09	 9.99556217E-01	-4.18588770E-03
1.07100000E+09	 9.99395351E-01	-3.56999905E-03
1.07200000E+09	 9.99471357E-01	-4.48889290E-03
1.07300000E+09	 9.99459452E-01	-6.11199100E-03
1.07400000E+09	 9.99447093E-01	-4.71627476E-03
1.07500000E+09	 9.99489397E-01	-7.82174951E-03
1.07600000E+09	 9.99575512E-01	-6.78676981E-03
1.07700000E+09	 9.99456267E-01	-2.69378347E-03
1.07800000E+09	 9.99382356E-01	-8.07719882E-03
1.07900000E+09	 9.99426985E-01	-3.69879691E-03
1.08000000E+09	 9.99445427E-01	-1.79009303E-03
1.08100000E+09	 9.99452818E-01	-3.03227830E-03
1.08200000E+09	 9.99399096E-01	-8.75019051E-03
1.08300000E+09	 9.99394669E-01	 2.01953535E-03
1.08400000E+09	 9.99389887E-01	-9.18252793E-04
1.08500000E+09	 9.99422212E-01	-4.14786264E-03
1.08600000E+09	 9.99480275E-01	-5.04705456E-04
1.08700000E+09	 9.99323751E-01	-8.21827216E-03
1.08800000E+09	 9.99401114E-01	-6.97700426E-03
1.08900000E+09	 9.99399375E-01	-6.81635746E-03
1.09000000E+09	 9.99320326E-01	-6.32868953E-03
1.09100000E+09	 9.99459582E-01	-9.33354281E-03
1.09200000E+09	 9.99372383E-01	-2.42725619E-03
1.09300000E+09	 9.99411385E-01	-7.56880386E-03
1.09400000E+09	 9.99398865E-01	-7.97658282E-03
1.09500000E+09	 9.99394236E-01	 2.17224053E-03
1.09600000E+09	 9.99412819E-01	-5.34010140E-03
1.09700000E+09	 9.99357278E-01	-8.64429162E-04
1.09800000E+09	 9.99301823E-01	-3.70342047E-03
1.09900000E+09	 9.99343775E-01	-6.92659090E-03
1.10000000E+09	 9.99416476E-01	-6.79753088E-03
1.10100000E+09	 9.99293024E-01	-4.26536005E-03
1.10200000E+09	 9.99340136E-01	-4.50973487E-03
1.10300000E+09	 9.99405087E-01	-8.35617332E-04
1.10400000E+09	 9.99355276E-01	-6.53855946E-03
1.10500000E+09	 9.99465023E-01	 7.01075972E-04
1.10600000E+09	 9.99354079E-01	 4.11805729E-04
1.10700000E+09	 9.99403619E-01	 4.62771219E-03
1.10800000E+09	 9.99400749E-01	 4.34690467E-04
1.10900000E+09	 9.99262198E-01	 3.93137868E-03
1.11000000E+09	 9.99358677E-01	 3.85982202E-03
1.11100000E+09	 9.99336451E-01	 1.42756764E-03
1.11200000E+09	 9.99271249E-01	-2.82927130E-03
1.11300000E+09	 9.99326850E-01	-1.78381294E-03
1.11400000E+09	 9.99383051E-01	-1.17491919E-03
1.11500000E+09	 9.99363652E-01	 6.87177998E-04
1.11600000E+09	 9.99256534E-01	-1.04910795E-03
1.11700000E+09	 9.99296414E-01	 5.69804609E-03
1.11800000E+09	 9.99254078E-01	-9.99408286E-05
1.11900000E+09	 9.99370272E-01	 7.56471936E-03
1.12000000E+09	 9.99413514E-01	 1.04106308E-03
1.12100000E+09	 9.99238400E-01	 1.15626317E-03
1.12200000E+09	 9.99388049E-01	 6.09867196E-03
1.12300000E+09	 9.99424465E-01	 2.12102463E-04
1.12400000E+09	 9.99522934E-01	 7.16174752E-03
1.12500000E+09	 9.99425317E-01	 6.70743905E-03
1.12600000E+09	 9.99397793E-01	-1.65638163E-03
1.12700000E+09	 9.99370349E-01	-1.00831910E-03
1.12800000E+09	 9.99289525E-01	 4.81876859E-03
1.12900000E+09	 9.99375532E-01	 5.45961441E-06
1.13000000E+09	 9.99330297E-01	 3.46420425E-03
1.13100000E+09	 9.99444440E-01	 4.53804434E-03
1.13200000E+09	 9.99384383E-01	-1.10043538E-03
1.13300000E+09	 9.99339424E-01	 1.23749116E-02
1.13400000E+09	 9.99360747E-01	 3.88968856E-03
1.13500000E+09	 9.99283687E-01	 7.25541839E-03
1.13600000E+09	 9.99333556E-01	 7.24617092E-03
1.13700000E+09	 9.99411046E-01	 6.26765855E-03
1.13800000E+09	 9.99433156E-01	 1.25376151E-02
1.13900000E+09	 9.99457521E-01	 1.38414573E-02
1.14000000E+09	 9.99347561E-01	 1.20184888E-02
1.14100000E+09	 9.99563888E-01	 1.25654180E-02
1.14200000E+09	 9.99505108E-01	 1.85982004E-02
1.14300000E+09	 9.99461578E-01	 1.41494738E-02
1.14400000E+09	 9.99401821E-01	 1.86072797E-02
1.14500000E+09	 9.99403349E-01	 2.10922208E-02
1.14600000E+09	 9.99370822E-01	 2.15176435E-02
1.14700000E+09	 9.99448080E-01	 1.92082220E-02
1.14800000E+09	 9.99512114E-01	 2.00419527E-02
1.14900000E+09	 9.99381833E-01	 1.39698250E-02
1.15000000E+09	 9.99434693E-01	 2.54135857E-02
1.15100000E+09	 9.99443748E-01	 2.27022220E-02
1.15200000E+09	 9.99436487E-01	 2.41901530E-02
1.15300000E+09	 9.99416554E-01	 2.45759382E-02
1.15400000E+09	 9.99393009E-01	 2.37113759E-02
1.15500000E+09	 9.99395336E-01	 2.70077235E-02
1.15600000E+09	 9.99498534E-01	 2.27637466E-02
1.15700000E+09	 9.99490992E-01	 2.24045286E-02
1.15800000E+09	 9.99535066E-01	 3.54791218E-02
1.15900000E+09	 9.99398937E-01	 3.11061992E-02
1.16000000E+09	 9.99514291E-01	 3.02286197E-02
1.16100000E+09	 9.99547219E-01	 3.26357906E-02
1.16200000E+09	 9.99648080E-01	 2.58833013E-02
1.16300000E+09	 9.99416016E-01	 3.53224123E-02
1.16400000E+09	 9.99511211E-01	 3.35736501E-02
1.16500000E+09	 9.99503481E-01	 3.67378135E-02
1.16600000E+09	 9.99551664E-01	 3.75645842E-02
1.16700000E+09	 9.99554214E-01	 3.41317225E-02
1.16800000E+09	 9.99556950E-01	 3.40772700E-02
1.16900000E+09	 9.99481916E-01	 3.53090789E-02
1.17000000E+09	 9.99565132E-01	 3.27429808E-02
1.17100000E+09	 9.99473243E-01	 3.77324382E-02
1.17200000E+09	 9.99544707E-01	 3.79158654E-02
1.17300000E+09	 9.99555110E-01	 3.49026889E-02
1.17400000E+09	 9.99651639E-01	 3.89211642E-02
1.17500000E+09	 9.99587560E-01	 3.70908503E-02
1.17600000E+09	 9.99506236E-01	 4.17930594E-02
1.17700000E+09	 9.99736924E-01	 4.20090287E-02
1.17800000E+09	 9.99646873E-01	 4.41806553E-02
1.17900000E+09	 9.99586843E-01	 4.48833741E-02
1.18000000E+09	 9.99579834E-01	 4.69905147E-02
1.18100000E+09	 9.99708329E-01	 3.42699086E-02
1.18200000E+09	 9.99620075E-01	 3.83855597E-02
1.18300000E+09	 9.99706898E-01	 4.42632282E-02
1.18400000E+09	 9.99608501E-01	 4.53260853E-02
1.18500000E+09	 9.99830647E-01	 4.43026062E-02
1.18600000E+09	 9.99739891E-01	 4.42769010E-02
1.18700000E+09	 9.99720546E-01	 5.06836554E-02
1.18800000E+09	 9.99667047E-01	 4.15400347E-02
1.18900000E+09	 9.99706218E-01	 4.15329454E-02
1.19000000E+09	 9.99783687E-01	 5.00699836E-02
1.19100000E+09	 9.99557506E-01	 4.58821351E-02
1.19200000E+09	 9.99793140E-01	 4.86589545E-02
1.19300000E+09	 9.99761650E-01	 5.28319175E-02
1.19400000E+09	 9.99789006E-01	 5.98322574E-02
1.19500000E+09	 9.99730917E-01	 4.83867662E-02
1.19600000E+09	 9.99627863E-01	 4.66132196E-02
1.19700000E+09	 9.99842260E-01	 5.30619043E-02
1.19800000E+09	 9.99623204E-01	 5.50208401E-02
1.19900000E+09	 9.99655868E-01	 5.84772404E-02
1.20000000E+09	 9.99824171E-01	 5.20920862E-02
1.20100000E+09	 9.99721886E-01	 5.35174345E-02
1.20200000E+09	 9.99702297E-01	 5.78592862E-02
1.20300000E+09	 9.99801605E-01	 5.34332321E-02
1.20400000E+09	 9.99762989E-01	 5.24342058E-02
1.20500000E+09	 9.99895982E-01	 5.10681111E-02
1.20600000E+09	 9.99925027E-01	 5.26890373E-02
1.20700000E+09	 9.99808371E-01	 5.26229192E-02
1.20800000E+09	 9.99713911E-01	 6.65072682E-02
1.20900000E+09	 9.99779369E-01	 5.53346676E-02
1.21000000E+09	 9.99856052E-01	 6.03482327E-02
1.21100000E+09	 9.99716230E-01	 5.17225839E-02
1.21200000E+09	 9.99802961E-01	 5.50799185E-02
1.21300000E+09	 9.99690429E-01	 5.25357145E-02
1.21400000E+09	 9.99954855E-01	 5.00215756E-02
1.21500000E+09	 9.99909354E-01	 6.03525898E-02
1.21600000E+09	 9.99955223E-01	 5.21153955E-02
1.21700000E+09	 9.99849969E-01	 5.36667768E-02
1.21800000E+09	 9.99764419E-01	 6.14077907E-02
1.21900000E+09	 9.99967843E-01	 5.48115475E-02
1.22000000E+09	 9.99841563E-01	 6.34036917E-02
1.22100000E+09	 9.99786486E-01	 6.10477514E-02
1.22200000E+09	 9.99838041E-01	 5.16481092E-02
1.22300000E+09	 9.99895154E-01	 6.32966184E-02
1.22400000E+09	 9.99779762E-01	 6.02509374E-02
1.22500000E+09	 9.99800591E-01	 6.46594464E-02
1.22600000E+09	 9.99805644E-01	 6.88124972E-02
1.22700000E+09	 9.99819468E-01	 6.05651413E-02
1.22800000E+09	 9.99767107E-01	 6.10694978E-02
1.22900000E+09	 9.99884090E-01	 6.07979726E-02
1.23000000E+09	 9.99809718E-01	 6.73592238E-02
1.23100000E+09	 9.99660500E-01	 6.80095756E-02
1.23200000E+09	 9.99887433E-01	 6.27694346E-02
1.23300000E+09	 9.99822973E-01	 6.46593485E-02
1.23400000E+09	 9.99805206E-01	 6.40531504E-02
1.23500000E+09	 9.99846360E-01	 6.33674578E-02
1.23600000E+09	 9.99823820E-01	 6.90620401E-02
1.23700000E+09	 9.99753851E-01	 6.76937850E-02
1.23800000E+09	 9.99867215E-01	 6.20048463E-02
1.23900000E+09	 9.99807825E-01	 6.99808361E-02
1.24000000E+09	 9.99797550E-01	 7.78421623E-02
1.24100000E+09	 9.99766904E-01	 6.43468445E-02
1.24200000E+09	 9.99888320E-01	 6.95630236E-02
1.24300000E+09	 9.99798865E-01	 6.77583465E-02
1.24400000E+09	 9.99864765E-01	 6.99652597E-02
1.24500000E+09	 9.99768204E-01	 6.89284277E-02
1.24600000E+09	 9.99659346E-01	 6.25517146E-02
1.24700000E+09	 9.99677669E-01	 6.19094233E-02
1.24800000E+09	 9.99662421E-01	 6.32911283E-02
1.24900000E+09	 9.99764322E-01	 6.55809516E-02
1.25000000E+09	 9.99843892E-01	 7.38716765E-02
1.25100000E+09	 9.99650570E-01	 6.65188059E-02
1.25200000E+09	 9.99704365E-01	 5.98516335E-02
1.25300000E+09	 9.99724181E-01	 7.18763877E-02
1.25400000E+09	 9.99698421E-01	 6.34034049E-02
1.25500000E+09	 9.99707709E-01	 7.05715643E-02
1.25600000E+09	 9.99733691E-01	 6.44675487E-02
1.25700000E+09	 9.99689034E-01	 6.60138985E-02
1.25800000E+09	 9.99606513E-01	 6.65602294E-02
1.25900000E+09	 9.99641651E-01	 6.84373025E-02
1.26000000E+09	 9.99679622E-01	 6.24206241E-02
1.26100000E+09	 9.99646711E-01	 6.54027134E-02
1.26200000E+09	 9.99600738E-01	 7.61766742E-02
1.26300000E+09	 9.99656874E-01	 6.68117952E-02
1.26400000E+09	 9.99708841E-01	 6.87028156E-02
1.26500000E+09	 9.99696117E-01	 6.76529562E-02
1.26600000E+09	 9.99623774E-01	 6.84870661E-02
1.26700000E+09	 9.99560179E-01	 7.41606054E-02
1.26800000E+09	 9.99587566E-01	 6.81537185E-02
1.26900000E+09	 9.99639092E-01	 6.60689485E-02
1.27000000E+09	 9.99615021E-01	 6.48915823E-02
1.27100000E+09	 9.99568140E-01	 7.18503508E-02
1.27200000E+09	 9.99548607E-01	 7.38874486E-02
1.27300000E+09	 9.99420901E-01	 6.21751677E-02
1.27400000E+09	 9.99481189E-01	 6.81679132E-02
1.27500000E+09	 9.99579884E-01	 7.37452126E-02
1.27600000E+09	 9.99631662E-01	 7.23799407E-02
1.27700000E+09	 9.99473099E-01	 7.13930678E-02
1.27800000E+09	 9.99428711E-01	 7.55833272E-02
1.27900000E+09	 9.99500176E-01	 6.96562736E-02
1.28000000E+09	 9.99578760E-01	 6.84080389E-02
1.28100000E+09	 9.99432379E-01	 6.42314161E-02
1.28200000E+09	 9.99355837E-01	 6.21989432E-02
1.28300000E+09	 9.99550890E-01	 6.90653766E-02
1.28400000E+09	 9.99508753E-01	 6.68665380E-02
1.28500000E+09	 9.99443387E-01	 6.96838951E-02
1.28600000E+09	 9.99455749E-01	 7.22875348E-02
1.28700000E+09	 9.99367573E-01	 6.48354741E-02
1.28800000E+09	 9.99313119E-01	 6.87503275E-02
1.28900000E+09	 9.99527325E-01	 7.65106619E-02
1.29000000E+09	 9.99351006E-01	 7.08650554E-02
1.29100000E+09	 9.99233127E-01	 7.05835135E-02
1.29200000E+09	 9.99296777E-01	 7.05251526E-02
1.29300000E+09	 9.99310071E-01	 7.23511302E-02
1.29400000E+09	 9.99406652E-01	 7.02135066E-02
1.29500000E+09	 9.99258589E-01	 7.18623755E-02
1.29600000E+09	 9.99226050E-01	 6.59545482E-02
1.29700000E+09	 9.99415980E-01	 7.52840731E-02
1.29800000E+09	 9.99327075E-01	 6.93614961E-02
1.29900000E+09	 9.99351242E-01	 7.85002617E-02
1.30000000E+09	 9.99304235E-01	 7.82467031E-02
1.30100000E+09	 9.99213517E-01	 7.76401492E-02
1.30200000E+09	 9.99293341E-01	 7.57661907E-02
1.30300000E+09	 9.99403474E-01	 6.76707813E-02
1.30400000E+09	 9.99287225E-01	 8.09829254E-02
1.30500000E+09	 9.99199196E-01	 7.72368121E-02
1.30600000E+09	 9.99332095E-01	 7.19123526E-02
1.30700000E+09	 9.99314675E-01	 7.37126892E-02
1.30800000E+09	 9.99161432E-01	 7.43230394E-02
1.30900000E+09	 9.99307487E-01	 7.33902406E-02
1.31000000E+09	 9.99285129E-01	 7.59375014E-02
1.31100000E+09	 9.99336410E-01	 7.11782021E-02
1.31200000E+09	 9.99279167E-01	 7.42894916E-02
1.31300000E+09	 9.99166785E-01	 7.07544410E-02
1.31400000E+09	 9.99221082E-01	 7.37843881E-02
1.31500000E+09	 9.99232861E-01	 7.28728224E-02
1.31600000E+09	 9.99248909E-01	 7.13641146E-02
1.31700000E+09	 9.99206074E-01	 7.70710747E-02
1.31800000E+09	 9.99170986E-01	 7.54648883E-02
1.31900000E+09	 9.99282333E-01	 8.08229127E-02
1.32000000E+09	 9.99286876E-01	 8.04291575E-02
1.32100000E+09	 9.99176477E-01	 8.37669911E-02
1.32200000E+09	 9.99205707E-01	 8.20070715E-02
1.32300000E+09	 9.99169381E-01	 8.34961482E-02
1.32400000E+09	 9.99185311E-01	 7.78727728E-02
1.32500000E+09	 9.99213649E-01	 7.96698161E-02
1.32600000E+09	 9.99209306E-01	 7.37102271E-02
1.32700000E+09	 9.99182206E-01	 7.72610083E-02
1.32800000E+09	 9.99295154E-01	 8.38063245E-02
1.32900000E+09	 9.99257759E-01	 8.22248457E-02
1.33000000E+09	 9.99188541E-01	 8.10478854E-02
1.33100000E+09	 9.99118904E-01	 8.13146579E-02
1.33200000E+09	 9.99181510E-01	 8.64019512E-02
1.33300000E+09	 9.99234540E-01	 8.17481140E-02
1.33400000E+09	 9.99303568E-01	 8.47878430E-02
1.33500000E+09	 9.99181436E-01	 8.28484340E-02
1.33600000E+09	 9.99209171E-01	 8.05608678E-02
1.33700000E+09	 9.99243045E-01	 8.17123876E-02
1.33800000E+09	 9.99087989E-01	 7.91435802E-02
1.33900000E+09	 9.99213012E-01	 8.73456921E-02
1.34000000E+09	 9.99204061E-01	 8.27780858E-02
1.34100000E+09	 9.99207534E-01	 9.53321384E-02
1.34200000E+09	 9.99302505E-01	 8.18518741E-02
1.34300000E+09	 9.99215397E-01	 8.92413075E-02
1.34400000E+09	 9.99185875E-01	 8.46627874E-02
1.34500000E+09	 9.99194615E-01	 8.28539319E-02
1.34600000E+09	 9.99188613E-01	 8.67302116E-02
1.34700000E+09	 9.99234627E-01	 7.95810133E-02
1.34800000E+09	 9.99282224E-01	 8.68973861E-02
1.34900000E+09	 9.99189895E-01	 8.09648881E-02
1.35000000E+09	 9.99209936E-01	 8.33266330E-02
1.35100000E+09	 9.99180636E-01	 8.68425236E-02
1.35200000E+09	 9.99359539E-01	 8.62157473E-02
1.35300000E+09	 9.99133030E-01	 9.02018621E-02
1.35400000E+09	 9.99177885E-01	 8.58461571E-02
1.35500000E+09	 9.99149476E-01	 8.64671026E-02
1.35600000E+09	 9.99206466E-01	 9.06373769E-02
1.35700000E+09	 9.99232947E-01	 9.39624400E-02
1.35800000E+09	 9.99293702E-01	 8.72162448E-02
1.35900000E+09	 9.99288823E-01	 8.80406818E-02
1.36000000E+09	 9.99150754E-01	 8.74574972E-02
1.36100000E+09	 9.99243651E-01	 8.71591517E-02
1.36200000E+09	 9.99211248E-01	 8.61020444E-02
1.36300000E+09	 9.99210676E-01	 8.57730043E-02
1.36400000E+09	 9.99317885E-01	 9.03232510E-02
1.36500000E+09	 9.99290295E-01	 9.30534832E-02
1.36600000E+09	 9.99268003E-01	 9.38596341E-02
1.36700000E+09	 9.99281327E-01	 9.50163367E-02
1.36800000E+09	 9.99291041E-01	 9.41723672E-02
1.36900000E+09	 9.99424798E-01	 9.41180088E-02
1.37000000E+09	 9.99429512E-01	 9.51253475E-02
1.37100000E+09	 9.99359831E-01	 9.59671017E-02
1.37200000E+09	 9.99220141E-01	 9.20487407E-02
1.37300000E+09	 9.99342078E-01	 9.40789962E-02
1.37400000E+09	 9.99191621E-01	 9.20153510E-02
1.37500000E+09	 9.99195098E-01	 9.32572370E-02
1.37600000E+09	 9.99223491E-01	 1.02148012E-01
1.37700000E+09	 9.99173580E-01	 8.57761963E-02
1.37800000E+09	 9.99443844E-01	 9.40540551E-02
1.37900000E+09	 9.99371172E-01	 9.80077623E-02
1.38000000E+09	 9.99380959E-01	 9.50855317E-02
1.38100000E+09	 9.99439306E-01	 9.25764551E-02
1.38200000E+09	 9.99495994E-01	 9.40573343E-02
1.38300000E+09	 9.99431151E-01	 9.87569890E-02
1.38400000E+09	 9.99397265E-01	 9.43928267E-02
1.38500000E+09	 9.99414518E-01	 9.73481423E-02
1.38600000E+09	 9.99495190E-01	 1.04997530E-01
1.38700000E+09	 9.99284407E-01	 9.77430523E-02
1.38800000E+09	 9.99552079E-01	 1.01793473E-01
1.38900000E+09	 9.99479033E-01	 9.51242790E-02
1.39000000E+09	 9.99549276E-01	 1.00131287E-01
1.39100000E+09	 9.99418168E-01	 1.01308979E-01
1.39200000E+09	 9.99445339E-01	 1.05062680E-01
1.39300000E+09	 9.99325880E-01	 9.28902153E-02
1.39400000E+09	 9.99351824E-01	 9.85857880E-02
1.39500000E+09	 9.99339699E-01	 1.01247965E-01
1.39600000E+09	 9.99454484E-01	 9.29012563E-02
1.39700000E+09	 9.99530848E-01	 1.01387447E-01
1.39800000E+09	 9.99478607E-01	 1.03297185E-01
1.39900000E+09	 9.99571632E-01	 1.00028831E-01
1.40000000E+09	 9.99554141E-01	 1.00877937E-01
1.40100000E+09	 9.99508358E-01	 9.79158623E-02
1.40200000E+09	 9.99530601E-01	 1.00051444E-01
1.40300000E+09	 9.99552825E-01	 9.86594641E-02
1.40400000E+09	 9.99598063E-01	 1.03849455E-01
1.40500000E+09	 9.99500315E-01	 1.02605725E-01
1.40600000E+09	 9.99621213E-01	 9.87440323E-02
1.40700000E+09	 9.99630682E-01	 1.06568071E-01
1.40800000E+09	 9.99546683E-01	 1.00003095E-01
1.40900000E+09	 9.99574251E-01	 1.04028203E-01
1.41000000E+09	 9.99534123E-01	 1.05127241E-01
1.41100000E+09	 9.99586624E-01	 1.00699459E-01
1.41200000E+09	 9.99614885E-01	 1.05930598E-01
1.41300000E+09	 9.99412927E-01	 9.42886952E-02
1.41400000E+09	 9.99566479E-01	 9.91335486E-02
1.41500000E+09	 9.99481324E-01	 1.04751002E-01
1.41600000E+09	 9.99578522E-01	 9.66322713E-02
1.41700000E+09	 9.99504928E-01	 9.88404623E-02
1.41800000E+09	 9.99637365E-01	 1.06899894E-01
1.41900000E+09	 9.99512096E-01	 1.05368004E-01
1.42000000E+09	 9.99579091E-01	 1.02354366E-01
1.42100000E+09	 9.99474870E-01	 9.87847415E-02
1.42200000E+09	 9.99639006E-01	 1.00742863E-01
1.42300000E+09	 9.99576661E-01	 9.95921493E-02
1.42400000E+09	 9.99687885E-01	 1.01014832E-01
1.42500000E+09	 9.99573582E-01	 1.03884217E-01
1.42600000E+09	 9.99628860E-01	 9.19062882E-02
1.42700000E+09	 9.99509754E-01	 1.01998141E-01
1.42800000E+09	 9.99441655E-01	 1.02346789E-01
1.42900000E+09	 9.99661529E-01	 1.01626691E-01
1.43000000E+09	 9.99541213E-01	 1.02585739E-01
1.43100000E+09	 9.99514977E-01	 9.84665573E-02
1.43200000E+09	 9.99554401E-01	 1.05676772E-01
1.43300000E+09	 9.99545766E-01	 1.02079801E-01
1.43400000E+09	 9.99547854E-01	 9.55776208E-02
1.43500000E+09	 9.99500251E-01	 1.03742048E-01
1.43600000E+09	 9.99522800E-01	 1.03437956E-01
1.43700000E+09	 9.99570395E-01	 1.00216679E-01
1.43800000E+09	 9.99440385E-01	 9.87087737E-02
1.43900000E+09	 9.99613461E-01	 9.98727404E-02
1.44000000E+09	 9.99597880E-01	 9.78686118E-02
1.44100000E+09	 9.99516447E-01	 9.60920051E-02
1.44200000E+09	 9.99576690E-01	 1.03179619E-01
1.44300000E+09	 9.99411062E-01	 1.04673271E-01
1.44400000E+09	 9.99514223E-01	 1.04102026E-01
1.44500000E+09	 9.99613385E-01	 9.51888889E-02
1.44600000E+09	 9.99740251E-01	 8.83153850E-02
1.44700000E+09	 9.99515839E-01	 1.02158570E-01
1.44800000E+09	 9.99649598E-01	 9.91230308E-02
1.44900000E+09	 9.99543155E-01	 9.42691926E-02
1.45000000E+09	 9.99494809E-01	 9.62530681E-02
1.45100000E+09	 9.99506560E-01	 9.50222364E-02
1.45200000E+09	 9.99418927E-01	 9.54057565E-02
1.45300000E+09	 9.99571645E-01	 9.71875359E-02
1.45400000E+09	 9.99472887E-01	 9.72634936E-02
1.45500000E+09	 9.99433553E-01	 9.62213720E-02
1.45600000E+09	 9.99670047E-01	 9.28739810E-02
1.45700000E+09	 9.99492652E-01	 9.31662676E-02
1.45800000E+09	 9.99486868E-01	 8.97046024E-02
1.45900000E+09	 9.99301998E-01	 8.50874492E-02
1.46000000E+09	 9.99443210E-01	 9.04383047E-02
1.46100000E+09	 9.99483811E-01	 8.96226572E-02
1.46200000E+09	 9.99415645E-01	 8.21870852E-02
1.46300000E+09	 9.99310043E-01	 8.68596525E-02
1.46400000E+09	 9.99370353E-01	 8.62229995E-02
1.46500000E+09	 9.99261148E-01	 8.62285702E-02
1.46600000E+09	 9.99322905E-01	 8.42393718E-02
1.46700000E+09	 9.99478359E-01	 8.37130692E-02
1.46800000E+09	 9.99311158E-01	 8.70610252E-02
1.46900000E+09	 9.99489572E-01	 8.39844911E-02
1.47000000E+09	 9.99257266E-01	 8.82337423E-02
1.47100000E+09	 9.99344395E-01	 8.03380580E-02
1.47200000E+09	 9.99252529E-01	 8.18763445E-02
1.47300000E+09	 9.99312654E-01	 8.80887671E-02
1.47400000E+09	 9.99303397E-01	 8.40253529E-02
1.47500000E+09	 9.99349184E-01	 7.72311930E-02
1.47600000E+09	 9.99341732E-01	 7.81774630E-02
1.47700000E+09	 9.99385199E-01	 8.52780358E-02
1.47800000E+09	 9.99299505E-01	 7.54375834E-02
1.47900000E+09	 9.99205758E-01	 8.16454451E-02
1.48000000E+09	 9.99280447E-01	 7.63703953E-02
1.48100000E+09	 9.99223087E-01	 7.69946727E-02
1.48200000E+09	 9.99299016E-01	 8.40272475E-02
1.48300000E+09	 9.99183803E-01	 7.73062086E-02
1.48400000E+09	 9.99110267E-01	 8.45652981E-02
1.48500000E+09	 9.99098520E-01	 7.79653385E-02
1.48600000E+09	 9.99041107E-01	 7.66079351E-02
1.48700000E+09	 9.99081939E-01	 7.96639837E-02
1.48800000E+09	 9.99178745E-01	 7.90613865E-02
1.48900000E+09	 9.99197910E-01	 7.62662221E-02
1.49000000E+09	 9.99236642E-01	 7.03041924E-02
1.49100000E+09	 9.99009634E-01	 8.26774100E-02
1.49200000E+09	 9.99055036E-01	 7.01288178E-02
1.49300000E+09	 9.98975504E-01	 6.99435083E-02
1.49400000E+09	 9.99007930E-01	 6.96809376E-02
1.49500000E+09	 9.99086047E-01	 6.70245283E-02
1.49600000E+09	 9.99084072E-01	 6.93828746E-02
1.49700000E+09	 9.99112829E-01	 7.64177743E-02
1.49800000E+09	 9.98959552E-01	 7.21225848E-02
1.49900000E+09	 9.98924939E-01	 7.31728205E-02
1.50000000E+09	 9.98968109E-01	 7.24908764E-02
1.50100000E+09	 9.98981377E-01	 6.56453821E-02
1.50200000E+09	 9.99092145E-01	 6.29879706E-02
1.50300000E+09	 9.98947536E-01	 6.78908533E-02
1.50400000E+09	 9.98983054E-01	 6.51831546E-02
1.50500000E+09	 9.99034166E-01	 6.88193261E-02
1.50600000E+09	 9.98895752E-01	 6.18080059E-02
1.50700000E+09	 9.99025783E-01	 6.26528995E-02
1.50800000E+09	 9.99026358E-01	 6.60026297E-02
1.50900000E+09	 9.99018360E-01	 6.71277425E-02
1.51000000E+09	 9.98876268E-01	 6.71685084E-02
1.51100000E+09	 9.98894206E-01	 6.11114405E-02
1.51200000E+09	 9.98866334E-01	 6.13383519E-02
1.51300000E+09	 9.98931450E-01	 6.39160102E-02
1.51400000E+09	 9.98937985E-01	 7.01780001E-02
1.51500000E+09	 9.98982128E-01	 7.05174693E-02
1.51600000E+09	 9.98927057E-01	 5.55864808E-02
1.51700000E+09	 9.98881546E-01	 5.74717996E-02
1.51800000E+09	 9.98988666E-01	 6.58063808E-02
1.51900000E+09	 9.98980720E-01	 6.75472124E-02
1.52000000E+09	 9.98922579E-01	 5.48307279E-02
1.52100000E+09	 9.98976597E-01	 5.68210968E-02
1.52200000E+09	 9.98939554E-01	 5.07043483E-02
1.52300000E+09	 9.98825875E-01	 5.44153747E-02
1.52400000E+09	 9.99008171E-01	 4.79525704E-02
1.52500000E+09	 9.98765314E-01	 5.29315478E-02
1.52600000E+09	 9.98816347E-01	 6.08793238E-02
1.52700000E+09	 9.98777267E-01	 6.14087489E-02
1.52800000E+09	 9.98811919E-01	 5.83323805E-02
1.52900000E+09	 9.98844408E-01	 5.91435770E-02
1.53000000E+09	 9.98922407E-01	 4.83472539E-02
1.53100000E+09	 9.98870092E-01	 5.52132674E-02
1.53200000E+09	 9.98729720E-01	 4.98493735E-02
1.53300000E+09	 9.98990045E-01	 5.36337077E-02
1.53400000E+09	 9.98890508E-01	 5.70031971E-02
1.53500000E+09	 9.98909544E-01	 5.98634782E-02
1.53600000E+09	 9.98815952E-01	 5.29163764E-02
1.53700000E+09	 9.98742818E-01	 6.02460197E-02
1.53800000E+09	 9.99075382E-01	 5.77503206E-02
1.53900000E+09	 9.98941566E-01	 6.19533360E-02
1.54000000E+09	 9.98867256E-01	 4.92415585E-02
1.54100000E+09	 9.99041111E-01	 6.09617317E-02
1.54200000E+09	 9.98869062E-01	 6.09467229E-02
1.54300000E+09	 9.98942444E-01	 5.85421861E-02
1.54400000E+09	 9.98906375E-01	 4.91467273E-02
1.54500000E+09	 9.98666607E-01	 5.88394834E-02
1.54600000E+09	 9.98905995E-01	 5.27299691E-02
1.54700000E+09	 9.98653737E-01	 4.45394815E-02
1.54800000E+09	 9.98815982E-01	 5.32349573E-02
1.54900000E+09	 9.99171131E-01	 4.90901641E-02
1.55000000E+09	 9.98957421E-01	 6.34450439E-02
1.55100000E+09	 9.98929918E-01	 5.72110914E-02
1.55200000E+09	 9.99031341E-01	 6.04098317E-02
1.55300000E+09	 9.98868601E-01	 5.28646257E-02
1.55400000E+09	 9.99003839E-01	 5.73191961E-02
1.55500000E+09	 9.98859773E-01	 5.55535316E-02
1.55600000E+09	 9.98696775E-01	 6.15416935E-02
1.55700000E+09	 9.98910227E-01	 5.67495916E-02
1.55800000E+09	 9.99059691E-01	 5.42058855E-02
1.55900000E+09	 9.98866072E-01	 4.85654327E-02
1.56000000E+09	 9.98930401E-01	 4.71266201E-02
1.56100000E+09	 9.98989363E-01	 5.31852960E-02
1.56200000E+09	 9.99068198E-01	 5.01977430E-02
1.56300000E+09	 9.98814689E-01	 5.61635810E-02
1.56400000E+09	 9.98838104E-01	 5.17287944E-02
1.56500000E+09	 9.98889999E-01	 6.23296117E-02
1.56600000E+09	 9.98895591E-01	 4.95917523E-02
1.56700000E+09	 9.98886420E-01	 5.91869447E-02
1.56800000E+09	 9.99182069E-01	 6.08235574E-02
1.56900000E+09	 9.99043194E-01	 5.55186376E-02
1.57000000E+09	 9.99002914E-01	 5.68526005E-02
1.57100000E+09	 9.99016020E-01	 4.98679458E-02
1.57200000E+09	 9.98984144E-01	 6.33316751E-02
1.57300000E+09	 9.99045699E-01	 5.67263800E-02
1.57400000E+09	 9.99102808E-01	 5.18299580E-02
1.57500000E+09	 9.99130210E-01	 5.73383911E-02
1.57600000E+09	 9.98968906E-01	 6.41890023E-02
1.57700000E+09	 9.98990709E-01	 5.56965399E-02
1.57800000E+09	 9.98973366E-01	 5.82615776E-02
1.57900000E+09	 9.99077569E-01	 5.59996510E-02
1.58000000E+09	 9.99141476E-01	 5.81400265E-02
1.58100000E+09	 9.99093489E-01	 6.65511801E-02
1.58200000E+09	 9.99007670E-01	 6.36134117E-02
1.58300000E+09	 9.99149198E-01	 6.33048076E-02
1.58400000E+09	 9.99176365E-01	 6.12331762E-02
1.58500000E+09	 9.99164702E-01	 5.26451728E-02
1.58600000E+09	 9.99084448E-01	 6.30600488E-02
1.58700000E+09	 9.99196523E-01	 5.98346703E-02
1.58800000E+09	 9.99163002E-01	 5.51525472E-02
1.58900000E+09	 9.99211434E-01	 6.43413359E-02
1.59000000E+09	 9.99202956E-01	 5.57245734E-02
1.59100000E+09	 9.99184929E-01	 5.26988299E-02
1.59200000E+09	 9.99092692E-01	 5.76099481E-02
1.59300000E+09	 9.99099807E-01	 6.06777917E-02
1.59400000E+09	 9.99086300E-01	 5.47377210E-02
1.59500000E+09	 9.99176781E-01	 5.00719109E-02
1.59600000E+09	 9.99204322E-01	 5.62258938E-02
1.59700000E+09	 9.99181187E-01	 5.47670447E-02
1.59800000E+09	 9.99188539E-01	 6.29608649E-02
1.59900000E+09	 9.99257638E-01	 5.72752108E-02
1.60000000E+09	 9.99143337E-01	 6.29918478E-02
1.60100000E+09	 9.99216591E-01	 5.60122683E-02
1.60200000E+09	 9.99198684E-01	 5.77232764E-02
1.60300000E+09	 9.99359167E-01	 4.62918486E-02
1.60400000E+09	 9.99267395E-01	 4.53996248E-02
1.60500000E+09	 9.99259282E-01	 5.26716896E-02
1.60600000E+09	 9.99341873E-01	 4.89763738E-02
1.60700000E+09	 9.99156322E-01	 5.69143971E-02
1.60800000E+09	 9.99370926E-01	 5.34968429E-02
1.60900000E+09	 9.99355949E-01	 5.28760941E-02
1.61000000E+09	 9.99113117E-01	 5.37560201E-02
1.61100000E+09	 9.99357526E-01	 5.68258217E-02
1.61200000E+09	 9.99211254E-01	 5.60756297E-02
1.61300000E+09	 9.99357755E-01	 5.45963075E-02
1.61400000E+09	 9.99235388E-01	 5.55565172E-02
1.61500000E+09	 9.99260962E-01	 5.72197783E-02
1.61600000E+09	 9.99258521E-01	 5.33011263E-02
1.61700000E+09	 9.99335715E-01	 6.30760086E-02
1.61800000E+09	 9.99414285E-01	 5.27560941E-02
1.61900000E+09	 9.99214933E-01	 5.60346367E-02
1.62000000E+09	 9.99193744E-01	 4.80548286E-02
1.62100000E+09	 9.99196420E-01	 5.40741780E-02
1.62200000E+09	 9.99229698E-01	 4.44426009E-02
1.62300000E+09	 9.99340744E-01	 5.60163773E-02
1.62400000E+09	 9.99339793E-01	 5.61992707E-02
1.62500000E+09	 9.99141403E-01	 4.95360737E-02
1.62600000E+09	 9.99288025E-01	 5.15042412E-02
1.62700000E+09	 9.99355241E-01	 5.63891717E-02
1.62800000E+09	 9.99260483E-01	 5.35227747E-02
1.62900000E+09	 9.99315369E-01	 4.80578107E-02
1.63000000E+09	 9.99351673E-01	 4.56224309E-02
1.63100000E+09	 9.99126063E-01	 4.37568317E-02
1.63200000E+09	 9.99208249E-01	 4.51977393E-02
1.63300000E+09	 9.99221664E-01	 5.23107553E-02
1.63400000E+09	 9.99194334E-01	 3.93133036E-02
1.63500000E+09	 9.99140697E-01	 4.90976773E-02
1.63600000E+09	 9.99215476E-01	 4.99966095E-02
1.63700000E+09	 9.99342025E-01	 4.44172359E-02
1.63800000E+09	 9.99156057E-01	 5.50579101E-02
1.63900000E+09	 9.99231515E-01	 4.27997165E-02
1.64000000E+09	 9.99280556E-01	 4.25551589E-02
1.64100000E+09	 9.99232091E-01	 4.40538025E-02
1.64200000E+09	 9.99116356E-01	 4.22025036E-02
1.64300000E+09	 9.99235607E-01	 4.16985277E-02
1.64400000E+09	 9.99047799E-01	 4.40982782E-02
1.64500000E+09	 9.99179622E-01	 3.76835757E-02
1.64600000E+09	 9.99256283E-01	 3.87700345E-02
1.64700000E+09	 9.99060997E-01	 4.04396336E-02
1.64800000E+09	 9.99225158E-01	 3.95709062E-02
1.64900000E+09	 9.98999006E-01	 3.54743342E-02
1.65000000E+09	 9.99101834E-01	 3.79691168E-02
1.65100000E+09	 9.99186361E-01	 4.00373215E-02
1.65200000E+09	 9.99161906E-01	 4.28326582E-02
1.65300000E+09	 9.98982946E-01	 4.15778281E-02
1.65400000E+09	 9.99120470E-01	 3.64058896E-02
1.65500000E+09	 9.99242484E-01	 3.36055530E-02
1.65600000E+09	 9.98992074E-01	 3.39230553E-02
1.65700000E+09	 9.99126258E-01	 3.10275722E-02
1.65800000E+09	 9.99033531E-01	 3.40041065E-02
1.65900000E+09	 9.99079412E-01	 3.46913885E-02
1.66000000E+09	 9.99069287E-01	 3.27868903E-02
1.66100000E+09	 9.98935685E-01	 2.86596070E-02
1.66200000E+09	 9.99005529E-01	 2.74469936E-02
1.66300000E+09	 9.99058702E-01	 2.78044817E-02
1.66400000E+09	 9.98964790E-01	 2.57219725E-02
1.66500000E+09	 9.99041507E-01	 2.88932449E-02
1.66600000E+09	 9.98892619E-01	 2.71009164E-02
1.66700000E+09	 9.98992235E-01	 2.48236061E-02
1.66800000E+09	 9.98851488E-01	 2.49864100E-02
1.66900000E+09	 9.98807386E-01	 2.51867581E-02
1.67000000E+09	 9.98899284E-01	 1.62557944E-02
1.67100000E+09	 9.98837555E-01	 2.01862138E-02
1.67200000E+09	 9.98786544E-01	 2.54949058E-02
1.67300000E+09	 9.98834488E-01	 1.99087287E-02
1.67400000E+09	 9.98911653E-01	 2.36486250E-02
1.67500000E+09	 9.98819643E-01	 9.63333901E-03
1.67600000E+09	 9.98911756E-01	 2.06216002E-02
1.67700000E+09	 9.98836469E-01	 2.14412304E-02
1.67800000E+09	 9.98777052E-01	 3.31053191E-02
1.67900000E+09	 9.98881907E-01	 1.58581086E-02
1.68000000E+09	 9.98896128E-01	 1.60215039E-02
1.68100000E+09	 9.98756111E-01	 1.84913579E-02
1.68200000E+09	 9.98697183E-01	 1.14378686E-02
1.68300000E+09	 9.98600856E-01	 1.87167087E-02
1.68400000E+09	 9.98737367E-01	 9.71022113E-03
1.68500000E+09	 9.98763276E-01	 1.13231810E-02
1.68600000E+09	 9.98764356E-01	 1.17023130E-02
1.68700000E+09	 9.98817689E-01	 1.73999453E-02
1.68800000E+09	 9.98728895E-01	 9.45417392E-03
1.68900000E+09	 9.98583755E-01	 1.22521758E-02
1.69000000E+09	 9.98436846E-01	 1.07067998E-02
1.69100000E+09	 9.98611746E-01	 4.94700047E-03
1.69200000E+09	 9.98614071E-01	 4.66542682E-03
1.69300000E+09	 9.98747325E-01	 6.13427990E-03
1.69400000E+09	 9.98590461E-01	 5.50019283E-03
1.69500000E+09	 9.98605954E-01	 9.86826155E-03
1.69600000E+09	 9.98641599E-01	 9.07080186E-03
1.69700000E+09	 9.98404244E-01	 4.75954266E-03
1.69800000E+09	 9.98446655E-01	-2.96460536E-03
1.69900000E+09	 9.98538678E-01	 2.68044502E-03
1.70000000E+09	 9.98573294E-01	 5.50723940E-03
1.70100000E+09	 9.98698960E-01	 3.01513627E-03
1.70200000E+09	 9.98515719E-01	-9.11992024E-04
1.70300000E+09	 9.98443276E-01	-1.57517085E-03
1.70400000E+09	 9.98585067E-01	 1.25759557E-03
1.70500000E+09	 9.98158228E-01	 3.32677416E-03
1.70600000E+09	 9.98570618E-01	 1.43246546E-03
1.70700000E+09	 9.98292947E-01	 2.37929845E-04
1.70800000E+09	 9.98582801E-01	-4.68978851E-03
1.70900000E+09	 9.98271162E-01	-5.60239372E-03
1.71000000E+09	 9.98477463E-01	-4.24181508E-03
1.71100000E+09	 9.98419749E-01	-5.92743214E-03
1.71200000E+09	 9.98446869E-01	-1.54721810E-03
1.71300000E+09	 9.98513852E-01	-7.45816434E-03
1.71400000E+09	 9.98314682E-01	-4.26584958E-03
1.71500000E+09	 9.98236814E-01	 1.56875518E-03
1.71600000E+09	 9.98436051E-01	-1.01508775E-02
1.71700000E+09	 9.98470594E-01	-7.70283042E-03
1.71800000E+09	 9.98496274E-01	-1.23520763E-02
1.71900000E+09	 9.98590665E-01	-1.34423384E-02
1.72000000E+09	 9.98319253E-01	-1.81413604E-02
1.72100000E+09	 9.98322493E-01	-1.60668251E-02
1.72200000E+09	 9.98523402E-01	-1.29040413E-02
1.72300000E+09	 9.98345373E-01	-1.58305016E-02
1.72400000E+09	 9.98289948E-01	-1.37028571E-02
1.72500000E+09	 9.98540113E-01	-1.88378487E-02
1.72600000E+09	 9.98277199E-01	-1.21269101E-02
1.72700000E+09	 9.98425408E-01	-1.44406324E-02
1.72800000E+09	 9.98421051E-01	-1.75056317E-02
1.72900000E+09	 9.98284558E-01	-1.05916841E-02
1.73000000E+09	 9.98385868E-01	-2.01338433E-02
1.73100000E+09	 9.98377601E-01	-8.10074682E-03
1.73200000E+09	 9.98442690E-01	-1.40693166E-02
1.73300000E+09	 9.98406586E-01	-1.94964275E-02
1.73400000E+09	 9.98486625E-01	-1.09443464E-02
1.73500000E+09	 9.98466311E-01	-1.26234551E-02
1.73600000E+09	 9.98503365E-01	-1.41384483E-02
1.73700000E+09	 9.98284095E-01	-8.37813482E-03
1.73800000E+09	 9.98448124E-01	-1.60579595E-02
1.73900000E+09	 9.98452833E-01	-8.62364482E-03
1.74000000E+09	 9.98447944E-01	-2.05305857E-02
1.74100000E+09	 9.98373045E-01	-1.55754170E-02
1.74200000E+09	 9.98367338E-01	-1.67680223E-02
1.74300000E+09	 9.98384905E-01	-2.48148937E-02
1.74400000E+09	 9.98435607E-01	-1.02316091E-02
1.74500000E+09	 9.98329034E-01	-8.15470836E-03
1.74600000E+09	 9.98346891E-01	-1.09846702E-02
1.74700000E+09	 9.98424233E-01	-8.89110314E-03
1.74800000E+09	 9.98154531E-01	-1.64912236E-02
1.74900000E+09	 9.98469255E-01	-7.67804262E-03
1.75000000E+09	 9.98287837E-01	-1.49104277E-02
1.75100000E+09	 9.98455605E-01	-2.13186256E-02
1.75200000E+09	 9.98460486E-01	-1.75331045E-02
1.75300000E+09	 9.98218507E-01	-2.19006329E-02
1.75400000E+09	 9.98420474E-01	-1.55409458E-02
1.75500000E+09	 9.98455682E-01	-1.50650442E-02
1.75600000E+09	 9.98472620E-01	-1.84485100E-02
1.75700000E+09	 9.98554049E-01	-1.61304775E-02
1.75800000E+09	 9.98434922E-01	-1.38298649E-02
1.75900000E+09	 9.98505132E-01	-1.39093971E-02
1.76000000E+09	 9.98498634E-01	-1.95974520E-02
1.76100000E+09	 9.98504755E-01	-1.62995488E-02
1.76200000E+09	 9.98555481E-01	-1.65350718E-02
1.76300000E+09	 9.98478238E-01	-1.91914560E-02
1.76400000E+09	 9.98431759E-01	-1.61684784E-02
1.76500000E+09	 9.98577686E-01	-1.18182946E-02
1.76600000E+09	 9.98440526E-01	-1.44181012E-02
1.76700000E+09	 9.98394056E-01	-1.23405184E-02
1.76800000E+09	 9.98555242E-01	-1.66997810E-02
1.76900000E+09	 9.98653006E-01	-1.34221099E-02
1.77000000E+09	 9.98599330E-01	-2.03306764E-02
1.77100000E+09	 9.98644093E-01	-1.24245286E-02
1.77200000E+09	 9.98666923E-01	-1.52429031E-02
1.77300000E+09	 9.98588636E-01	-1.71092915E-02
1.77400000E+09	 9.98690956E-01	-7.88770706E-03
1.77500000E+09	 9.98749651E-01	-7.84316079E-03
1.77600000E+09	 9.98633642E-01	-5.17388220E-03
1.77700000E+09	 9.98732144E-01	-9.07038249E-03
1.77800000E+09	 9.98554941E-01	-9.54315734E-03
1.77900000E+09	 9.98718709E-01	-4.29901599E-03
1.78000000E+09	 9.98577022E-01	-7.66161619E-03
1.78100000E+09	 9.98817550E-01	-9.09957397E-04
1.78200000E+09	 9.98629492E-01	-8.01853618E-03
1.78300000E+09	 9.98786636E-01	-9.51745249E-05
1.78400000E+09	 9.98573757E-01	 2.27579047E-04
1.78500000E+09	 9.98534633E-01	-4.32241551E-03
1.78600000E+09	 9.98656807E-01	-1.33652528E-03
1.78700000E+09	 9.98594121E-01	 3.04593341E-03
1.78800000E+09	 9.98662701E-01	 4.13607299E-03
1.78900000E+09	 9.98620258E-01	-1.96663833E-03
1.79000000E+09	 9.98738679E-01	 9.25817916E-04
1.79100000E+09	 9.98621547E-01	 4.91816907E-03
1.79200000E+09	 9.98689705E-01	 1.87008999E-03
1.79300000E+09	 9.98827250E-01	-3.82995113E-03
1.79400000E+09	 9.98751146E-01	 7.41512015E-04
1.79500000E+09	 9.98643379E-01	-7.17953717E-03
1.79600000E+09	 9.98689600E-01	 8.78183022E-04
1.79700000E+09	 9.98772740E-01	 9.93413668E-03
1.79800000E+09	 9.98654138E-01	 6.67319732E-03
1.79900000E+09	 9.98692370E-01	-2.44916776E-03
1.80000000E+09	 9.98736846E-01	-3.60806542E-03
1.80100000E+09	 9.98864847E-01	 7.70249570E-03
1.80200000E+09	 9.98839062E-01	 5.23005771E-03
1.80300000E+09	 9.98719254E-01	 7.42251863E-03
1.80400000E+09	 9.98805346E-01	-2.42026858E-03
1.80500000E+09	 9.98568537E-01	 3.05560972E-03
1.80600000E+09	 9.98661993E-01	 1.35645359E-03
1.80700000E+09	 9.98989645E-01	 3.02999726E-03
1.80800000E+09	 9.98797385E-01	 1.39972538E-02
1.80900000E+09	 9.98917082E-01	 3.78445687E-03
1.81000000E+09	 9.98642045E-01	 1.01433285E-02
1.81100000E+09	 9.98958992E-01	 5.59231529E-03
1.81200000E+09	 9.98865827E-01	 1.26539581E-02
1.81300000E+09	 9.98812629E-01	 4.21306826E-03
1.81400000E+09	 9.98898615E-01	 9.45515791E-03
1.81500000E+09	 9.98897823E-01	 6.38533935E-03
1.81600000E+09	 9.98878749E-01	 5.53913681E-03
1.81700000E+09	 9.99063470E-01	 1.57713453E-02
1.81800000E+09	 9.99076221E-01	 6.96068845E-03
1.81900000E+09	 9.98939224E-01	 8.20033593E-03
1.82000000E+09	 9.98670985E-01	 7.14273450E-03
1.82100000E+09	 9.98921483E-01	 8.30827596E-03
1.82200000E+09	 9.98708416E-01	 1.45007882E-02
1.82300000E+09	 9.98748353E-01	 3.52529812E-03
1.82400000E+09	 9.98862784E-01	 7.53363359E-03
1.82500000E+09	 9.98947802E-01	 2.93921537E-06
1.82600000E+09	 9.98922585E-01	 1.48673795E-02
1.82700000E+09	 9.98855964E-01	 8.61774563E-03
1.82800000E+09	 9.98928138E-01	 7.80368007E-03
1.82900000E+09	 9.98934715E-01	 1.25579018E-02
1.83000000E+09	 9.99010888E-01	 4.26300187E-03
1.83100000E+09	 9.98824241E-01	 1.46385077E-02
1.83200000E+09	 9.98827885E-01	 1.50719413E-02
1.83300000E+09	 9.98896128E-01	 1.73764453E-02
1.83400000E+09	 9.98795014E-01	 5.94176390E-03
1.83500000E+09	 9.98793216E-01	 1.42620108E-02
1.83600000E+09	 9.98758545E-01	 1.34143803E-02
1.83700000E+09	 9.98848797E-01	 1.62188141E-02
1.83800000E+09	 9.98788794E-01	 1.83141327E-02
1.83900000E+09	 9.98758547E-01	 1.86507508E-02
1.84000000E+09	 9.98814066E-01	 1.37503829E-02
1.84100000E+09	 9.98828680E-01	 1.25156505E-02
1.84200000E+09	 9.98843542E-01	 1.33334413E-02
1.84300000E+09	 9.98915090E-01	 1.15656760E-02
1.84400000E+09	 9.98739630E-01	 3.84016890E-03
1.84500000E+09	 9.98821604E-01	 1.09570296E-02
1.84600000E+09	 9.98912747E-01	 1.01316025E-02
1.84700000E+09	 9.98797980E-01	 8.13077468E-03
1.84800000E+09	 9.98850490E-01	 9.96819616E-03
1.84900000E+09	 9.98814166E-01	 3.09140618E-03
1.85000000E+09	 9.98783421E-01	 1.08280756E-02
1.85100000E+09	 9.98705651E-01	 7.74154230E-03
1.85200000E+09	 9.98733900E-01	 1.27959765E-02
1.85300000E+09	 9.98709666E-01	 1.34907619E-02
1.85400000E+09	 9.98779228E-01	 1.24562211E-02
1.85500000E+09	 9.98743954E-01	 8.89538125E-03
1.85600000E+09	 9.98701879E-01	 2.17732131E-02
1.85700000E+09	 9.98726588E-01	 8.77855897E-03
1.85800000E+09	 9.98498192E-01	 1.58766402E-02
1.85900000E+09	 9.98643012E-01	 7.23990352E-03
1.86000000E+09	 9.98734079E-01	 1.38586339E-02
1.86100000E+09	 9.98743308E-01	 1.08616725E-02
1.86200000E+09	 9.98627118E-01	 9.38327578E-03
1.86300000E+09	 9.98415253E-01	 4.43222178E-03
1.86400000E+09	 9.98762032E-01	 1.27902384E-02
1.86500000E+09	 9.98683454E-01	 7.01417375E-03
1.86600000E+09	 9.98766218E-01	 7.05213421E-03
1.86700000E+09	 9.98681835E-01	 7.27510450E-03
1.86800000E+09	 9.98488249E-01	 1.08005666E-02
1.86900000E+09	 9.98397853E-01	 1.54005021E-02
1.87000000E+09	 9.98614223E-01	 1.02433577E-02
1.87100000E+09	 9.98616450E-01	 8.46684633E-03
1.87200000E+09	 9.98639927E-01	-1.51540115E-03
1.87300000E+09	 9.98596002E-01	 1.42275896E-02
1.87400000E+09	 9.98352894E-01	 6.90336777E-03
1.87500000E+09	 9.98366488E-01	 1.15059863E-02
1.87600000E+09	 9.98433122E-01	 1.00248265E-02
1.87700000E+09	 9.98155488E-01	 9.69967769E-03
1.87800000E+09	 9.98446513E-01	 4.77531436E-03
1.87900000E+09	 9.98392283E-01	 6.69789847E-03
1.88000000E+09	 9.98524340E-01	 1.03599412E-02
1.88100000E+09	 9.98428753E-01	 3.97635610E-03
1.88200000E+09	 9.98512732E-01	 5.87869327E-03
1.88300000E+09	 9.98233797E-01	 6.58472429E-03
1.88400000E+09	 9.98530301E-01	 1.91339555E-02
1.88500000E+09	 9.97964321E-01	 1.49699742E-02
1.88600000E+09	 9.98439507E-01	 1.31934836E-02
1.88700000E+09	 9.98139429E-01	-3.71864596E-03
1.88800000E+09	 9.98151107E-01	 8.91873052E-03
1.88900000E+09	 9.98173434E-01	 6.28040573E-03
1.89000000E+09	 9.98329976E-01	 1.70545268E-02
1.89100000E+09	 9.98252993E-01	-1.00543170E-02
1.89200000E+09	 9.98235218E-01	-8.98864977E-04
1.89300000E+09	 9.98451206E-01	-6.50329775E-03
1.89400000E+09	 9.98233675E-01	 2.85495854E-03
1.89500000E+09	 9.97955772E-01	 7.90960922E-03
1.89600000E+09	 9.98018416E-01	 5.14087638E-03
1.89700000E+09	 9.97885340E-01	 8.73988918E-03
1.89800000E+09	 9.98121762E-01	 6.52694863E-03
1.89900000E+09	 9.98008118E-01	-8.78892620E-04
1.90000000E+09	 9.98136164E-01	 6.44516575E-04
1.90100000E+09	 9.98129953E-01	 1.54574378E-03
1.90200000E+09	 9.97975722E-01	 1.01576697E-02
1.90300000E+09	 9.98219630E-01	-5.74234713E-04
1.90400000E+09	 9.97942834E-01	-7.98915169E-04
1.90500000E+09	 9.97906251E-01	-1.58277973E-03
1.90600000E+09	 9.98000163E-01	 6.37265139E-03
1.90700000E+09	 9.97979446E-01	 3.82454650E-03
1.90800000E+09	 9.97980041E-01	-1.72177704E-03
1.90900000E+09	 9.98004757E-01	-1.77878476E-03
1.91000000E+09	 9.97881183E-01	-1.72625265E-03
1.91100000E+09	 9.97905097E-01	-7.10868537E-03
1.91200000E+09	 9.98045320E-01	-1.97254254E-03
1.91300000E+09	 9.97836645E-01	-6.48705088E-03
1.91400000E+09	 9.97896963E-01	 2.04267792E-03
1.91500000E+09	 9.97822908E-01	-5.23244871E-03
1.91600000E+09	 9.97966052E-01	-1.55537542E-03
1.91700000E+09	 9.97941345E-01	-4.31429639E-03
1.91800000E+09	 9.97835016E-01	-1.63505355E-03
1.91900000E+09	 9.97892790E-01	 4.39423218E-03
1.92000000E+09	 9.97807347E-01	-1.34590700E-02
1.92100000E+09	 9.97829347E-01	-8.60875844E-03
1.92200000E+09	 9.97867130E-01	-8.18228250E-03
1.92300000E+09	 9.97846890E-01	-6.81868148E-03
1.92400000E+09	 9.97904958E-01	-7.80898970E-03
1.92500000E+09	 9.97816143E-01	-5.65696371E-03
1.92600000E+09	 9.97794397E-01	-9.65487905E-03
1.92700000E+09	 9.97888675E-01	-2.27409670E-02
1.92800000E+09	 9.97793618E-01	-1.95424552E-02
1.92900000E+09	 9.97842072E-01	-2.05502087E-02
1.93000000E+09	 9.97890618E-01	-1.43485049E-02
1.93100000E+09	 9.97896756E-01	-2.31672721E-02
1.93200000E+09	 9.97924105E-01	-2.40005257E-02
1.93300000E+09	 9.97745990E-01	-2.65916729E-02
1.93400000E+09	 9.97913432E-01	-2.70614377E-02
1.93500000E+09	 9.97860389E-01	-2.61983713E-02
1.93600000E+09	 9.97854851E-01	-1.92964781E-02
1.93700000E+09	 9.97783016E-01	-2.68511245E-02
1.93800000E+09	 9.97888618E-01	-2.29723973E-02
1.93900000E+09	 9.97780033E-01	-2.52208936E-02
1.94000000E+09	 9.97917143E-01	-2.29471620E-02
1.94100000E+09	 9.97955808E-01	-1.50988002E-02
1.94200000E+09	 9.97926825E-01	-1.93758098E-02
1.94300000E+09	 9.97842277E-01	-2.63389440E-02
1.94400000E+09	 9.97829574E-01	-2.00902949E-02
1.94500000E+09	 9.97720482E-01	-1.50763914E-02
1.94600000E+09	 9.97831069E-01	-2.07433586E-02
1.94700000E+09	 9.97642261E-01	-8.63932623E-03
1.94800000E+09	 9.97911884E-01	-2.11946837E-02
1.94900000E+09	 9.97864189E-01	-1.59522240E-02
1.95000000E+09	 9.97783617E-01	-1.99466958E-02
1.95100000E+09	 9.97814755E-01	-2.32846092E-02
1.95200000E+09	 9.97902336E-01	-1.40350748E-02
1.95300000E+09	 9.97794647E-01	-1.91227534E-02
1.95400000E+09	 9.97894146E-01	-7.62856245E-03
1.95500000E+09	 9.97990858E-01	-1.90391568E-02
1.95600000E+09	 9.97857443E-01	-2.11268731E-02
1.95700000E+09	 9.97958499E-01	-1.37285910E-02
1.95800000E+09	 9.98126598E-01	-1.74328660E-02
1.95900000E+09	 9.98028609E-01	-1.68628037E-02
1.96000000E+09	 9.97990649E-01	-1.99134357E-02
1.96100000E+09	 9.97832106E-01	-1.59467923E-02
1.96200000E+09	 9.98004388E-01	-1.08614864E-02
1.96300000E+09	 9.98021054E-01	-1.88866948E-02
1.96400000E+09	 9.97964547E-01	-1.30050629E-02
1.96500000E+09	 9.98104398E-01	-1.30059414E-02
1.96600000E+09	 9.98191609E-01	-1.56367668E-02
1.96700000E+09	 9.97932055E-01	-6.51580953E-03
1.96800000E+09	 9.98090874E-01	-1.15326376E-02
1.96900000E+09	 9.98019583E-01	-9.69224773E-03
1.97000000E+09	 9.98097145E-01	-1.38077158E-02
1.97100000E+09	 9.98217867E-01	-1.41420444E-02
1.97200000E+09	 9.98178210E-01	-1.12518785E-02
1.97300000E+09	 9.98142746E-01	-8.96614518E-03
1.97400000E+09	 9.97964189E-01	-1.12243929E-02
1.97500000E+09	 9.98236025E-01	-9.64990809E-03
1.97600000E+09	 9.98208610E-01	-5.72306923E-03
1.97700000E+09	 9.98236929E-01	-2.94396970E-03
1.97800000E+09	 9.98118748E-01	-7.66932440E-03
1.97900000E+09	 9.98273218E-01	-5.37115632E-03
1.98000000E+09	 9.98173641E-01	 1.32929328E-03
1.98100000E+09	 9.98219152E-01	 1.27151086E-03
1.98200000E+09	 9.98110290E-01	-2.40250051E-03
1.98300000E+09	 9.98211384E-01	 2.97247728E-03
1.98400000E+09	 9.98088525E-01	-2.29383598E-03
1.98500000E+09	 9.98290338E-01	-2.19958955E-03
1.98600000E+09	 9.98291552E-01	 2.70065988E-03
1.98700000E+09	 9.98212430E-01	 8.51154031E-03
1.98800000E+09	 9.98371416E-01	 8.50627836E-03
1.98900000E+09	 9.98226572E-01	 8.43897296E-03
1.99000000E+09	 9.98280618E-01	 2.76962739E-03
1.99100000E+09	 9.98267077E-01	 2.08928652E-02
1.99200000E+09	 9.98392641E-01	 1.19017554E-02
1.99300000E+09	 9.98333100E-01	 1.09273310E-02
1.99400000E+09	 9.98285741E-01	 1.19834938E-02
1.99500000E+09	 9.98249076E-01	 1.32745077E-02
1.99600000E+09	 9.98366988E-01	 7.18507311E-03
1.99700000E+09	 9.98411267E-01	 1.17385041E-02
1.99800000E+09	 9.98423241E-01	 1.58943114E-02
1.99900000E+09	 9.98464910E-01	 1.84767555E-02
2.00000000E+09	 9.98411222E-01	 2.34621819E-02
