! COPPER MOUNTAIN TECHNOLOGIES, R60, 23103002, 24.3.3/3.0
! Date: 25/6/2026 15:06:34
! Data: Format [Calibration Info]
! Frequency		S11: Mag/Ang F1                
# HZ S MA R 50
1.00000000E+06	 9.99012383E-01	 1.36737926E-01
2.00000000E+06	 9.98816716E-01	 2.62784183E-02
3.00000000E+06	 9.98739566E-01	-8.71394062E-02
4.00000000E+06	 9.98911717E-01	-1.95954303E-01
5.00000000E+06	 9.98912680E-01	-3.12848101E-01
6.00000000E+06	 9.98953903E-01	-4.21567631E-01
7.00000000E+06	 9.99101226E-01	-5.37714797E-01
8.00000000E+06	 9.98961412E-01	-6.52999971E-01
9.00000000E+06	 9.99063413E-01	-7.58904860E-01
1.00000000E+07	 9.98912057E-01	-8.86688603E-01
1.10000000E+07	 9.98854129E-01	-9.72399548E-01
1.20000000E+07	 9.98998013E-01	-1.09466245E+00
1.30000000E+07	 9.98863229E-01	-1.23544923E+00
1.40000000E+07	 9.98717975E-01	-1.34683245E+00
1.50000000E+07	 9.98728326E-01	-1.46874338E+00
1.60000000E+07	 9.98723215E-01	-1.58072061E+00
1.70000000E+07	 9.98669423E-01	-1.69508580E+00
1.80000000E+07	 9.98570382E-01	-1.81268912E+00
1.90000000E+07	 9.98486082E-01	-1.92607357E+00
2.00000000E+07	 9.98377974E-01	-2.03323884E+00
2.10000000E+07	 9.98409811E-01	-2.15205669E+00
2.20000000E+07	 9.98443022E-01	-2.26188810E+00
2.30000000E+07	 9.98224245E-01	-2.34843417E+00
2.40000000E+07	 9.98342225E-01	-2.46659522E+00
2.50000000E+07	 9.98216060E-01	-2.59834881E+00
2.60000000E+07	 9.98107170E-01	-2.70647979E+00
2.70000000E+07	 9.97974095E-01	-2.83148249E+00
2.80000000E+07	 9.97873807E-01	-2.93321547E+00
2.90000000E+07	 9.97656087E-01	-3.05167630E+00
3.00000000E+07	 9.97520359E-01	-3.16339505E+00
3.10000000E+07	 9.97438406E-01	-3.29100728E+00
3.20000000E+07	 9.97334535E-01	-3.39595084E+00
3.30000000E+07	 9.97369901E-01	-3.50908409E+00
3.40000000E+07	 9.97203656E-01	-3.61972299E+00
3.50000000E+07	 9.96974434E-01	-3.72676715E+00
3.60000000E+07	 9.96825327E-01	-3.84539353E+00
3.70000000E+07	 9.96920119E-01	-3.95011727E+00
3.80000000E+07	 9.96700177E-01	-4.05689165E+00
3.90000000E+07	 9.96564173E-01	-4.16747979E+00
4.00000000E+07	 9.96372828E-01	-4.27334493E+00
4.10000000E+07	 9.96267617E-01	-4.38120101E+00
4.20000000E+07	 9.96077452E-01	-4.50610650E+00
4.30000000E+07	 9.95985471E-01	-4.62944260E+00
4.40000000E+07	 9.95822130E-01	-4.73551639E+00
4.50000000E+07	 9.95738619E-01	-4.82885957E+00
4.60000000E+07	 9.95491233E-01	-4.93921542E+00
4.70000000E+07	 9.95366355E-01	-5.03642764E+00
4.80000000E+07	 9.95344221E-01	-5.14993825E+00
4.90000000E+07	 9.95091582E-01	-5.27049953E+00
5.00000000E+07	 9.95020529E-01	-5.37813806E+00
5.10000000E+07	 9.94719297E-01	-5.48308957E+00
5.20000000E+07	 9.94530150E-01	-5.60213412E+00
5.30000000E+07	 9.94439677E-01	-5.70773341E+00
5.40000000E+07	 9.94209747E-01	-5.82298388E+00
5.50000000E+07	 9.93991444E-01	-5.93400322E+00
5.60000000E+07	 9.93904670E-01	-6.04665366E+00
5.70000000E+07	 9.93558771E-01	-6.15509351E+00
5.80000000E+07	 9.93442437E-01	-6.26872620E+00
5.90000000E+07	 9.93292138E-01	-6.38091197E+00
6.00000000E+07	 9.92987620E-01	-6.48680083E+00
6.10000000E+07	 9.92809856E-01	-6.59883999E+00
6.20000000E+07	 9.92459508E-01	-6.70863732E+00
6.30000000E+07	 9.92375788E-01	-6.81818154E+00
6.40000000E+07	 9.92055030E-01	-6.92337314E+00
6.50000000E+07	 9.91851968E-01	-7.04297652E+00
6.60000000E+07	 9.91575734E-01	-7.15180998E+00
6.70000000E+07	 9.91368149E-01	-7.25607241E+00
6.80000000E+07	 9.91174504E-01	-7.36809017E+00
6.90000000E+07	 9.90895868E-01	-7.47500707E+00
7.00000000E+07	 9.90744244E-01	-7.58437855E+00
7.10000000E+07	 9.90300653E-01	-7.70059800E+00
7.20000000E+07	 9.90020870E-01	-7.80899321E+00
7.30000000E+07	 9.89866022E-01	-7.90782445E+00
7.40000000E+07	 9.89546545E-01	-8.02167039E+00
7.50000000E+07	 9.89302216E-01	-8.12358091E+00
7.60000000E+07	 9.89042926E-01	-8.23880369E+00
7.70000000E+07	 9.88916258E-01	-8.34172022E+00
7.80000000E+07	 9.88597720E-01	-8.45267711E+00
7.90000000E+07	 9.88349088E-01	-8.55788460E+00
8.00000000E+07	 9.87979199E-01	-8.67194289E+00
8.10000000E+07	 9.87762998E-01	-8.77513696E+00
8.20000000E+07	 9.87374750E-01	-8.89182283E+00
8.30000000E+07	 9.87300347E-01	-8.98826030E+00
8.40000000E+07	 9.86743337E-01	-9.10691876E+00
8.50000000E+07	 9.86345056E-01	-9.20849111E+00
8.60000000E+07	 9.86120534E-01	-9.32270588E+00
8.70000000E+07	 9.85750260E-01	-9.43183072E+00
8.80000000E+07	 9.85498535E-01	-9.53821912E+00
8.90000000E+07	 9.85081594E-01	-9.64435545E+00
9.00000000E+07	 9.84723382E-01	-9.75356961E+00
9.10000000E+07	 9.84295837E-01	-9.86332417E+00
9.20000000E+07	 9.84037000E-01	-9.97238697E+00
9.30000000E+07	 9.83569523E-01	-1.00743271E+01
9.40000000E+07	 9.83335198E-01	-1.01917913E+01
9.50000000E+07	 9.82866508E-01	-1.02953131E+01
9.60000000E+07	 9.82597622E-01	-1.04017880E+01
9.70000000E+07	 9.82236513E-01	-1.05077964E+01
9.80000000E+07	 9.81761448E-01	-1.06169093E+01
9.90000000E+07	 9.81399499E-01	-1.07217895E+01
1.00000000E+08	 9.81024030E-01	-1.08341523E+01
1.01000000E+08	 9.80695739E-01	-1.09324374E+01
1.02000000E+08	 9.80225553E-01	-1.10362433E+01
1.03000000E+08	 9.79923402E-01	-1.11508167E+01
1.04000000E+08	 9.79590936E-01	-1.12629844E+01
1.05000000E+08	 9.79170270E-01	-1.13578704E+01
1.06000000E+08	 9.78709978E-01	-1.14708074E+01
1.07000000E+08	 9.78223886E-01	-1.15801026E+01
1.08000000E+08	 9.77882743E-01	-1.16820069E+01
1.09000000E+08	 9.77503024E-01	-1.17901526E+01
1.10000000E+08	 9.77012840E-01	-1.19030138E+01
1.11000000E+08	 9.76670388E-01	-1.20011716E+01
1.12000000E+08	 9.76159890E-01	-1.21112586E+01
1.13000000E+08	 9.75815415E-01	-1.22142089E+01
1.14000000E+08	 9.75246021E-01	-1.23195792E+01
1.15000000E+08	 9.74795004E-01	-1.24204814E+01
1.16000000E+08	 9.74468579E-01	-1.25360298E+01
1.17000000E+08	 9.73997312E-01	-1.26426510E+01
1.18000000E+08	 9.73388327E-01	-1.27478633E+01
1.19000000E+08	 9.72960320E-01	-1.28521296E+01
1.20000000E+08	 9.72613603E-01	-1.29559508E+01
1.21000000E+08	 9.72088517E-01	-1.30576271E+01
1.22000000E+08	 9.71577745E-01	-1.31658218E+01
1.23000000E+08	 9.70944650E-01	-1.32674483E+01
1.24000000E+08	 9.70558630E-01	-1.33661993E+01
1.25000000E+08	 9.70136070E-01	-1.34738628E+01
1.26000000E+08	 9.69751352E-01	-1.35715368E+01
1.27000000E+08	 9.69303095E-01	-1.36700932E+01
1.28000000E+08	 9.68831073E-01	-1.37783988E+01
1.29000000E+08	 9.68226076E-01	-1.38804568E+01
1.30000000E+08	 9.67690116E-01	-1.39914576E+01
1.31000000E+08	 9.67410487E-01	-1.40883103E+01
1.32000000E+08	 9.66753871E-01	-1.41970411E+01
1.33000000E+08	 9.66282067E-01	-1.43013324E+01
1.34000000E+08	 9.65909440E-01	-1.44085671E+01
1.35000000E+08	 9.65274667E-01	-1.45058980E+01
1.36000000E+08	 9.64740427E-01	-1.46104800E+01
1.37000000E+08	 9.64211983E-01	-1.47168086E+01
1.38000000E+08	 9.63587320E-01	-1.48117272E+01
1.39000000E+08	 9.63166162E-01	-1.49276254E+01
1.40000000E+08	 9.62635073E-01	-1.50208412E+01
1.41000000E+08	 9.61958297E-01	-1.51250744E+01
1.42000000E+08	 9.61442474E-01	-1.52362027E+01
1.43000000E+08	 9.60993149E-01	-1.53324103E+01
1.44000000E+08	 9.60347092E-01	-1.54394971E+01
1.45000000E+08	 9.59994182E-01	-1.55494694E+01
1.46000000E+08	 9.59363128E-01	-1.56389652E+01
1.47000000E+08	 9.58684957E-01	-1.57448719E+01
1.48000000E+08	 9.58177857E-01	-1.58487424E+01
1.49000000E+08	 9.57592981E-01	-1.59501827E+01
1.50000000E+08	 9.56993210E-01	-1.60556992E+01
1.51000000E+08	 9.56529538E-01	-1.61586033E+01
1.52000000E+08	 9.55790070E-01	-1.62552012E+01
1.53000000E+08	 9.55280614E-01	-1.63658292E+01
1.54000000E+08	 9.54802861E-01	-1.64673172E+01
1.55000000E+08	 9.54305752E-01	-1.65698851E+01
1.56000000E+08	 9.53599780E-01	-1.66716873E+01
1.57000000E+08	 9.52975853E-01	-1.67669645E+01
1.58000000E+08	 9.52378594E-01	-1.68797802E+01
1.59000000E+08	 9.51776819E-01	-1.69834953E+01
1.60000000E+08	 9.51206149E-01	-1.70790024E+01
1.61000000E+08	 9.50514928E-01	-1.71867425E+01
1.62000000E+08	 9.49967453E-01	-1.72966475E+01
1.63000000E+08	 9.49301225E-01	-1.73920134E+01
1.64000000E+08	 9.48759987E-01	-1.74842230E+01
1.65000000E+08	 9.48146727E-01	-1.75987701E+01
1.66000000E+08	 9.47514677E-01	-1.76930712E+01
1.67000000E+08	 9.46980148E-01	-1.77956049E+01
1.68000000E+08	 9.46312687E-01	-1.78908094E+01
1.69000000E+08	 9.45691473E-01	-1.79894067E+01
1.70000000E+08	 9.45033013E-01	-1.80995141E+01
1.71000000E+08	 9.44404543E-01	-1.81860432E+01
1.72000000E+08	 9.43790240E-01	-1.82970387E+01
1.73000000E+08	 9.43303186E-01	-1.83981511E+01
1.74000000E+08	 9.42669085E-01	-1.85041573E+01
1.75000000E+08	 9.41951547E-01	-1.86022887E+01
1.76000000E+08	 9.41340418E-01	-1.87001629E+01
1.77000000E+08	 9.40708330E-01	-1.88019739E+01
1.78000000E+08	 9.40121123E-01	-1.89018617E+01
1.79000000E+08	 9.39525235E-01	-1.90018466E+01
1.80000000E+08	 9.38865113E-01	-1.91081405E+01
1.81000000E+08	 9.38194319E-01	-1.92034346E+01
1.82000000E+08	 9.37689446E-01	-1.93110875E+01
1.83000000E+08	 9.37014527E-01	-1.94044225E+01
1.84000000E+08	 9.36389071E-01	-1.95151668E+01
1.85000000E+08	 9.35858171E-01	-1.96119139E+01
1.86000000E+08	 9.35102507E-01	-1.97118556E+01
1.87000000E+08	 9.34434167E-01	-1.98084321E+01
1.88000000E+08	 9.33823060E-01	-1.99131040E+01
1.89000000E+08	 9.33117872E-01	-2.00127382E+01
1.90000000E+08	 9.32525125E-01	-2.01292082E+01
1.91000000E+08	 9.31888361E-01	-2.02206062E+01
1.92000000E+08	 9.31245084E-01	-2.03203358E+01
1.93000000E+08	 9.30493177E-01	-2.04222971E+01
1.94000000E+08	 9.29870376E-01	-2.05208121E+01
1.95000000E+08	 9.29252851E-01	-2.06204857E+01
1.96000000E+08	 9.28682429E-01	-2.07211833E+01
1.97000000E+08	 9.28009536E-01	-2.08187174E+01
1.98000000E+08	 9.27375255E-01	-2.09225935E+01
1.99000000E+08	 9.26753617E-01	-2.10271849E+01
2.00000000E+08	 9.26002196E-01	-2.11251829E+01
2.01000000E+08	 9.25340113E-01	-2.12260307E+01
2.02000000E+08	 9.24659050E-01	-2.13335938E+01
2.03000000E+08	 9.24017347E-01	-2.14284346E+01
2.04000000E+08	 9.23343857E-01	-2.15288230E+01
2.05000000E+08	 9.22579637E-01	-2.16327327E+01
2.06000000E+08	 9.21995224E-01	-2.17293684E+01
2.07000000E+08	 9.21325331E-01	-2.18352341E+01
2.08000000E+08	 9.20696649E-01	-2.19298563E+01
2.09000000E+08	 9.19984281E-01	-2.20280240E+01
2.10000000E+08	 9.19298717E-01	-2.21373922E+01
2.11000000E+08	 9.18622694E-01	-2.22321196E+01
2.12000000E+08	 9.17967652E-01	-2.23262485E+01
2.13000000E+08	 9.17380400E-01	-2.24310009E+01
2.14000000E+08	 9.16739249E-01	-2.25281081E+01
2.15000000E+08	 9.15886445E-01	-2.26356143E+01
2.16000000E+08	 9.15258787E-01	-2.27346877E+01
2.17000000E+08	 9.14578917E-01	-2.28335695E+01
2.18000000E+08	 9.13933042E-01	-2.29318494E+01
2.19000000E+08	 9.13306215E-01	-2.30344831E+01
2.20000000E+08	 9.12527789E-01	-2.31327624E+01
2.21000000E+08	 9.11911998E-01	-2.32350024E+01
2.22000000E+08	 9.11250299E-01	-2.33350683E+01
2.23000000E+08	 9.10564405E-01	-2.34363896E+01
2.24000000E+08	 9.09927792E-01	-2.35354771E+01
2.25000000E+08	 9.09152740E-01	-2.36395246E+01
2.26000000E+08	 9.08471302E-01	-2.37345708E+01
2.27000000E+08	 9.07893536E-01	-2.38387182E+01
2.28000000E+08	 9.07178031E-01	-2.39331138E+01
2.29000000E+08	 9.06492537E-01	-2.40335018E+01
2.30000000E+08	 9.05825133E-01	-2.41363562E+01
2.31000000E+08	 9.05219590E-01	-2.42386955E+01
2.32000000E+08	 9.04621972E-01	-2.43362160E+01
2.33000000E+08	 9.03895246E-01	-2.44368702E+01
2.34000000E+08	 9.03154474E-01	-2.45311036E+01
2.35000000E+08	 9.02468500E-01	-2.46332244E+01
2.36000000E+08	 9.01939320E-01	-2.47374076E+01
2.37000000E+08	 9.01182668E-01	-2.48282839E+01
2.38000000E+08	 9.00551972E-01	-2.49304187E+01
2.39000000E+08	 8.99896454E-01	-2.50330019E+01
2.40000000E+08	 8.99142443E-01	-2.51297131E+01
2.41000000E+08	 8.98582605E-01	-2.52261093E+01
2.42000000E+08	 8.97867016E-01	-2.53238596E+01
2.43000000E+08	 8.97247894E-01	-2.54142754E+01
2.44000000E+08	 8.96620348E-01	-2.55179833E+01
2.45000000E+08	 8.95861135E-01	-2.56171790E+01
2.46000000E+08	 8.95177152E-01	-2.57160993E+01
2.47000000E+08	 8.94550746E-01	-2.58135983E+01
2.48000000E+08	 8.93908879E-01	-2.59111581E+01
2.49000000E+08	 8.93323994E-01	-2.60071671E+01
2.50000000E+08	 8.92619720E-01	-2.61072232E+01
2.51000000E+08	 8.91890691E-01	-2.62023673E+01
2.52000000E+08	 8.91337239E-01	-2.63039848E+01
2.53000000E+08	 8.90795052E-01	-2.63989100E+01
2.54000000E+08	 8.90115709E-01	-2.64946558E+01
2.55000000E+08	 8.89294774E-01	-2.65935088E+01
2.56000000E+08	 8.88889881E-01	-2.66893381E+01
2.57000000E+08	 8.88216094E-01	-2.67798924E+01
2.58000000E+08	 8.87521091E-01	-2.68827769E+01
2.59000000E+08	 8.86975658E-01	-2.69818740E+01
2.60000000E+08	 8.86359851E-01	-2.70749516E+01
2.61000000E+08	 8.85643517E-01	-2.71718463E+01
2.62000000E+08	 8.84999124E-01	-2.72661728E+01
2.63000000E+08	 8.84342153E-01	-2.73629169E+01
2.64000000E+08	 8.83834666E-01	-2.74580968E+01
2.65000000E+08	 8.83111758E-01	-2.75524234E+01
2.66000000E+08	 8.82560473E-01	-2.76469677E+01
2.67000000E+08	 8.81777337E-01	-2.77496056E+01
2.68000000E+08	 8.81125770E-01	-2.78458056E+01
2.69000000E+08	 8.80613995E-01	-2.79379990E+01
2.70000000E+08	 8.79899176E-01	-2.80318382E+01
2.71000000E+08	 8.79317859E-01	-2.81263620E+01
2.72000000E+08	 8.78556242E-01	-2.82202130E+01
2.73000000E+08	 8.77997943E-01	-2.83275767E+01
2.74000000E+08	 8.77382025E-01	-2.84149756E+01
2.75000000E+08	 8.76605875E-01	-2.85095120E+01
2.76000000E+08	 8.76061887E-01	-2.86025737E+01
2.77000000E+08	 8.75388688E-01	-2.86986478E+01
2.78000000E+08	 8.74728816E-01	-2.87968857E+01
2.79000000E+08	 8.74066002E-01	-2.88904898E+01
2.80000000E+08	 8.73492489E-01	-2.89866984E+01
2.81000000E+08	 8.72749788E-01	-2.90809147E+01
2.82000000E+08	 8.72180465E-01	-2.91705038E+01
2.83000000E+08	 8.71505965E-01	-2.92712746E+01
2.84000000E+08	 8.70925693E-01	-2.93602877E+01
2.85000000E+08	 8.70224184E-01	-2.94575863E+01
2.86000000E+08	 8.69541458E-01	-2.95476733E+01
2.87000000E+08	 8.68963140E-01	-2.96468358E+01
2.88000000E+08	 8.68421171E-01	-2.97374531E+01
2.89000000E+08	 8.67647205E-01	-2.98292116E+01
2.90000000E+08	 8.67118282E-01	-2.99209956E+01
2.91000000E+08	 8.66405538E-01	-3.00087387E+01
2.92000000E+08	 8.65775400E-01	-3.01106826E+01
2.93000000E+08	 8.65062967E-01	-3.01912781E+01
2.94000000E+08	 8.64554439E-01	-3.02875525E+01
2.95000000E+08	 8.63939963E-01	-3.03818683E+01
2.96000000E+08	 8.63259656E-01	-3.04694548E+01
2.97000000E+08	 8.62609902E-01	-3.05630288E+01
2.98000000E+08	 8.62088743E-01	-3.06565832E+01
2.99000000E+08	 8.61539791E-01	-3.07478379E+01
3.00000000E+08	 8.60944107E-01	-3.08303866E+01
3.01000000E+08	 8.60329966E-01	-3.09297049E+01
3.02000000E+08	 8.59666739E-01	-3.10113963E+01
3.03000000E+08	 8.59102817E-01	-3.11050558E+01
3.04000000E+08	 8.58538574E-01	-3.11955456E+01
3.05000000E+08	 8.57976744E-01	-3.12961781E+01
3.06000000E+08	 8.57280193E-01	-3.13799249E+01
3.07000000E+08	 8.56603054E-01	-3.14683656E+01
3.08000000E+08	 8.56005497E-01	-3.15583004E+01
3.09000000E+08	 8.55433344E-01	-3.16456866E+01
3.10000000E+08	 8.54831930E-01	-3.17325434E+01
3.11000000E+08	 8.54154172E-01	-3.18232921E+01
3.12000000E+08	 8.53678946E-01	-3.19122208E+01
3.13000000E+08	 8.52953771E-01	-3.19958440E+01
3.14000000E+08	 8.52511526E-01	-3.20894940E+01
3.15000000E+08	 8.51856178E-01	-3.21697934E+01
3.16000000E+08	 8.51225038E-01	-3.22588329E+01
3.17000000E+08	 8.50667848E-01	-3.23504212E+01
3.18000000E+08	 8.50132447E-01	-3.24427724E+01
3.19000000E+08	 8.49345696E-01	-3.25254147E+01
3.20000000E+08	 8.48929891E-01	-3.26160849E+01
3.21000000E+08	 8.48200580E-01	-3.26937441E+01
3.22000000E+08	 8.47671334E-01	-3.27848023E+01
3.23000000E+08	 8.47144013E-01	-3.28696222E+01
3.24000000E+08	 8.46479826E-01	-3.29520819E+01
3.25000000E+08	 8.45930254E-01	-3.30344181E+01
3.26000000E+08	 8.45214722E-01	-3.31242590E+01
3.27000000E+08	 8.44840266E-01	-3.32110313E+01
3.28000000E+08	 8.44171679E-01	-3.32933953E+01
3.29000000E+08	 8.43504148E-01	-3.33801122E+01
3.30000000E+08	 8.42979243E-01	-3.34546088E+01
3.31000000E+08	 8.42419141E-01	-3.35423472E+01
3.32000000E+08	 8.41833508E-01	-3.36326053E+01
3.33000000E+08	 8.41288044E-01	-3.37103826E+01
3.34000000E+08	 8.40652843E-01	-3.37940455E+01
3.35000000E+08	 8.40162973E-01	-3.38782811E+01
3.36000000E+08	 8.39526598E-01	-3.39579063E+01
3.37000000E+08	 8.38926079E-01	-3.40386499E+01
3.38000000E+08	 8.38413160E-01	-3.41269287E+01
3.39000000E+08	 8.37855994E-01	-3.42031697E+01
3.40000000E+08	 8.37187750E-01	-3.42864220E+01
3.41000000E+08	 8.36706427E-01	-3.43728277E+01
3.42000000E+08	 8.36127306E-01	-3.44470444E+01
3.43000000E+08	 8.35558029E-01	-3.45352123E+01
3.44000000E+08	 8.34849778E-01	-3.46184451E+01
3.45000000E+08	 8.34322074E-01	-3.46909109E+01
3.46000000E+08	 8.33704450E-01	-3.47672418E+01
3.47000000E+08	 8.33198403E-01	-3.48559774E+01
3.48000000E+08	 8.32641967E-01	-3.49383860E+01
3.49000000E+08	 8.32052336E-01	-3.50170590E+01
3.50000000E+08	 8.31473036E-01	-3.50983558E+01
3.51000000E+08	 8.30798827E-01	-3.51737928E+01
3.52000000E+08	 8.30204647E-01	-3.52471108E+01
3.53000000E+08	 8.29605993E-01	-3.53259105E+01
3.54000000E+08	 8.29097493E-01	-3.54103748E+01
3.55000000E+08	 8.28526532E-01	-3.54838001E+01
3.56000000E+08	 8.27859408E-01	-3.55609403E+01
3.57000000E+08	 8.27168278E-01	-3.56347904E+01
3.58000000E+08	 8.26705393E-01	-3.57187672E+01
3.59000000E+08	 8.26034828E-01	-3.57946968E+01
3.60000000E+08	 8.25454697E-01	-3.58694038E+01
3.61000000E+08	 8.24896528E-01	-3.59477043E+01
3.62000000E+08	 8.24223447E-01	-3.60240829E+01
3.63000000E+08	 8.23659089E-01	-3.61005544E+01
3.64000000E+08	 8.23001094E-01	-3.61768736E+01
3.65000000E+08	 8.22489514E-01	-3.62532331E+01
3.66000000E+08	 8.21828792E-01	-3.63277947E+01
3.67000000E+08	 8.21301457E-01	-3.63995208E+01
3.68000000E+08	 8.20768993E-01	-3.64762355E+01
3.69000000E+08	 8.20188731E-01	-3.65450362E+01
3.70000000E+08	 8.19571131E-01	-3.66238675E+01
3.71000000E+08	 8.18999318E-01	-3.66980865E+01
3.72000000E+08	 8.18471703E-01	-3.67669355E+01
3.73000000E+08	 8.17849470E-01	-3.68452729E+01
3.74000000E+08	 8.17231246E-01	-3.69184309E+01
3.75000000E+08	 8.16717247E-01	-3.69894383E+01
3.76000000E+08	 8.16111694E-01	-3.70669835E+01
3.77000000E+08	 8.15532992E-01	-3.71324770E+01
3.78000000E+08	 8.15051290E-01	-3.72037114E+01
3.79000000E+08	 8.14388111E-01	-3.72704867E+01
3.80000000E+08	 8.13824302E-01	-3.73419974E+01
3.81000000E+08	 8.13169973E-01	-3.74145015E+01
3.82000000E+08	 8.12589802E-01	-3.74826518E+01
3.83000000E+08	 8.12030174E-01	-3.75541982E+01
3.84000000E+08	 8.11436622E-01	-3.76180158E+01
3.85000000E+08	 8.10741997E-01	-3.76796680E+01
3.86000000E+08	 8.10223112E-01	-3.77552554E+01
3.87000000E+08	 8.09711613E-01	-3.78269842E+01
3.88000000E+08	 8.09106006E-01	-3.78904286E+01
3.89000000E+08	 8.08371981E-01	-3.79659028E+01
3.90000000E+08	 8.07989123E-01	-3.80328952E+01
3.91000000E+08	 8.07230087E-01	-3.80998973E+01
3.92000000E+08	 8.06652011E-01	-3.81686847E+01
3.93000000E+08	 8.06083554E-01	-3.82317631E+01
3.94000000E+08	 8.05501367E-01	-3.82961346E+01
3.95000000E+08	 8.04900675E-01	-3.83627902E+01
3.96000000E+08	 8.04242345E-01	-3.84311029E+01
3.97000000E+08	 8.03690007E-01	-3.85011293E+01
3.98000000E+08	 8.03089668E-01	-3.85707061E+01
3.99000000E+08	 8.02491490E-01	-3.86322364E+01
4.00000000E+08	 8.01921755E-01	-3.86999532E+01
4.01000000E+08	 8.01193321E-01	-3.87639237E+01
4.02000000E+08	 8.00612418E-01	-3.88269867E+01
4.03000000E+08	 7.99960160E-01	-3.88942846E+01
4.04000000E+08	 7.99436074E-01	-3.89558612E+01
4.05000000E+08	 7.98731983E-01	-3.90234378E+01
4.06000000E+08	 7.98122139E-01	-3.90895016E+01
4.07000000E+08	 7.97427688E-01	-3.91460528E+01
4.08000000E+08	 7.96823762E-01	-3.92164532E+01
4.09000000E+08	 7.96182476E-01	-3.92731669E+01
4.10000000E+08	 7.95620443E-01	-3.93330783E+01
4.11000000E+08	 7.94905372E-01	-3.93994783E+01
4.12000000E+08	 7.94417027E-01	-3.94557289E+01
4.13000000E+08	 7.93785323E-01	-3.95258421E+01
4.14000000E+08	 7.93134000E-01	-3.95762391E+01
4.15000000E+08	 7.92410984E-01	-3.96458250E+01
4.16000000E+08	 7.91764805E-01	-3.97018652E+01
4.17000000E+08	 7.91246649E-01	-3.97660322E+01
4.18000000E+08	 7.90508259E-01	-3.98274127E+01
4.19000000E+08	 7.89896825E-01	-3.98900536E+01
4.20000000E+08	 7.89329731E-01	-3.99523807E+01
4.21000000E+08	 7.88575230E-01	-4.00114876E+01
4.22000000E+08	 7.87925227E-01	-4.00726376E+01
4.23000000E+08	 7.87331430E-01	-4.01406691E+01
4.24000000E+08	 7.86681977E-01	-4.02004169E+01
4.25000000E+08	 7.86058724E-01	-4.02576294E+01
4.26000000E+08	 7.85319402E-01	-4.03149615E+01
4.27000000E+08	 7.84651591E-01	-4.03716444E+01
4.28000000E+08	 7.84044096E-01	-4.04267668E+01
4.29000000E+08	 7.83405062E-01	-4.04925129E+01
4.30000000E+08	 7.82760349E-01	-4.05522787E+01
4.31000000E+08	 7.82081651E-01	-4.06038485E+01
4.32000000E+08	 7.81333960E-01	-4.06637288E+01
4.33000000E+08	 7.80687310E-01	-4.07233962E+01
4.34000000E+08	 7.79960741E-01	-4.07826599E+01
4.35000000E+08	 7.79328308E-01	-4.08436427E+01
4.36000000E+08	 7.78639949E-01	-4.09024587E+01
4.37000000E+08	 7.77951128E-01	-4.09634824E+01
4.38000000E+08	 7.77268264E-01	-4.10155519E+01
4.39000000E+08	 7.76649842E-01	-4.10749270E+01
4.40000000E+08	 7.75843035E-01	-4.11296590E+01
4.41000000E+08	 7.75135538E-01	-4.11895819E+01
4.42000000E+08	 7.74524042E-01	-4.12445374E+01
4.43000000E+08	 7.73921718E-01	-4.13074834E+01
4.44000000E+08	 7.73123267E-01	-4.13608218E+01
4.45000000E+08	 7.72468176E-01	-4.14186988E+01
4.46000000E+08	 7.71858751E-01	-4.14739509E+01
4.47000000E+08	 7.71096318E-01	-4.15257749E+01
4.48000000E+08	 7.70402895E-01	-4.15850663E+01
4.49000000E+08	 7.69698214E-01	-4.16408237E+01
4.50000000E+08	 7.68966731E-01	-4.16960736E+01
4.51000000E+08	 7.68242584E-01	-4.17455729E+01
4.52000000E+08	 7.67460971E-01	-4.18054789E+01
4.53000000E+08	 7.66919374E-01	-4.18618928E+01
4.54000000E+08	 7.66164175E-01	-4.19166351E+01
4.55000000E+08	 7.65422587E-01	-4.19773064E+01
4.56000000E+08	 7.64749227E-01	-4.20204080E+01
4.57000000E+08	 7.64083469E-01	-4.20893704E+01
4.58000000E+08	 7.63325699E-01	-4.21407192E+01
4.59000000E+08	 7.62638325E-01	-4.21878934E+01
4.60000000E+08	 7.61948694E-01	-4.22531919E+01
4.61000000E+08	 7.61253182E-01	-4.23073329E+01
4.62000000E+08	 7.60487712E-01	-4.23671599E+01
4.63000000E+08	 7.59810871E-01	-4.24158479E+01
4.64000000E+08	 7.59066960E-01	-4.24766976E+01
4.65000000E+08	 7.58362925E-01	-4.25214124E+01
4.66000000E+08	 7.57667307E-01	-4.25790340E+01
4.67000000E+08	 7.56909137E-01	-4.26354016E+01
4.68000000E+08	 7.56127344E-01	-4.26903535E+01
4.69000000E+08	 7.55403594E-01	-4.27455587E+01
4.70000000E+08	 7.54834768E-01	-4.28015740E+01
4.71000000E+08	 7.54024246E-01	-4.28511757E+01
4.72000000E+08	 7.53362400E-01	-4.29100603E+01
4.73000000E+08	 7.52552551E-01	-4.29625977E+01
4.74000000E+08	 7.51787047E-01	-4.30206544E+01
4.75000000E+08	 7.50984825E-01	-4.30701328E+01
4.76000000E+08	 7.50371499E-01	-4.31241684E+01
4.77000000E+08	 7.49556501E-01	-4.31807852E+01
4.78000000E+08	 7.48831071E-01	-4.32337136E+01
4.79000000E+08	 7.48080936E-01	-4.32944231E+01
4.80000000E+08	 7.47425192E-01	-4.33503399E+01
4.81000000E+08	 7.46671183E-01	-4.34059387E+01
4.82000000E+08	 7.45959562E-01	-4.34559279E+01
4.83000000E+08	 7.45244063E-01	-4.35093543E+01
4.84000000E+08	 7.44467250E-01	-4.35704775E+01
4.85000000E+08	 7.43700913E-01	-4.36214221E+01
4.86000000E+08	 7.43008465E-01	-4.36748961E+01
4.87000000E+08	 7.42248811E-01	-4.37273083E+01
4.88000000E+08	 7.41565869E-01	-4.37845244E+01
4.89000000E+08	 7.40870662E-01	-4.38305034E+01
4.90000000E+08	 7.40123038E-01	-4.38930268E+01
4.91000000E+08	 7.39393674E-01	-4.39489286E+01
4.92000000E+08	 7.38609054E-01	-4.40083038E+01
4.93000000E+08	 7.37838700E-01	-4.40599504E+01
4.94000000E+08	 7.37154804E-01	-4.41185322E+01
4.95000000E+08	 7.36420817E-01	-4.41696386E+01
4.96000000E+08	 7.35694465E-01	-4.42269408E+01
4.97000000E+08	 7.34975842E-01	-4.42894906E+01
4.98000000E+08	 7.34236298E-01	-4.43384251E+01
4.99000000E+08	 7.33463953E-01	-4.43990507E+01
5.00000000E+08	 7.32778855E-01	-4.44502627E+01
5.01000000E+08	 7.32020434E-01	-4.45112599E+01
5.02000000E+08	 7.31245142E-01	-4.45645173E+01
5.03000000E+08	 7.30489976E-01	-4.46211063E+01
5.04000000E+08	 7.29852640E-01	-4.46802359E+01
5.05000000E+08	 7.29068320E-01	-4.47385070E+01
5.06000000E+08	 7.28433878E-01	-4.47934613E+01
5.07000000E+08	 7.27627078E-01	-4.48527380E+01
5.08000000E+08	 7.26958446E-01	-4.49053766E+01
5.09000000E+08	 7.26194044E-01	-4.49651178E+01
5.10000000E+08	 7.25469198E-01	-4.50227624E+01
5.11000000E+08	 7.24768522E-01	-4.50749119E+01
5.12000000E+08	 7.24110590E-01	-4.51362933E+01
5.13000000E+08	 7.23346448E-01	-4.51992934E+01
5.14000000E+08	 7.22668907E-01	-4.52527020E+01
5.15000000E+08	 7.21942804E-01	-4.53151029E+01
5.16000000E+08	 7.21160713E-01	-4.53630072E+01
5.17000000E+08	 7.20477624E-01	-4.54335532E+01
5.18000000E+08	 7.19756451E-01	-4.54931038E+01
5.19000000E+08	 7.19040188E-01	-4.55458189E+01
5.20000000E+08	 7.18369374E-01	-4.56029067E+01
5.21000000E+08	 7.17672368E-01	-4.56620914E+01
5.22000000E+08	 7.16875078E-01	-4.57272284E+01
5.23000000E+08	 7.16184918E-01	-4.57804777E+01
5.24000000E+08	 7.15424287E-01	-4.58465182E+01
5.25000000E+08	 7.14769005E-01	-4.59027567E+01
5.26000000E+08	 7.14026938E-01	-4.59622702E+01
5.27000000E+08	 7.13363336E-01	-4.60232417E+01
5.28000000E+08	 7.12621864E-01	-4.60881886E+01
5.29000000E+08	 7.12057092E-01	-4.61452912E+01
5.30000000E+08	 7.11326967E-01	-4.62059205E+01
5.31000000E+08	 7.10599297E-01	-4.62730879E+01
5.32000000E+08	 7.09833804E-01	-4.63286167E+01
5.33000000E+08	 7.09258103E-01	-4.63958582E+01
5.34000000E+08	 7.08519901E-01	-4.64527816E+01
5.35000000E+08	 7.07925353E-01	-4.65119919E+01
5.36000000E+08	 7.07256474E-01	-4.65731090E+01
5.37000000E+08	 7.06370392E-01	-4.66386091E+01
5.38000000E+08	 7.05838575E-01	-4.66926403E+01
5.39000000E+08	 7.05055241E-01	-4.67612069E+01
5.40000000E+08	 7.04411838E-01	-4.68284685E+01
5.41000000E+08	 7.03691091E-01	-4.68816648E+01
5.42000000E+08	 7.03066033E-01	-4.69500390E+01
5.43000000E+08	 7.02408408E-01	-4.70125561E+01
5.44000000E+08	 7.01712115E-01	-4.70807878E+01
5.45000000E+08	 7.01035675E-01	-4.71435553E+01
5.46000000E+08	 7.00372048E-01	-4.72046114E+01
5.47000000E+08	 6.99755325E-01	-4.72629645E+01
5.48000000E+08	 6.99098849E-01	-4.73241639E+01
5.49000000E+08	 6.98398882E-01	-4.73891694E+01
5.50000000E+08	 6.97848778E-01	-4.74454096E+01
5.51000000E+08	 6.97113830E-01	-4.75170282E+01
5.52000000E+08	 6.96516061E-01	-4.75829114E+01
5.53000000E+08	 6.95896687E-01	-4.76526776E+01
5.54000000E+08	 6.95205590E-01	-4.77151348E+01
5.55000000E+08	 6.94614946E-01	-4.77726180E+01
5.56000000E+08	 6.93961928E-01	-4.78370061E+01
5.57000000E+08	 6.93360507E-01	-4.79018723E+01
5.58000000E+08	 6.92699709E-01	-4.79640962E+01
5.59000000E+08	 6.92178614E-01	-4.80336480E+01
5.60000000E+08	 6.91520028E-01	-4.80949529E+01
5.61000000E+08	 6.90906085E-01	-4.81579049E+01
5.62000000E+08	 6.90291963E-01	-4.82237111E+01
5.63000000E+08	 6.89709412E-01	-4.82862061E+01
5.64000000E+08	 6.89141158E-01	-4.83510812E+01
5.65000000E+08	 6.88529815E-01	-4.84119625E+01
5.66000000E+08	 6.87960411E-01	-4.84833719E+01
5.67000000E+08	 6.87417895E-01	-4.85403387E+01
5.68000000E+08	 6.86868302E-01	-4.86129540E+01
5.69000000E+08	 6.86331050E-01	-4.86791294E+01
5.70000000E+08	 6.85690627E-01	-4.87452469E+01
5.71000000E+08	 6.85147699E-01	-4.87979955E+01
5.72000000E+08	 6.84595694E-01	-4.88707510E+01
5.73000000E+08	 6.84067096E-01	-4.89348480E+01
5.74000000E+08	 6.83520737E-01	-4.89908016E+01
5.75000000E+08	 6.82935520E-01	-4.90585887E+01
5.76000000E+08	 6.82424656E-01	-4.91245346E+01
5.77000000E+08	 6.81866525E-01	-4.91901681E+01
5.78000000E+08	 6.81308526E-01	-4.92468459E+01
5.79000000E+08	 6.80778414E-01	-4.93110927E+01
5.80000000E+08	 6.80309335E-01	-4.93834588E+01
5.81000000E+08	 6.79781193E-01	-4.94464616E+01
5.82000000E+08	 6.79164263E-01	-4.95130784E+01
5.83000000E+08	 6.78688767E-01	-4.95728887E+01
5.84000000E+08	 6.78152781E-01	-4.96368644E+01
5.85000000E+08	 6.77605161E-01	-4.97055307E+01
5.86000000E+08	 6.77155049E-01	-4.97683471E+01
5.87000000E+08	 6.76680505E-01	-4.98241692E+01
5.88000000E+08	 6.76157165E-01	-4.98908655E+01
5.89000000E+08	 6.75633350E-01	-4.99491301E+01
5.90000000E+08	 6.75111098E-01	-5.00156737E+01
5.91000000E+08	 6.74684758E-01	-5.00806822E+01
5.92000000E+08	 6.74204016E-01	-5.01491600E+01
5.93000000E+08	 6.73689674E-01	-5.02069931E+01
5.94000000E+08	 6.73181349E-01	-5.02700370E+01
5.95000000E+08	 6.72780236E-01	-5.03304331E+01
5.96000000E+08	 6.72242505E-01	-5.04030634E+01
5.97000000E+08	 6.71871552E-01	-5.04713298E+01
5.98000000E+08	 6.71469508E-01	-5.05322721E+01
5.99000000E+08	 6.70942571E-01	-5.05895341E+01
6.00000000E+08	 6.70520758E-01	-5.06568962E+01
6.01000000E+08	 6.70089891E-01	-5.07225973E+01
6.02000000E+08	 6.69590674E-01	-5.07815278E+01
6.03000000E+08	 6.69184419E-01	-5.08386345E+01
6.04000000E+08	 6.68729423E-01	-5.09008970E+01
6.05000000E+08	 6.68361954E-01	-5.09694093E+01
6.06000000E+08	 6.67809681E-01	-5.10220703E+01
6.07000000E+08	 6.67377823E-01	-5.10931644E+01
6.08000000E+08	 6.66989908E-01	-5.11515320E+01
6.09000000E+08	 6.66645680E-01	-5.12118138E+01
6.10000000E+08	 6.66198683E-01	-5.12742906E+01
6.11000000E+08	 6.65693837E-01	-5.13317458E+01
6.12000000E+08	 6.65349265E-01	-5.13932164E+01
6.13000000E+08	 6.64988318E-01	-5.14584576E+01
6.14000000E+08	 6.64559144E-01	-5.15159703E+01
6.15000000E+08	 6.64214659E-01	-5.15745741E+01
6.16000000E+08	 6.63809554E-01	-5.16291353E+01
6.17000000E+08	 6.63459283E-01	-5.16823935E+01
6.18000000E+08	 6.63066834E-01	-5.17460305E+01
6.19000000E+08	 6.62661658E-01	-5.17970103E+01
6.20000000E+08	 6.62366078E-01	-5.18549460E+01
6.21000000E+08	 6.61979374E-01	-5.19154902E+01
6.22000000E+08	 6.61623996E-01	-5.19742750E+01
6.23000000E+08	 6.61247187E-01	-5.20331160E+01
6.24000000E+08	 6.60871240E-01	-5.20873666E+01
6.25000000E+08	 6.60501953E-01	-5.21415381E+01
6.26000000E+08	 6.60205028E-01	-5.21963351E+01
6.27000000E+08	 6.59862531E-01	-5.22513883E+01
6.28000000E+08	 6.59535600E-01	-5.23008714E+01
6.29000000E+08	 6.59152092E-01	-5.23623231E+01
6.30000000E+08	 6.58736788E-01	-5.24151301E+01
6.31000000E+08	 6.58485995E-01	-5.24678052E+01
6.32000000E+08	 6.58095470E-01	-5.25190750E+01
6.33000000E+08	 6.57747555E-01	-5.25700825E+01
6.34000000E+08	 6.57454857E-01	-5.26224691E+01
6.35000000E+08	 6.57095300E-01	-5.26655939E+01
6.36000000E+08	 6.56796465E-01	-5.27321999E+01
6.37000000E+08	 6.56495418E-01	-5.27743739E+01
6.38000000E+08	 6.56133641E-01	-5.28318161E+01
6.39000000E+08	 6.55799019E-01	-5.28748318E+01
6.40000000E+08	 6.55550730E-01	-5.29192865E+01
6.41000000E+08	 6.55217256E-01	-5.29668615E+01
6.42000000E+08	 6.54895343E-01	-5.30129942E+01
6.43000000E+08	 6.54615598E-01	-5.30654131E+01
6.44000000E+08	 6.54363359E-01	-5.31077873E+01
6.45000000E+08	 6.54024157E-01	-5.31589527E+01
6.46000000E+08	 6.53687336E-01	-5.32053216E+01
6.47000000E+08	 6.53389708E-01	-5.32492606E+01
6.48000000E+08	 6.53074415E-01	-5.32985021E+01
6.49000000E+08	 6.52794425E-01	-5.33384692E+01
6.50000000E+08	 6.52470195E-01	-5.33889187E+01
6.51000000E+08	 6.52168771E-01	-5.34355663E+01
6.52000000E+08	 6.51793420E-01	-5.34738374E+01
6.53000000E+08	 6.51419212E-01	-5.35214861E+01
6.54000000E+08	 6.51233173E-01	-5.35703689E+01
6.55000000E+08	 6.50879787E-01	-5.36125311E+01
6.56000000E+08	 6.50664831E-01	-5.36547616E+01
6.57000000E+08	 6.50305508E-01	-5.36947475E+01
6.58000000E+08	 6.49993511E-01	-5.37369088E+01
6.59000000E+08	 6.49777688E-01	-5.37804854E+01
6.60000000E+08	 6.49397900E-01	-5.38208403E+01
6.61000000E+08	 6.49132978E-01	-5.38617924E+01
6.62000000E+08	 6.48812289E-01	-5.38982008E+01
6.63000000E+08	 6.48516299E-01	-5.39330201E+01
6.64000000E+08	 6.48213936E-01	-5.39817024E+01
6.65000000E+08	 6.47968299E-01	-5.40150117E+01
6.66000000E+08	 6.47650646E-01	-5.40512262E+01
6.67000000E+08	 6.47336192E-01	-5.40876494E+01
6.68000000E+08	 6.47026980E-01	-5.41241296E+01
6.69000000E+08	 6.46817971E-01	-5.41617257E+01
6.70000000E+08	 6.46486853E-01	-5.42028506E+01
6.71000000E+08	 6.46159495E-01	-5.42251008E+01
6.72000000E+08	 6.45912102E-01	-5.42704893E+01
6.73000000E+08	 6.45599757E-01	-5.43001370E+01
6.74000000E+08	 6.45352152E-01	-5.43360369E+01
6.75000000E+08	 6.45040033E-01	-5.43663378E+01
6.76000000E+08	 6.44724301E-01	-5.44004986E+01
6.77000000E+08	 6.44439219E-01	-5.44348845E+01
6.78000000E+08	 6.44136942E-01	-5.44704893E+01
6.79000000E+08	 6.43867925E-01	-5.45006684E+01
6.80000000E+08	 6.43520126E-01	-5.45349137E+01
6.81000000E+08	 6.43295471E-01	-5.45589477E+01
6.82000000E+08	 6.42891497E-01	-5.45907476E+01
6.83000000E+08	 6.42589493E-01	-5.46249720E+01
6.84000000E+08	 6.42291145E-01	-5.46498709E+01
6.85000000E+08	 6.41915862E-01	-5.46717416E+01
6.86000000E+08	 6.41628792E-01	-5.47008028E+01
6.87000000E+08	 6.41334765E-01	-5.47276294E+01
6.88000000E+08	 6.40999981E-01	-5.47529722E+01
6.89000000E+08	 6.40669304E-01	-5.47803004E+01
6.90000000E+08	 6.40374505E-01	-5.48095981E+01
6.91000000E+08	 6.40033391E-01	-5.48350876E+01
6.92000000E+08	 6.39741472E-01	-5.48589904E+01
6.93000000E+08	 6.39413332E-01	-5.48869721E+01
6.94000000E+08	 6.39029608E-01	-5.49118671E+01
6.95000000E+08	 6.38681648E-01	-5.49366038E+01
6.96000000E+08	 6.38361904E-01	-5.49526614E+01
6.97000000E+08	 6.37948511E-01	-5.49821741E+01
6.98000000E+08	 6.37628023E-01	-5.50009336E+01
6.99000000E+08	 6.37267818E-01	-5.50217648E+01
7.00000000E+08	 6.36936944E-01	-5.50438233E+01
7.01000000E+08	 6.36623586E-01	-5.50620223E+01
7.02000000E+08	 6.36252747E-01	-5.50844625E+01
7.03000000E+08	 6.35933945E-01	-5.50980222E+01
7.04000000E+08	 6.35622546E-01	-5.51249541E+01
7.05000000E+08	 6.35177260E-01	-5.51411270E+01
7.06000000E+08	 6.34820793E-01	-5.51618980E+01
7.07000000E+08	 6.34388559E-01	-5.51767929E+01
7.08000000E+08	 6.34103786E-01	-5.51858523E+01
7.09000000E+08	 6.33700414E-01	-5.52163899E+01
7.10000000E+08	 6.33284669E-01	-5.52302592E+01
7.11000000E+08	 6.32901696E-01	-5.52518849E+01
7.12000000E+08	 6.32463994E-01	-5.52698692E+01
7.13000000E+08	 6.32041735E-01	-5.52907054E+01
7.14000000E+08	 6.31711998E-01	-5.53054532E+01
7.15000000E+08	 6.31314061E-01	-5.53193601E+01
7.16000000E+08	 6.30942952E-01	-5.53320039E+01
7.17000000E+08	 6.30491205E-01	-5.53571544E+01
7.18000000E+08	 6.30069783E-01	-5.53755857E+01
7.19000000E+08	 6.29728850E-01	-5.53868086E+01
7.20000000E+08	 6.29313210E-01	-5.54051251E+01
7.21000000E+08	 6.28863871E-01	-5.54146307E+01
7.22000000E+08	 6.28395236E-01	-5.54339068E+01
7.23000000E+08	 6.27946351E-01	-5.54508757E+01
7.24000000E+08	 6.27573486E-01	-5.54656390E+01
7.25000000E+08	 6.27163435E-01	-5.54841519E+01
7.26000000E+08	 6.26714536E-01	-5.54961202E+01
7.27000000E+08	 6.26184251E-01	-5.55119062E+01
7.28000000E+08	 6.25826518E-01	-5.55212973E+01
7.29000000E+08	 6.25359570E-01	-5.55408105E+01
7.30000000E+08	 6.24905966E-01	-5.55466779E+01
7.31000000E+08	 6.24477273E-01	-5.55598318E+01
7.32000000E+08	 6.24029500E-01	-5.55724096E+01
7.33000000E+08	 6.23480234E-01	-5.55795602E+01
7.34000000E+08	 6.23007120E-01	-5.55963629E+01
7.35000000E+08	 6.22602324E-01	-5.56121907E+01
7.36000000E+08	 6.22102030E-01	-5.56194627E+01
7.37000000E+08	 6.21649853E-01	-5.56406591E+01
7.38000000E+08	 6.21078179E-01	-5.56496327E+01
7.39000000E+08	 6.20609488E-01	-5.56673929E+01
7.40000000E+08	 6.20148800E-01	-5.56740235E+01
7.41000000E+08	 6.19574545E-01	-5.56921130E+01
7.42000000E+08	 6.19143766E-01	-5.57003863E+01
7.43000000E+08	 6.18586352E-01	-5.57167324E+01
7.44000000E+08	 6.18119014E-01	-5.57349229E+01
7.45000000E+08	 6.17679485E-01	-5.57444332E+01
7.46000000E+08	 6.17123531E-01	-5.57602306E+01
7.47000000E+08	 6.16658366E-01	-5.57721830E+01
7.48000000E+08	 6.16157093E-01	-5.57835812E+01
7.49000000E+08	 6.15700590E-01	-5.57985929E+01
7.50000000E+08	 6.15120762E-01	-5.58053849E+01
7.51000000E+08	 6.14631482E-01	-5.58223143E+01
7.52000000E+08	 6.14125872E-01	-5.58353390E+01
7.53000000E+08	 6.13612936E-01	-5.58445751E+01
7.54000000E+08	 6.13041479E-01	-5.58594624E+01
7.55000000E+08	 6.12502213E-01	-5.58749038E+01
7.56000000E+08	 6.11901794E-01	-5.58835184E+01
7.57000000E+08	 6.11409202E-01	-5.58967246E+01
7.58000000E+08	 6.10812930E-01	-5.59119657E+01
7.59000000E+08	 6.10338179E-01	-5.59263398E+01
7.60000000E+08	 6.09713137E-01	-5.59387202E+01
7.61000000E+08	 6.09176596E-01	-5.59573706E+01
7.62000000E+08	 6.08607614E-01	-5.59599401E+01
7.63000000E+08	 6.08102447E-01	-5.59713494E+01
7.64000000E+08	 6.07469312E-01	-5.59906387E+01
7.65000000E+08	 6.06926984E-01	-5.60041503E+01
7.66000000E+08	 6.06312651E-01	-5.60165177E+01
7.67000000E+08	 6.05756910E-01	-5.60310215E+01
7.68000000E+08	 6.05151621E-01	-5.60455831E+01
7.69000000E+08	 6.04592882E-01	-5.60627749E+01
7.70000000E+08	 6.03991489E-01	-5.60727908E+01
7.71000000E+08	 6.03431387E-01	-5.60892803E+01
7.72000000E+08	 6.02839685E-01	-5.60993884E+01
7.73000000E+08	 6.02219300E-01	-5.61197048E+01
7.74000000E+08	 6.01604918E-01	-5.61343046E+01
7.75000000E+08	 6.01045580E-01	-5.61476797E+01
7.76000000E+08	 6.00447126E-01	-5.61636924E+01
7.77000000E+08	 5.99886344E-01	-5.61831499E+01
7.78000000E+08	 5.99274688E-01	-5.61909126E+01
7.79000000E+08	 5.98681190E-01	-5.62062113E+01
7.80000000E+08	 5.98058472E-01	-5.62175788E+01
7.81000000E+08	 5.97416818E-01	-5.62330435E+01
7.82000000E+08	 5.96887675E-01	-5.62514965E+01
7.83000000E+08	 5.96268210E-01	-5.62712491E+01
7.84000000E+08	 5.95646786E-01	-5.62789017E+01
7.85000000E+08	 5.95026299E-01	-5.63047433E+01
7.86000000E+08	 5.94455652E-01	-5.63162268E+01
7.87000000E+08	 5.93785560E-01	-5.63371410E+01
7.88000000E+08	 5.93178134E-01	-5.63500938E+01
7.89000000E+08	 5.92561369E-01	-5.63711122E+01
7.90000000E+08	 5.91989101E-01	-5.63857358E+01
7.91000000E+08	 5.91340151E-01	-5.64000908E+01
7.92000000E+08	 5.90739581E-01	-5.64284745E+01
7.93000000E+08	 5.90064719E-01	-5.64485003E+01
7.94000000E+08	 5.89455745E-01	-5.64591202E+01
7.95000000E+08	 5.88826673E-01	-5.64852160E+01
7.96000000E+08	 5.88213679E-01	-5.65098997E+01
7.97000000E+08	 5.87552303E-01	-5.65246573E+01
7.98000000E+08	 5.86925997E-01	-5.65484598E+01
7.99000000E+08	 5.86322611E-01	-5.65627943E+01
8.00000000E+08	 5.85683626E-01	-5.65892448E+01
8.01000000E+08	 5.85038433E-01	-5.66076723E+01
8.02000000E+08	 5.84426562E-01	-5.66354858E+01
8.03000000E+08	 5.83778660E-01	-5.66531188E+01
8.04000000E+08	 5.83147410E-01	-5.66771987E+01
8.05000000E+08	 5.82476394E-01	-5.66939024E+01
8.06000000E+08	 5.81885000E-01	-5.67151152E+01
8.07000000E+08	 5.81200520E-01	-5.67381600E+01
8.08000000E+08	 5.80580061E-01	-5.67574512E+01
8.09000000E+08	 5.79891350E-01	-5.67830003E+01
8.10000000E+08	 5.79274090E-01	-5.68087736E+01
8.11000000E+08	 5.78616831E-01	-5.68316867E+01
8.12000000E+08	 5.77986382E-01	-5.68548169E+01
8.13000000E+08	 5.77295527E-01	-5.68754030E+01
8.14000000E+08	 5.76616912E-01	-5.69013344E+01
8.15000000E+08	 5.76022521E-01	-5.69216763E+01
8.16000000E+08	 5.75363466E-01	-5.69508195E+01
8.17000000E+08	 5.74808063E-01	-5.69689725E+01
8.18000000E+08	 5.74158284E-01	-5.70054769E+01
8.19000000E+08	 5.73463575E-01	-5.70316113E+01
8.20000000E+08	 5.72799403E-01	-5.70563017E+01
8.21000000E+08	 5.72281837E-01	-5.70811417E+01
8.22000000E+08	 5.71539507E-01	-5.70989477E+01
8.23000000E+08	 5.70971275E-01	-5.71330788E+01
8.24000000E+08	 5.70307801E-01	-5.71595280E+01
8.25000000E+08	 5.69564038E-01	-5.71831366E+01
8.26000000E+08	 5.69027140E-01	-5.72185508E+01
8.27000000E+08	 5.68438676E-01	-5.72458115E+01
8.28000000E+08	 5.67771395E-01	-5.72713671E+01
8.29000000E+08	 5.67105531E-01	-5.73076070E+01
8.30000000E+08	 5.66521157E-01	-5.73336022E+01
8.31000000E+08	 5.65918090E-01	-5.73663103E+01
8.32000000E+08	 5.65302017E-01	-5.73978353E+01
8.33000000E+08	 5.64730296E-01	-5.74270018E+01
8.34000000E+08	 5.64076924E-01	-5.74601823E+01
8.35000000E+08	 5.63473496E-01	-5.74867239E+01
8.36000000E+08	 5.62864427E-01	-5.75221506E+01
8.37000000E+08	 5.62134170E-01	-5.75550441E+01
8.38000000E+08	 5.61556337E-01	-5.75901962E+01
8.39000000E+08	 5.60943993E-01	-5.76286911E+01
8.40000000E+08	 5.60288839E-01	-5.76551677E+01
8.41000000E+08	 5.59730203E-01	-5.76960627E+01
8.42000000E+08	 5.59109265E-01	-5.77198623E+01
8.43000000E+08	 5.58464480E-01	-5.77621156E+01
8.44000000E+08	 5.57952500E-01	-5.77892375E+01
8.45000000E+08	 5.57254340E-01	-5.78222892E+01
8.46000000E+08	 5.56707135E-01	-5.78624276E+01
8.47000000E+08	 5.56107015E-01	-5.79031957E+01
8.48000000E+08	 5.55475089E-01	-5.79340415E+01
8.49000000E+08	 5.54902748E-01	-5.79698005E+01
8.50000000E+08	 5.54308365E-01	-5.80051636E+01
8.51000000E+08	 5.53741564E-01	-5.80382258E+01
8.52000000E+08	 5.53183847E-01	-5.80751928E+01
8.53000000E+08	 5.52563042E-01	-5.81131894E+01
8.54000000E+08	 5.52016644E-01	-5.81530436E+01
8.55000000E+08	 5.51410140E-01	-5.81853069E+01
8.56000000E+08	 5.50869282E-01	-5.82252448E+01
8.57000000E+08	 5.50341826E-01	-5.82577919E+01
8.58000000E+08	 5.49730095E-01	-5.82981248E+01
8.59000000E+08	 5.49214196E-01	-5.83449806E+01
8.60000000E+08	 5.48623925E-01	-5.83802023E+01
8.61000000E+08	 5.48106103E-01	-5.84145646E+01
8.62000000E+08	 5.47456151E-01	-5.84476561E+01
8.63000000E+08	 5.46948077E-01	-5.84940669E+01
8.64000000E+08	 5.46484149E-01	-5.85355191E+01
8.65000000E+08	 5.45815715E-01	-5.85681077E+01
8.66000000E+08	 5.45215948E-01	-5.86166174E+01
8.67000000E+08	 5.44713973E-01	-5.86568484E+01
8.68000000E+08	 5.44124341E-01	-5.87011086E+01
8.69000000E+08	 5.43635771E-01	-5.87368684E+01
8.70000000E+08	 5.43075878E-01	-5.87759888E+01
8.71000000E+08	 5.42518878E-01	-5.88158728E+01
8.72000000E+08	 5.41969210E-01	-5.88574856E+01
8.73000000E+08	 5.41416757E-01	-5.89015616E+01
8.74000000E+08	 5.40904571E-01	-5.89442222E+01
8.75000000E+08	 5.40392644E-01	-5.89806250E+01
8.76000000E+08	 5.39884619E-01	-5.90289480E+01
8.77000000E+08	 5.39346957E-01	-5.90738945E+01
8.78000000E+08	 5.38777981E-01	-5.91121897E+01
8.79000000E+08	 5.38312029E-01	-5.91566682E+01
8.80000000E+08	 5.37756476E-01	-5.91992714E+01
8.81000000E+08	 5.37259954E-01	-5.92426513E+01
8.82000000E+08	 5.36723181E-01	-5.92854324E+01
8.83000000E+08	 5.36281725E-01	-5.93351016E+01
8.84000000E+08	 5.35735583E-01	-5.93772955E+01
8.85000000E+08	 5.35206611E-01	-5.94184243E+01
8.86000000E+08	 5.34810387E-01	-5.94604739E+01
8.87000000E+08	 5.34317812E-01	-5.95017371E+01
8.88000000E+08	 5.33807894E-01	-5.95515851E+01
8.89000000E+08	 5.33287276E-01	-5.95943917E+01
8.90000000E+08	 5.32829936E-01	-5.96419060E+01
8.91000000E+08	 5.32336437E-01	-5.96822455E+01
8.92000000E+08	 5.31876068E-01	-5.97293782E+01
8.93000000E+08	 5.31407958E-01	-5.97768995E+01
8.94000000E+08	 5.30890004E-01	-5.98185546E+01
8.95000000E+08	 5.30422313E-01	-5.98599567E+01
8.96000000E+08	 5.30043080E-01	-5.98996554E+01
8.97000000E+08	 5.29536376E-01	-5.99525798E+01
8.98000000E+08	 5.29109834E-01	-5.99955890E+01
8.99000000E+08	 5.28579019E-01	-6.00343299E+01
9.00000000E+08	 5.28195960E-01	-6.00770159E+01
9.01000000E+08	 5.27692982E-01	-6.01221300E+01
9.02000000E+08	 5.27342760E-01	-6.01607397E+01
9.03000000E+08	 5.26912805E-01	-6.02056960E+01
9.04000000E+08	 5.26466411E-01	-6.02462999E+01
9.05000000E+08	 5.26029223E-01	-6.02894807E+01
9.06000000E+08	 5.25538934E-01	-6.03344739E+01
9.07000000E+08	 5.25077817E-01	-6.03811331E+01
9.08000000E+08	 5.24728511E-01	-6.04182077E+01
9.09000000E+08	 5.24274285E-01	-6.04585649E+01
9.10000000E+08	 5.23757052E-01	-6.05109310E+01
9.11000000E+08	 5.23386655E-01	-6.05457030E+01
9.12000000E+08	 5.22904542E-01	-6.05897630E+01
9.13000000E+08	 5.22548199E-01	-6.06421968E+01
9.14000000E+08	 5.22064123E-01	-6.06784917E+01
9.15000000E+08	 5.21678440E-01	-6.07255792E+01
9.16000000E+08	 5.21233501E-01	-6.07713160E+01
9.17000000E+08	 5.20892562E-01	-6.08094856E+01
9.18000000E+08	 5.20492370E-01	-6.08564096E+01
9.19000000E+08	 5.20130271E-01	-6.08980395E+01
9.20000000E+08	 5.19650351E-01	-6.09440887E+01
9.21000000E+08	 5.19381222E-01	-6.09926776E+01
9.22000000E+08	 5.18828397E-01	-6.10332344E+01
9.23000000E+08	 5.18484699E-01	-6.10719155E+01
9.24000000E+08	 5.18085438E-01	-6.11104891E+01
9.25000000E+08	 5.17654491E-01	-6.11574671E+01
9.26000000E+08	 5.17356343E-01	-6.12012457E+01
9.27000000E+08	 5.17008570E-01	-6.12357274E+01
9.28000000E+08	 5.16590977E-01	-6.12805302E+01
9.29000000E+08	 5.16205603E-01	-6.13181542E+01
9.30000000E+08	 5.15870229E-01	-6.13619780E+01
9.31000000E+08	 5.15518131E-01	-6.14015641E+01
9.32000000E+08	 5.15106953E-01	-6.14447599E+01
9.33000000E+08	 5.14789906E-01	-6.14861514E+01
9.34000000E+08	 5.14355738E-01	-6.15313143E+01
9.35000000E+08	 5.14068183E-01	-6.15751653E+01
9.36000000E+08	 5.13572555E-01	-6.16087992E+01
9.37000000E+08	 5.13289889E-01	-6.16458341E+01
9.38000000E+08	 5.12981159E-01	-6.16942166E+01
9.39000000E+08	 5.12636288E-01	-6.17318277E+01
9.40000000E+08	 5.12223142E-01	-6.17720363E+01
9.41000000E+08	 5.11864168E-01	-6.18110827E+01
9.42000000E+08	 5.11590174E-01	-6.18475827E+01
9.43000000E+08	 5.11193974E-01	-6.18832880E+01
9.44000000E+08	 5.10798278E-01	-6.19251510E+01
9.45000000E+08	 5.10460339E-01	-6.19661247E+01
9.46000000E+08	 5.10029831E-01	-6.20006461E+01
9.47000000E+08	 5.09738918E-01	-6.20386232E+01
9.48000000E+08	 5.09430011E-01	-6.20772515E+01
9.49000000E+08	 5.09096628E-01	-6.21178046E+01
9.50000000E+08	 5.08643183E-01	-6.21521740E+01
9.51000000E+08	 5.08348266E-01	-6.21994565E+01
9.52000000E+08	 5.08009773E-01	-6.22347290E+01
9.53000000E+08	 5.07672758E-01	-6.22785654E+01
9.54000000E+08	 5.07332458E-01	-6.23200102E+01
9.55000000E+08	 5.07035790E-01	-6.23502886E+01
9.56000000E+08	 5.06707828E-01	-6.23926028E+01
9.57000000E+08	 5.06396756E-01	-6.24386160E+01
9.58000000E+08	 5.06121409E-01	-6.24740260E+01
9.59000000E+08	 5.05730085E-01	-6.25065876E+01
9.60000000E+08	 5.05431820E-01	-6.25425680E+01
9.61000000E+08	 5.05110874E-01	-6.25842751E+01
9.62000000E+08	 5.04824750E-01	-6.26205734E+01
9.63000000E+08	 5.04513610E-01	-6.26623817E+01
9.64000000E+08	 5.04226000E-01	-6.26965977E+01
9.65000000E+08	 5.03868687E-01	-6.27294878E+01
9.66000000E+08	 5.03621369E-01	-6.27594096E+01
9.67000000E+08	 5.03331217E-01	-6.27934263E+01
9.68000000E+08	 5.03021625E-01	-6.28284234E+01
9.69000000E+08	 5.02719202E-01	-6.28656027E+01
9.70000000E+08	 5.02347439E-01	-6.28998601E+01
9.71000000E+08	 5.02077031E-01	-6.29359484E+01
9.72000000E+08	 5.01682042E-01	-6.29584095E+01
9.73000000E+08	 5.01446945E-01	-6.29968029E+01
9.74000000E+08	 5.01158536E-01	-6.30303384E+01
9.75000000E+08	 5.00907967E-01	-6.30589885E+01
9.76000000E+08	 5.00583705E-01	-6.30916395E+01
9.77000000E+08	 5.00240321E-01	-6.31329807E+01
9.78000000E+08	 4.99951475E-01	-6.31570493E+01
9.79000000E+08	 4.99587445E-01	-6.31902233E+01
9.80000000E+08	 4.99289481E-01	-6.32231668E+01
9.81000000E+08	 4.98916294E-01	-6.32583255E+01
9.82000000E+08	 4.98640606E-01	-6.32876994E+01
9.83000000E+08	 4.98346929E-01	-6.33182951E+01
9.84000000E+08	 4.98047768E-01	-6.33499848E+01
9.85000000E+08	 4.97767427E-01	-6.33865138E+01
9.86000000E+08	 4.97470246E-01	-6.34146627E+01
9.87000000E+08	 4.97129286E-01	-6.34473071E+01
9.88000000E+08	 4.96873103E-01	-6.34705044E+01
9.89000000E+08	 4.96587694E-01	-6.35056281E+01
9.90000000E+08	 4.96276675E-01	-6.35380520E+01
9.91000000E+08	 4.95965267E-01	-6.35689315E+01
9.92000000E+08	 4.95672987E-01	-6.35983214E+01
9.93000000E+08	 4.95325139E-01	-6.36285105E+01
9.94000000E+08	 4.95022454E-01	-6.36514032E+01
9.95000000E+08	 4.94771997E-01	-6.36847920E+01
9.96000000E+08	 4.94456206E-01	-6.37212837E+01
9.97000000E+08	 4.94181983E-01	-6.37447105E+01
9.98000000E+08	 4.93878236E-01	-6.37733641E+01
9.99000000E+08	 4.93520190E-01	-6.37978201E+01
1.00000000E+09	 4.93334061E-01	-6.38292245E+01
1.00100000E+09	 4.93004085E-01	-6.38553409E+01
1.00200000E+09	 4.92715549E-01	-6.38895376E+01
1.00300000E+09	 4.92431905E-01	-6.39133934E+01
1.00400000E+09	 4.92153067E-01	-6.39373253E+01
1.00500000E+09	 4.91820792E-01	-6.39704620E+01
1.00600000E+09	 4.91558894E-01	-6.39899656E+01
1.00700000E+09	 4.91240067E-01	-6.40233868E+01
1.00800000E+09	 4.91003234E-01	-6.40471832E+01
1.00900000E+09	 4.90617041E-01	-6.40693657E+01
1.01000000E+09	 4.90359000E-01	-6.40997216E+01
1.01100000E+09	 4.90038078E-01	-6.41252443E+01
1.01200000E+09	 4.89761581E-01	-6.41495156E+01
1.01300000E+09	 4.89413953E-01	-6.41725332E+01
1.01400000E+09	 4.89168453E-01	-6.41941714E+01
1.01500000E+09	 4.88819955E-01	-6.42205833E+01
1.01600000E+09	 4.88568949E-01	-6.42446041E+01
1.01700000E+09	 4.88214203E-01	-6.42712200E+01
1.01800000E+09	 4.87906700E-01	-6.42937448E+01
1.01900000E+09	 4.87662430E-01	-6.43193086E+01
1.02000000E+09	 4.87363748E-01	-6.43405038E+01
1.02100000E+09	 4.86985394E-01	-6.43594129E+01
1.02200000E+09	 4.86730014E-01	-6.43885119E+01
1.02300000E+09	 4.86394027E-01	-6.44083695E+01
1.02400000E+09	 4.86134493E-01	-6.44312557E+01
1.02500000E+09	 4.85797594E-01	-6.44531341E+01
1.02600000E+09	 4.85423483E-01	-6.44727023E+01
1.02700000E+09	 4.85181235E-01	-6.44956539E+01
1.02800000E+09	 4.84839317E-01	-6.45255115E+01
1.02900000E+09	 4.84526786E-01	-6.45391724E+01
1.03000000E+09	 4.84266401E-01	-6.45587242E+01
1.03100000E+09	 4.83912340E-01	-6.45754986E+01
1.03200000E+09	 4.83563134E-01	-6.46063789E+01
1.03300000E+09	 4.83295869E-01	-6.46207677E+01
1.03400000E+09	 4.82985680E-01	-6.46406106E+01
1.03500000E+09	 4.82570350E-01	-6.46621031E+01
1.03600000E+09	 4.82263789E-01	-6.46829374E+01
1.03700000E+09	 4.81967141E-01	-6.47074800E+01
1.03800000E+09	 4.81648456E-01	-6.47225538E+01
1.03900000E+09	 4.81322175E-01	-6.47455104E+01
1.04000000E+09	 4.80991199E-01	-6.47608163E+01
1.04100000E+09	 4.80632690E-01	-6.47825519E+01
1.04200000E+09	 4.80325076E-01	-6.48041848E+01
1.04300000E+09	 4.80019390E-01	-6.48209608E+01
1.04400000E+09	 4.79699100E-01	-6.48381085E+01
1.04500000E+09	 4.79360819E-01	-6.48543624E+01
1.04600000E+09	 4.78966233E-01	-6.48713427E+01
1.04700000E+09	 4.78672096E-01	-6.48990242E+01
1.04800000E+09	 4.78306715E-01	-6.49123070E+01
1.04900000E+09	 4.78014500E-01	-6.49273108E+01
1.05000000E+09	 4.77684521E-01	-6.49491839E+01
1.05100000E+09	 4.77283198E-01	-6.49634839E+01
1.05200000E+09	 4.77013772E-01	-6.49789893E+01
1.05300000E+09	 4.76673578E-01	-6.49994847E+01
1.05400000E+09	 4.76294355E-01	-6.50135354E+01
1.05500000E+09	 4.75931868E-01	-6.50255219E+01
1.05600000E+09	 4.75534486E-01	-6.50408771E+01
1.05700000E+09	 4.75236676E-01	-6.50617633E+01
1.05800000E+09	 4.74915847E-01	-6.50804736E+01
1.05900000E+09	 4.74585392E-01	-6.50855939E+01
1.06000000E+09	 4.74142541E-01	-6.51074401E+01
1.06100000E+09	 4.73801861E-01	-6.51218468E+01
1.06200000E+09	 4.73505915E-01	-6.51396476E+01
1.06300000E+09	 4.73118559E-01	-6.51608009E+01
1.06400000E+09	 4.72744819E-01	-6.51703652E+01
1.06500000E+09	 4.72330368E-01	-6.51905792E+01
1.06600000E+09	 4.72068864E-01	-6.52002806E+01
1.06700000E+09	 4.71663081E-01	-6.52148897E+01
1.06800000E+09	 4.71329081E-01	-6.52422313E+01
1.06900000E+09	 4.70941249E-01	-6.52451914E+01
1.07000000E+09	 4.70522845E-01	-6.52644003E+01
1.07100000E+09	 4.70171987E-01	-6.52783346E+01
1.07200000E+09	 4.69797500E-01	-6.52950272E+01
1.07300000E+09	 4.69415118E-01	-6.53144538E+01
1.07400000E+09	 4.69110486E-01	-6.53254562E+01
1.07500000E+09	 4.68730215E-01	-6.53420470E+01
1.07600000E+09	 4.68351791E-01	-6.53643217E+01
1.07700000E+09	 4.67914044E-01	-6.53684956E+01
1.07800000E+09	 4.67583507E-01	-6.53859466E+01
1.07900000E+09	 4.67165817E-01	-6.54054845E+01
1.08000000E+09	 4.66779118E-01	-6.54267209E+01
1.08100000E+09	 4.66382295E-01	-6.54378217E+01
1.08200000E+09	 4.66013406E-01	-6.54479996E+01
1.08300000E+09	 4.65618476E-01	-6.54666452E+01
1.08400000E+09	 4.65258441E-01	-6.54844361E+01
1.08500000E+09	 4.64832088E-01	-6.54928074E+01
1.08600000E+09	 4.64347078E-01	-6.55161901E+01
1.08700000E+09	 4.63965946E-01	-6.55262511E+01
1.08800000E+09	 4.63541857E-01	-6.55434941E+01
1.08900000E+09	 4.63204791E-01	-6.55618627E+01
1.09000000E+09	 4.62725355E-01	-6.55782460E+01
1.09100000E+09	 4.62285554E-01	-6.55901124E+01
1.09200000E+09	 4.61915887E-01	-6.56031331E+01
1.09300000E+09	 4.61511656E-01	-6.56234937E+01
1.09400000E+09	 4.61068798E-01	-6.56331907E+01
1.09500000E+09	 4.60619068E-01	-6.56574455E+01
1.09600000E+09	 4.60237652E-01	-6.56703219E+01
1.09700000E+09	 4.59771961E-01	-6.56855883E+01
1.09800000E+09	 4.59357452E-01	-6.57083153E+01
1.09900000E+09	 4.58916759E-01	-6.57207338E+01
1.10000000E+09	 4.58531634E-01	-6.57380561E+01
1.10100000E+09	 4.58087169E-01	-6.57566520E+01
1.10200000E+09	 4.57658900E-01	-6.57744754E+01
1.10300000E+09	 4.57201899E-01	-6.57845114E+01
1.10400000E+09	 4.56774887E-01	-6.58034334E+01
1.10500000E+09	 4.56346473E-01	-6.58277262E+01
1.10600000E+09	 4.55943803E-01	-6.58444963E+01
1.10700000E+09	 4.55408802E-01	-6.58618273E+01
1.10800000E+09	 4.54987635E-01	-6.58739846E+01
1.10900000E+09	 4.54529029E-01	-6.58913641E+01
1.11000000E+09	 4.54079347E-01	-6.59136808E+01
1.11100000E+09	 4.53654444E-01	-6.59331796E+01
1.11200000E+09	 4.53229443E-01	-6.59479429E+01
1.11300000E+09	 4.52804660E-01	-6.59648382E+01
1.11400000E+09	 4.52344194E-01	-6.59875625E+01
1.11500000E+09	 4.51843729E-01	-6.60013078E+01
1.11600000E+09	 4.51399108E-01	-6.60173460E+01
1.11700000E+09	 4.50972871E-01	-6.60396566E+01
1.11800000E+09	 4.50492563E-01	-6.60583223E+01
1.11900000E+09	 4.50077612E-01	-6.60762499E+01
1.12000000E+09	 4.49550937E-01	-6.60945134E+01
1.12100000E+09	 4.49141629E-01	-6.61171536E+01
1.12200000E+09	 4.48660373E-01	-6.61364696E+01
1.12300000E+09	 4.48179336E-01	-6.61568123E+01
1.12400000E+09	 4.47654880E-01	-6.61686257E+01
1.12500000E+09	 4.47256520E-01	-6.61915664E+01
1.12600000E+09	 4.46752429E-01	-6.62122441E+01
1.12700000E+09	 4.46310994E-01	-6.62356540E+01
1.12800000E+09	 4.45823602E-01	-6.62491410E+01
1.12900000E+09	 4.45310213E-01	-6.62760282E+01
1.13000000E+09	 4.44876107E-01	-6.62956086E+01
1.13100000E+09	 4.44350374E-01	-6.63234494E+01
1.13200000E+09	 4.43899325E-01	-6.63372509E+01
1.13300000E+09	 4.43352018E-01	-6.63636979E+01
1.13400000E+09	 4.42907454E-01	-6.63850666E+01
1.13500000E+09	 4.42398273E-01	-6.64068205E+01
1.13600000E+09	 4.41870575E-01	-6.64373153E+01
1.13700000E+09	 4.41360960E-01	-6.64477359E+01
1.13800000E+09	 4.40867634E-01	-6.64755029E+01
1.13900000E+09	 4.40377069E-01	-6.65048018E+01
1.14000000E+09	 4.39879320E-01	-6.65267461E+01
1.14100000E+09	 4.39427581E-01	-6.65518988E+01
1.14200000E+09	 4.38852773E-01	-6.65864686E+01
1.14300000E+09	 4.38347776E-01	-6.66103029E+01
1.14400000E+09	 4.37860148E-01	-6.66331337E+01
1.14500000E+09	 4.37375522E-01	-6.66619987E+01
1.14600000E+09	 4.36834556E-01	-6.66904483E+01
1.14700000E+09	 4.36364503E-01	-6.67135385E+01
1.14800000E+09	 4.35903562E-01	-6.67436725E+01
1.14900000E+09	 4.35416349E-01	-6.67735648E+01
1.15000000E+09	 4.34895278E-01	-6.68055221E+01
1.15100000E+09	 4.34402371E-01	-6.68362495E+01
1.15200000E+09	 4.33912711E-01	-6.68619568E+01
1.15300000E+09	 4.33391768E-01	-6.68978979E+01
1.15400000E+09	 4.32973877E-01	-6.69329831E+01
1.15500000E+09	 4.32330660E-01	-6.69499579E+01
1.15600000E+09	 4.31933146E-01	-6.69903856E+01
1.15700000E+09	 4.31439669E-01	-6.70221763E+01
1.15800000E+09	 4.30895092E-01	-6.70421823E+01
1.15900000E+09	 4.30402706E-01	-6.70862548E+01
1.16000000E+09	 4.29934684E-01	-6.71124378E+01
1.16100000E+09	 4.29376162E-01	-6.71524946E+01
1.16200000E+09	 4.28905089E-01	-6.71838933E+01
1.16300000E+09	 4.28428129E-01	-6.72218815E+01
1.16400000E+09	 4.27844110E-01	-6.72511176E+01
1.16500000E+09	 4.27387649E-01	-6.72807662E+01
1.16600000E+09	 4.26910780E-01	-6.73209013E+01
1.16700000E+09	 4.26397029E-01	-6.73586524E+01
1.16800000E+09	 4.25829912E-01	-6.73871516E+01
1.16900000E+09	 4.25367604E-01	-6.74361106E+01
1.17000000E+09	 4.24800063E-01	-6.74730160E+01
1.17100000E+09	 4.24314839E-01	-6.75131617E+01
1.17200000E+09	 4.23786842E-01	-6.75582616E+01
1.17300000E+09	 4.23306726E-01	-6.75923533E+01
1.17400000E+09	 4.22787778E-01	-6.76306183E+01
1.17500000E+09	 4.22306150E-01	-6.76768433E+01
1.17600000E+09	 4.21814749E-01	-6.77203986E+01
1.17700000E+09	 4.21245277E-01	-6.77521528E+01
1.17800000E+09	 4.20754049E-01	-6.78043832E+01
1.17900000E+09	 4.20277862E-01	-6.78468481E+01
1.18000000E+09	 4.19828668E-01	-6.78875822E+01
1.18100000E+09	 4.19345073E-01	-6.79390004E+01
1.18200000E+09	 4.18832289E-01	-6.79810304E+01
1.18300000E+09	 4.18363490E-01	-6.80269999E+01
1.18400000E+09	 4.17773574E-01	-6.80799552E+01
1.18500000E+09	 4.17372295E-01	-6.81316553E+01
1.18600000E+09	 4.16894867E-01	-6.81852210E+01
1.18700000E+09	 4.16348835E-01	-6.82210269E+01
1.18800000E+09	 4.15864283E-01	-6.82743199E+01
1.18900000E+09	 4.15312343E-01	-6.83294333E+01
1.19000000E+09	 4.14894074E-01	-6.83850968E+01
1.19100000E+09	 4.14389441E-01	-6.84301743E+01
1.19200000E+09	 4.13979071E-01	-6.84797450E+01
1.19300000E+09	 4.13459373E-01	-6.85316073E+01
1.19400000E+09	 4.12930075E-01	-6.85888768E+01
1.19500000E+09	 4.12553965E-01	-6.86537673E+01
1.19600000E+09	 4.12069290E-01	-6.87035169E+01
1.19700000E+09	 4.11679304E-01	-6.87593055E+01
1.19800000E+09	 4.11200766E-01	-6.88134383E+01
1.19900000E+09	 4.10672187E-01	-6.88783979E+01
1.20000000E+09	 4.10180469E-01	-6.89308081E+01
1.20100000E+09	 4.09761557E-01	-6.89902935E+01
1.20200000E+09	 4.09324853E-01	-6.90496075E+01
1.20300000E+09	 4.08904504E-01	-6.91115141E+01
1.20400000E+09	 4.08431257E-01	-6.91644169E+01
1.20500000E+09	 4.07975722E-01	-6.92329725E+01
1.20600000E+09	 4.07518316E-01	-6.92909429E+01
1.20700000E+09	 4.07109321E-01	-6.93493416E+01
1.20800000E+09	 4.06682205E-01	-6.94116503E+01
1.20900000E+09	 4.06268321E-01	-6.94737818E+01
1.21000000E+09	 4.05864093E-01	-6.95338829E+01
1.21100000E+09	 4.05427173E-01	-6.95891918E+01
1.21200000E+09	 4.04959867E-01	-6.96581848E+01
1.21300000E+09	 4.04594519E-01	-6.97099128E+01
1.21400000E+09	 4.04205950E-01	-6.97772285E+01
1.21500000E+09	 4.03756350E-01	-6.98508772E+01
1.21600000E+09	 4.03399569E-01	-6.99067068E+01
1.21700000E+09	 4.02896821E-01	-6.99666697E+01
1.21800000E+09	 4.02586417E-01	-7.00312278E+01
1.21900000E+09	 4.02165099E-01	-7.00993425E+01
1.22000000E+09	 4.01752308E-01	-7.01702228E+01
1.22100000E+09	 4.01448504E-01	-7.02225422E+01
1.22200000E+09	 4.00960752E-01	-7.02962330E+01
1.22300000E+09	 4.00620807E-01	-7.03658193E+01
1.22400000E+09	 4.00267300E-01	-7.04327383E+01
1.22500000E+09	 3.99882849E-01	-7.05045275E+01
1.22600000E+09	 3.99562622E-01	-7.05703131E+01
1.22700000E+09	 3.99149951E-01	-7.06417988E+01
1.22800000E+09	 3.98809558E-01	-7.07091210E+01
1.22900000E+09	 3.98479946E-01	-7.07779324E+01
1.23000000E+09	 3.98082662E-01	-7.08517934E+01
1.23100000E+09	 3.97767515E-01	-7.09271020E+01
1.23200000E+09	 3.97416389E-01	-7.10022870E+01
1.23300000E+09	 3.97086855E-01	-7.10673780E+01
1.23400000E+09	 3.96801275E-01	-7.11418178E+01
1.23500000E+09	 3.96487227E-01	-7.12187560E+01
1.23600000E+09	 3.96210766E-01	-7.12849352E+01
1.23700000E+09	 3.95793186E-01	-7.13599868E+01
1.23800000E+09	 3.95555058E-01	-7.14490067E+01
1.23900000E+09	 3.95272237E-01	-7.15202563E+01
1.24000000E+09	 3.94933896E-01	-7.16005079E+01
1.24100000E+09	 3.94728791E-01	-7.16690140E+01
1.24200000E+09	 3.94418988E-01	-7.17424458E+01
1.24300000E+09	 3.94147378E-01	-7.18210433E+01
1.24400000E+09	 3.93864511E-01	-7.18936945E+01
1.24500000E+09	 3.93573761E-01	-7.19646952E+01
1.24600000E+09	 3.93348363E-01	-7.20427220E+01
1.24700000E+09	 3.93066187E-01	-7.21288434E+01
1.24800000E+09	 3.92793976E-01	-7.21981227E+01
1.24900000E+09	 3.92589988E-01	-7.22803602E+01
1.25000000E+09	 3.92331781E-01	-7.23522594E+01
1.25100000E+09	 3.92069774E-01	-7.24272327E+01
1.25200000E+09	 3.91841076E-01	-7.25096546E+01
1.25300000E+09	 3.91670256E-01	-7.25888779E+01
1.25400000E+09	 3.91427530E-01	-7.26628846E+01
1.25500000E+09	 3.91232776E-01	-7.27400484E+01
1.25600000E+09	 3.91022760E-01	-7.28143934E+01
1.25700000E+09	 3.90829587E-01	-7.28887967E+01
1.25800000E+09	 3.90624242E-01	-7.29625560E+01
1.25900000E+09	 3.90490207E-01	-7.30320677E+01
1.26000000E+09	 3.90262268E-01	-7.31111725E+01
1.26100000E+09	 3.90110902E-01	-7.31899918E+01
1.26200000E+09	 3.89943764E-01	-7.32633797E+01
1.26300000E+09	 3.89720666E-01	-7.33429040E+01
1.26400000E+09	 3.89590374E-01	-7.34241955E+01
1.26500000E+09	 3.89505313E-01	-7.34931406E+01
1.26600000E+09	 3.89303318E-01	-7.35678028E+01
1.26700000E+09	 3.89170310E-01	-7.36431706E+01
1.26800000E+09	 3.89065646E-01	-7.37228213E+01
1.26900000E+09	 3.88949194E-01	-7.37847068E+01
1.27000000E+09	 3.88754675E-01	-7.38680470E+01
1.27100000E+09	 3.88636924E-01	-7.39350769E+01
1.27200000E+09	 3.88502385E-01	-7.40212272E+01
1.27300000E+09	 3.88464150E-01	-7.40851435E+01
1.27400000E+09	 3.88328838E-01	-7.41607110E+01
1.27500000E+09	 3.88276734E-01	-7.42396597E+01
1.27600000E+09	 3.88218606E-01	-7.43123787E+01
1.27700000E+09	 3.88078767E-01	-7.43831842E+01
1.27800000E+09	 3.88046830E-01	-7.44526736E+01
1.27900000E+09	 3.87943974E-01	-7.45232148E+01
1.28000000E+09	 3.87900417E-01	-7.45949817E+01
1.28100000E+09	 3.87863839E-01	-7.46662694E+01
1.28200000E+09	 3.87808906E-01	-7.47366962E+01
1.28300000E+09	 3.87723282E-01	-7.47984022E+01
1.28400000E+09	 3.87774598E-01	-7.48675088E+01
1.28500000E+09	 3.87665227E-01	-7.49419146E+01
1.28600000E+09	 3.87660507E-01	-7.50078343E+01
1.28700000E+09	 3.87673400E-01	-7.50763288E+01
1.28800000E+09	 3.87590615E-01	-7.51434888E+01
1.28900000E+09	 3.87566615E-01	-7.52058009E+01
1.29000000E+09	 3.87536727E-01	-7.52711950E+01
1.29100000E+09	 3.87565776E-01	-7.53474501E+01
1.29200000E+09	 3.87496336E-01	-7.54026265E+01
1.29300000E+09	 3.87590236E-01	-7.54755073E+01
1.29400000E+09	 3.87568791E-01	-7.55344091E+01
1.29500000E+09	 3.87524043E-01	-7.55961083E+01
1.29600000E+09	 3.87517746E-01	-7.56651936E+01
1.29700000E+09	 3.87580721E-01	-7.57210986E+01
1.29800000E+09	 3.87588267E-01	-7.57790682E+01
1.29900000E+09	 3.87562275E-01	-7.58463263E+01
1.30000000E+09	 3.87516897E-01	-7.58963597E+01
1.30100000E+09	 3.87598728E-01	-7.59609469E+01
1.30200000E+09	 3.87659645E-01	-7.60150831E+01
1.30300000E+09	 3.87664955E-01	-7.60685705E+01
1.30400000E+09	 3.87731851E-01	-7.61323239E+01
1.30500000E+09	 3.87728835E-01	-7.61943242E+01
1.30600000E+09	 3.87746626E-01	-7.62542974E+01
1.30700000E+09	 3.87755077E-01	-7.63054396E+01
1.30800000E+09	 3.87782972E-01	-7.63642701E+01
1.30900000E+09	 3.87846673E-01	-7.64205942E+01
1.31000000E+09	 3.87924500E-01	-7.64823548E+01
1.31100000E+09	 3.87948225E-01	-7.65209041E+01
1.31200000E+09	 3.88036055E-01	-7.65805901E+01
1.31300000E+09	 3.88096893E-01	-7.66333916E+01
1.31400000E+09	 3.88075659E-01	-7.66870847E+01
1.31500000E+09	 3.88179111E-01	-7.67334487E+01
1.31600000E+09	 3.88252211E-01	-7.67865728E+01
1.31700000E+09	 3.88292926E-01	-7.68272956E+01
1.31800000E+09	 3.88444833E-01	-7.68827614E+01
1.31900000E+09	 3.88432245E-01	-7.69296566E+01
1.32000000E+09	 3.88534266E-01	-7.69698024E+01
1.32100000E+09	 3.88580794E-01	-7.70172980E+01
1.32200000E+09	 3.88678270E-01	-7.70614413E+01
1.32300000E+09	 3.88742302E-01	-7.70965808E+01
1.32400000E+09	 3.88780607E-01	-7.71572259E+01
1.32500000E+09	 3.88870249E-01	-7.71856286E+01
1.32600000E+09	 3.88942835E-01	-7.72348384E+01
1.32700000E+09	 3.89055870E-01	-7.72771311E+01
1.32800000E+09	 3.89148747E-01	-7.73092766E+01
1.32900000E+09	 3.89213702E-01	-7.73545169E+01
1.33000000E+09	 3.89249593E-01	-7.73883718E+01
1.33100000E+09	 3.89371927E-01	-7.74259467E+01
1.33200000E+09	 3.89446299E-01	-7.74602109E+01
1.33300000E+09	 3.89528530E-01	-7.74975200E+01
1.33400000E+09	 3.89569482E-01	-7.75270738E+01
1.33500000E+09	 3.89665725E-01	-7.75654915E+01
1.33600000E+09	 3.89738967E-01	-7.75932841E+01
1.33700000E+09	 3.89823226E-01	-7.76239107E+01
1.33800000E+09	 3.89958860E-01	-7.76599712E+01
1.33900000E+09	 3.90044889E-01	-7.76885670E+01
1.34000000E+09	 3.90113862E-01	-7.77136579E+01
1.34100000E+09	 3.90241218E-01	-7.77406033E+01
1.34200000E+09	 3.90344678E-01	-7.77631295E+01
1.34300000E+09	 3.90387171E-01	-7.77898487E+01
1.34400000E+09	 3.90513237E-01	-7.78141695E+01
1.34500000E+09	 3.90540456E-01	-7.78455910E+01
1.34600000E+09	 3.90559824E-01	-7.78766364E+01
1.34700000E+09	 3.90670221E-01	-7.78887932E+01
1.34800000E+09	 3.90748628E-01	-7.79221088E+01
1.34900000E+09	 3.90818104E-01	-7.79359995E+01
1.35000000E+09	 3.90848768E-01	-7.79544956E+01
1.35100000E+09	 3.90966611E-01	-7.79728575E+01
1.35200000E+09	 3.90987824E-01	-7.79940642E+01
1.35300000E+09	 3.90984481E-01	-7.80132517E+01
1.35400000E+09	 3.91063576E-01	-7.80301937E+01
1.35500000E+09	 3.91130411E-01	-7.80441778E+01
1.35600000E+09	 3.91202014E-01	-7.80530602E+01
1.35700000E+09	 3.91230869E-01	-7.80688615E+01
1.35800000E+09	 3.91255203E-01	-7.80851066E+01
1.35900000E+09	 3.91285353E-01	-7.80966639E+01
1.36000000E+09	 3.91322932E-01	-7.81001639E+01
1.36100000E+09	 3.91366975E-01	-7.81194164E+01
1.36200000E+09	 3.91385083E-01	-7.81315814E+01
1.36300000E+09	 3.91391442E-01	-7.81448441E+01
1.36400000E+09	 3.91445853E-01	-7.81472196E+01
1.36500000E+09	 3.91476675E-01	-7.81505204E+01
1.36600000E+09	 3.91470231E-01	-7.81566069E+01
1.36700000E+09	 3.91501954E-01	-7.81660161E+01
1.36800000E+09	 3.91526474E-01	-7.81724442E+01
1.36900000E+09	 3.91500314E-01	-7.81795182E+01
1.37000000E+09	 3.91579521E-01	-7.81885876E+01
1.37100000E+09	 3.91503982E-01	-7.81881619E+01
1.37200000E+09	 3.91485881E-01	-7.81974016E+01
1.37300000E+09	 3.91477612E-01	-7.82035903E+01
1.37400000E+09	 3.91474248E-01	-7.82142678E+01
1.37500000E+09	 3.91461256E-01	-7.82147545E+01
1.37600000E+09	 3.91383318E-01	-7.82240225E+01
1.37700000E+09	 3.91394170E-01	-7.82248368E+01
1.37800000E+09	 3.91346274E-01	-7.82289669E+01
1.37900000E+09	 3.91340559E-01	-7.82370589E+01
1.38000000E+09	 3.91263105E-01	-7.82353198E+01
1.38100000E+09	 3.91229006E-01	-7.82476563E+01
1.38200000E+09	 3.91202884E-01	-7.82464136E+01
1.38300000E+09	 3.91113893E-01	-7.82402919E+01
1.38400000E+09	 3.91145575E-01	-7.82454173E+01
1.38500000E+09	 3.91073591E-01	-7.82429491E+01
1.38600000E+09	 3.90946010E-01	-7.82523722E+01
1.38700000E+09	 3.90911753E-01	-7.82523160E+01
1.38800000E+09	 3.90896326E-01	-7.82519399E+01
1.38900000E+09	 3.90836438E-01	-7.82483368E+01
1.39000000E+09	 3.90780359E-01	-7.82606523E+01
1.39100000E+09	 3.90722424E-01	-7.82484551E+01
1.39200000E+09	 3.90608176E-01	-7.82491053E+01
1.39300000E+09	 3.90575649E-01	-7.82514206E+01
1.39400000E+09	 3.90514514E-01	-7.82473458E+01
1.39500000E+09	 3.90402276E-01	-7.82433957E+01
1.39600000E+09	 3.90347482E-01	-7.82417310E+01
1.39700000E+09	 3.90234121E-01	-7.82325176E+01
1.39800000E+09	 3.90133183E-01	-7.82349622E+01
1.39900000E+09	 3.90059745E-01	-7.82231014E+01
1.40000000E+09	 3.89974748E-01	-7.82213715E+01
1.40100000E+09	 3.89874380E-01	-7.82239768E+01
1.40200000E+09	 3.89735360E-01	-7.82107192E+01
1.40300000E+09	 3.89592681E-01	-7.82029177E+01
1.40400000E+09	 3.89475112E-01	-7.81957804E+01
1.40500000E+09	 3.89354252E-01	-7.82021066E+01
1.40600000E+09	 3.89211663E-01	-7.81891871E+01
1.40700000E+09	 3.89050912E-01	-7.81855882E+01
1.40800000E+09	 3.88893803E-01	-7.81856897E+01
1.40900000E+09	 3.88720795E-01	-7.81684247E+01
1.41000000E+09	 3.88581669E-01	-7.81690361E+01
1.41100000E+09	 3.88376423E-01	-7.81598178E+01
1.41200000E+09	 3.88284361E-01	-7.81481435E+01
1.41300000E+09	 3.88034916E-01	-7.81459807E+01
1.41400000E+09	 3.87895553E-01	-7.81460740E+01
1.41500000E+09	 3.87760793E-01	-7.81364511E+01
1.41600000E+09	 3.87523430E-01	-7.81381600E+01
1.41700000E+09	 3.87334377E-01	-7.81402025E+01
1.41800000E+09	 3.87119848E-01	-7.81261571E+01
1.41900000E+09	 3.86872006E-01	-7.81327501E+01
1.42000000E+09	 3.86748368E-01	-7.81239779E+01
1.42100000E+09	 3.86535587E-01	-7.81308690E+01
1.42200000E+09	 3.86378305E-01	-7.81285978E+01
1.42300000E+09	 3.86102912E-01	-7.81197845E+01
1.42400000E+09	 3.85898146E-01	-7.81255987E+01
1.42500000E+09	 3.85699286E-01	-7.81248838E+01
1.42600000E+09	 3.85473200E-01	-7.81333402E+01
1.42700000E+09	 3.85225101E-01	-7.81331669E+01
1.42800000E+09	 3.85009760E-01	-7.81347014E+01
1.42900000E+09	 3.84767432E-01	-7.81438001E+01
1.43000000E+09	 3.84528497E-01	-7.81327608E+01
1.43100000E+09	 3.84334688E-01	-7.81451222E+01
1.43200000E+09	 3.84093735E-01	-7.81450046E+01
1.43300000E+09	 3.83867679E-01	-7.81492792E+01
1.43400000E+09	 3.83635396E-01	-7.81451572E+01
1.43500000E+09	 3.83408252E-01	-7.81629513E+01
1.43600000E+09	 3.83166217E-01	-7.81579099E+01
1.43700000E+09	 3.82942379E-01	-7.81726841E+01
1.43800000E+09	 3.82702603E-01	-7.81748596E+01
1.43900000E+09	 3.82536582E-01	-7.81789056E+01
1.44000000E+09	 3.82265044E-01	-7.81801594E+01
1.44100000E+09	 3.82057691E-01	-7.81900356E+01
1.44200000E+09	 3.81854987E-01	-7.81955942E+01
1.44300000E+09	 3.81618788E-01	-7.82069799E+01
1.44400000E+09	 3.81447596E-01	-7.82181971E+01
1.44500000E+09	 3.81212307E-01	-7.82119427E+01
1.44600000E+09	 3.80984823E-01	-7.82355228E+01
1.44700000E+09	 3.80771147E-01	-7.82484159E+01
1.44800000E+09	 3.80515320E-01	-7.82592076E+01
1.44900000E+09	 3.80311559E-01	-7.82737866E+01
1.45000000E+09	 3.80069372E-01	-7.82937090E+01
1.45100000E+09	 3.79826795E-01	-7.83015172E+01
1.45200000E+09	 3.79607800E-01	-7.83370560E+01
1.45300000E+09	 3.79333739E-01	-7.83349052E+01
1.45400000E+09	 3.79103839E-01	-7.83673558E+01
1.45500000E+09	 3.78844997E-01	-7.83857552E+01
1.45600000E+09	 3.78646112E-01	-7.84106968E+01
1.45700000E+09	 3.78391216E-01	-7.84271704E+01
1.45800000E+09	 3.78191253E-01	-7.84452295E+01
1.45900000E+09	 3.77948156E-01	-7.84643412E+01
1.46000000E+09	 3.77674726E-01	-7.85021548E+01
1.46100000E+09	 3.77414268E-01	-7.85218967E+01
1.46200000E+09	 3.77220991E-01	-7.85471650E+01
1.46300000E+09	 3.76890671E-01	-7.85668077E+01
1.46400000E+09	 3.76671148E-01	-7.86091961E+01
1.46500000E+09	 3.76389161E-01	-7.86315936E+01
1.46600000E+09	 3.76127060E-01	-7.86700001E+01
1.46700000E+09	 3.75909922E-01	-7.87004877E+01
1.46800000E+09	 3.75537509E-01	-7.87313725E+01
1.46900000E+09	 3.75292844E-01	-7.87597142E+01
1.47000000E+09	 3.75022895E-01	-7.87986874E+01
1.47100000E+09	 3.74703047E-01	-7.88305295E+01
1.47200000E+09	 3.74423856E-01	-7.88596168E+01
1.47300000E+09	 3.74155181E-01	-7.89009757E+01
1.47400000E+09	 3.73897451E-01	-7.89418649E+01
1.47500000E+09	 3.73615486E-01	-7.89696470E+01
1.47600000E+09	 3.73396333E-01	-7.90007633E+01
1.47700000E+09	 3.73112115E-01	-7.90475777E+01
1.47800000E+09	 3.72784109E-01	-7.90784774E+01
1.47900000E+09	 3.72506011E-01	-7.91240837E+01
1.48000000E+09	 3.72234023E-01	-7.91588726E+01
1.48100000E+09	 3.71925624E-01	-7.92024339E+01
1.48200000E+09	 3.71679797E-01	-7.92406678E+01
1.48300000E+09	 3.71352096E-01	-7.92800438E+01
1.48400000E+09	 3.71195852E-01	-7.93256038E+01
1.48500000E+09	 3.70853169E-01	-7.93610842E+01
1.48600000E+09	 3.70563100E-01	-7.94092604E+01
1.48700000E+09	 3.70330212E-01	-7.94515211E+01
1.48800000E+09	 3.70037931E-01	-7.94919294E+01
1.48900000E+09	 3.69794401E-01	-7.95324271E+01
1.49000000E+09	 3.69551985E-01	-7.95745452E+01
1.49100000E+09	 3.69299432E-01	-7.96286379E+01
1.49200000E+09	 3.69065778E-01	-7.96770266E+01
1.49300000E+09	 3.68792520E-01	-7.97184326E+01
1.49400000E+09	 3.68561840E-01	-7.97701191E+01
1.49500000E+09	 3.68331566E-01	-7.98169751E+01
1.49600000E+09	 3.68136822E-01	-7.98654150E+01
1.49700000E+09	 3.67915500E-01	-7.99204539E+01
1.49800000E+09	 3.67695720E-01	-7.99692883E+01
1.49900000E+09	 3.67448413E-01	-8.00191060E+01
1.50000000E+09	 3.67300790E-01	-8.00719234E+01
1.50100000E+09	 3.67145422E-01	-8.01093418E+01
1.50200000E+09	 3.66965813E-01	-8.01630223E+01
1.50300000E+09	 3.66720928E-01	-8.02248559E+01
1.50400000E+09	 3.66510546E-01	-8.02667256E+01
1.50500000E+09	 3.66389548E-01	-8.03175673E+01
1.50600000E+09	 3.66162342E-01	-8.03739526E+01
1.50700000E+09	 3.65983104E-01	-8.04229285E+01
1.50800000E+09	 3.65776061E-01	-8.04760477E+01
1.50900000E+09	 3.65579419E-01	-8.05234401E+01
1.51000000E+09	 3.65379034E-01	-8.05776149E+01
1.51100000E+09	 3.65191529E-01	-8.06424679E+01
1.51200000E+09	 3.65004026E-01	-8.06854275E+01
1.51300000E+09	 3.64817611E-01	-8.07358046E+01
1.51400000E+09	 3.64616471E-01	-8.07889908E+01
1.51500000E+09	 3.64423270E-01	-8.08402465E+01
1.51600000E+09	 3.64284175E-01	-8.08995689E+01
1.51700000E+09	 3.64092119E-01	-8.09581779E+01
1.51800000E+09	 3.63961850E-01	-8.10031023E+01
1.51900000E+09	 3.63768270E-01	-8.10630252E+01
1.52000000E+09	 3.63621172E-01	-8.11134882E+01
1.52100000E+09	 3.63462782E-01	-8.11804077E+01
1.52200000E+09	 3.63294505E-01	-8.12259010E+01
1.52300000E+09	 3.63208007E-01	-8.12868437E+01
1.52400000E+09	 3.63049936E-01	-8.13355287E+01
1.52500000E+09	 3.62943064E-01	-8.13997469E+01
1.52600000E+09	 3.62810611E-01	-8.14463616E+01
1.52700000E+09	 3.62667741E-01	-8.15024833E+01
1.52800000E+09	 3.62585817E-01	-8.15537211E+01
1.52900000E+09	 3.62457411E-01	-8.16131527E+01
1.53000000E+09	 3.62337309E-01	-8.16732486E+01
1.53100000E+09	 3.62269666E-01	-8.17272083E+01
1.53200000E+09	 3.62154012E-01	-8.17732150E+01
1.53300000E+09	 3.62114281E-01	-8.18233281E+01
1.53400000E+09	 3.61998041E-01	-8.18775031E+01
1.53500000E+09	 3.61941441E-01	-8.19276664E+01
1.53600000E+09	 3.61908621E-01	-8.19826995E+01
1.53700000E+09	 3.61827614E-01	-8.20506333E+01
1.53800000E+09	 3.61803450E-01	-8.20894920E+01
1.53900000E+09	 3.61725721E-01	-8.21526517E+01
1.54000000E+09	 3.61673636E-01	-8.22084877E+01
1.54100000E+09	 3.61655477E-01	-8.22564018E+01
1.54200000E+09	 3.61579255E-01	-8.23064712E+01
1.54300000E+09	 3.61569275E-01	-8.23601941E+01
1.54400000E+09	 3.61564255E-01	-8.24144544E+01
1.54500000E+09	 3.61571839E-01	-8.24600904E+01
1.54600000E+09	 3.61555476E-01	-8.25169450E+01
1.54700000E+09	 3.61576244E-01	-8.25754453E+01
1.54800000E+09	 3.61622540E-01	-8.26291182E+01
1.54900000E+09	 3.61587161E-01	-8.26766585E+01
1.55000000E+09	 3.61592977E-01	-8.27326521E+01
1.55100000E+09	 3.61697605E-01	-8.27955228E+01
1.55200000E+09	 3.61716626E-01	-8.28370577E+01
1.55300000E+09	 3.61744076E-01	-8.29040716E+01
1.55400000E+09	 3.61770805E-01	-8.29452088E+01
1.55500000E+09	 3.61802855E-01	-8.29986859E+01
1.55600000E+09	 3.61822086E-01	-8.30452039E+01
1.55700000E+09	 3.61924596E-01	-8.30949127E+01
1.55800000E+09	 3.62012719E-01	-8.31549172E+01
1.55900000E+09	 3.62109895E-01	-8.32020039E+01
1.56000000E+09	 3.62150942E-01	-8.32412839E+01
1.56100000E+09	 3.62260548E-01	-8.32953311E+01
1.56200000E+09	 3.62386371E-01	-8.33384149E+01
1.56300000E+09	 3.62513634E-01	-8.33777828E+01
1.56400000E+09	 3.62551517E-01	-8.34296793E+01
1.56500000E+09	 3.62663423E-01	-8.34685754E+01
1.56600000E+09	 3.62779088E-01	-8.35178617E+01
1.56700000E+09	 3.62912484E-01	-8.35580117E+01
1.56800000E+09	 3.63040656E-01	-8.35936122E+01
1.56900000E+09	 3.63173667E-01	-8.36374574E+01
1.57000000E+09	 3.63289484E-01	-8.36823782E+01
1.57100000E+09	 3.63382110E-01	-8.37183521E+01
1.57200000E+09	 3.63573043E-01	-8.37692794E+01
1.57300000E+09	 3.63656543E-01	-8.38030816E+01
1.57400000E+09	 3.63768441E-01	-8.38172450E+01
1.57500000E+09	 3.63943137E-01	-8.38615725E+01
1.57600000E+09	 3.64072450E-01	-8.39041545E+01
1.57700000E+09	 3.64218281E-01	-8.39364948E+01
1.57800000E+09	 3.64354229E-01	-8.39825527E+01
1.57900000E+09	 3.64499976E-01	-8.40068459E+01
1.58000000E+09	 3.64654834E-01	-8.40427611E+01
1.58100000E+09	 3.64768889E-01	-8.40770210E+01
1.58200000E+09	 3.64879576E-01	-8.41062542E+01
1.58300000E+09	 3.65064343E-01	-8.41366614E+01
1.58400000E+09	 3.65209353E-01	-8.41697250E+01
1.58500000E+09	 3.65346603E-01	-8.41950209E+01
1.58600000E+09	 3.65495099E-01	-8.42343186E+01
1.58700000E+09	 3.65591517E-01	-8.42582119E+01
1.58800000E+09	 3.65767237E-01	-8.43044866E+01
1.58900000E+09	 3.65873406E-01	-8.43305951E+01
1.59000000E+09	 3.66057828E-01	-8.43545920E+01
1.59100000E+09	 3.66159004E-01	-8.43848201E+01
1.59200000E+09	 3.66271329E-01	-8.44129900E+01
1.59300000E+09	 3.66439681E-01	-8.44402152E+01
1.59400000E+09	 3.66577270E-01	-8.44655821E+01
1.59500000E+09	 3.66724799E-01	-8.45003315E+01
1.59600000E+09	 3.66892441E-01	-8.45245132E+01
1.59700000E+09	 3.67092741E-01	-8.45471725E+01
1.59800000E+09	 3.67240150E-01	-8.45643413E+01
1.59900000E+09	 3.67364411E-01	-8.45890089E+01
1.60000000E+09	 3.67522540E-01	-8.46175221E+01
1.60100000E+09	 3.67750773E-01	-8.46343319E+01
1.60200000E+09	 3.67996734E-01	-8.46470311E+01
1.60300000E+09	 3.68143356E-01	-8.46745088E+01
1.60400000E+09	 3.68360573E-01	-8.46916527E+01
1.60500000E+09	 3.68540966E-01	-8.47177129E+01
1.60600000E+09	 3.68785327E-01	-8.47184364E+01
1.60700000E+09	 3.68890940E-01	-8.47293420E+01
1.60800000E+09	 3.69117599E-01	-8.47483085E+01
1.60900000E+09	 3.69316802E-01	-8.47587228E+01
1.61000000E+09	 3.69479127E-01	-8.47601439E+01
1.61100000E+09	 3.69760666E-01	-8.47765577E+01
1.61200000E+09	 3.69875041E-01	-8.47809743E+01
1.61300000E+09	 3.70098489E-01	-8.47872627E+01
1.61400000E+09	 3.70322000E-01	-8.48036368E+01
1.61500000E+09	 3.70499725E-01	-8.48035564E+01
1.61600000E+09	 3.70679942E-01	-8.48064207E+01
1.61700000E+09	 3.70880866E-01	-8.48096715E+01
1.61800000E+09	 3.70999373E-01	-8.48113836E+01
1.61900000E+09	 3.71180198E-01	-8.48130768E+01
1.62000000E+09	 3.71429722E-01	-8.48124497E+01
1.62100000E+09	 3.71586511E-01	-8.48214746E+01
1.62200000E+09	 3.71785510E-01	-8.48330102E+01
1.62300000E+09	 3.71981685E-01	-8.48036122E+01
1.62400000E+09	 3.72076574E-01	-8.48132044E+01
1.62500000E+09	 3.72268242E-01	-8.48152500E+01
1.62600000E+09	 3.72423208E-01	-8.48118252E+01
1.62700000E+09	 3.72610682E-01	-8.48114719E+01
1.62800000E+09	 3.72837857E-01	-8.47983984E+01
1.62900000E+09	 3.73021440E-01	-8.47959215E+01
1.63000000E+09	 3.73188856E-01	-8.47872292E+01
1.63100000E+09	 3.73378306E-01	-8.47860783E+01
1.63200000E+09	 3.73484949E-01	-8.47832134E+01
1.63300000E+09	 3.73763632E-01	-8.47670630E+01
1.63400000E+09	 3.73951785E-01	-8.47610657E+01
1.63500000E+09	 3.74080728E-01	-8.47564478E+01
1.63600000E+09	 3.74218323E-01	-8.47373535E+01
1.63700000E+09	 3.74445499E-01	-8.47255444E+01
1.63800000E+09	 3.74535740E-01	-8.47161502E+01
1.63900000E+09	 3.74785066E-01	-8.47075180E+01
1.64000000E+09	 3.74902359E-01	-8.46863139E+01
1.64100000E+09	 3.75039107E-01	-8.46748816E+01
1.64200000E+09	 3.75216774E-01	-8.46590003E+01
1.64300000E+09	 3.75360745E-01	-8.46422561E+01
1.64400000E+09	 3.75529729E-01	-8.46225370E+01
1.64500000E+09	 3.75603519E-01	-8.46192956E+01
1.64600000E+09	 3.75803017E-01	-8.45865358E+01
1.64700000E+09	 3.75907417E-01	-8.45819346E+01
1.64800000E+09	 3.76049178E-01	-8.45532089E+01
1.64900000E+09	 3.76274673E-01	-8.45455039E+01
1.65000000E+09	 3.76378922E-01	-8.45128400E+01
1.65100000E+09	 3.76550858E-01	-8.44952503E+01
1.65200000E+09	 3.76633553E-01	-8.44849178E+01
1.65300000E+09	 3.76759228E-01	-8.44520432E+01
1.65400000E+09	 3.76845642E-01	-8.44371178E+01
1.65500000E+09	 3.76915969E-01	-8.44216315E+01
1.65600000E+09	 3.77122816E-01	-8.43984926E+01
1.65700000E+09	 3.77262802E-01	-8.43679446E+01
1.65800000E+09	 3.77279720E-01	-8.43589808E+01
1.65900000E+09	 3.77373521E-01	-8.43466715E+01
1.66000000E+09	 3.77530013E-01	-8.43024547E+01
1.66100000E+09	 3.77678323E-01	-8.42901211E+01
1.66200000E+09	 3.77723617E-01	-8.42584705E+01
1.66300000E+09	 3.77903897E-01	-8.42326266E+01
1.66400000E+09	 3.77957886E-01	-8.42143853E+01
1.66500000E+09	 3.77965225E-01	-8.41849800E+01
1.66600000E+09	 3.78178250E-01	-8.41680344E+01
1.66700000E+09	 3.78225743E-01	-8.41412236E+01
1.66800000E+09	 3.78272759E-01	-8.41175061E+01
1.66900000E+09	 3.78385834E-01	-8.40932199E+01
1.67000000E+09	 3.78460692E-01	-8.40685352E+01
1.67100000E+09	 3.78548921E-01	-8.40497524E+01
1.67200000E+09	 3.78654539E-01	-8.40256253E+01
1.67300000E+09	 3.78755784E-01	-8.39942351E+01
1.67400000E+09	 3.78785179E-01	-8.39682495E+01
1.67500000E+09	 3.78879469E-01	-8.39500212E+01
1.67600000E+09	 3.79005120E-01	-8.39221815E+01
1.67700000E+09	 3.79019193E-01	-8.38964845E+01
1.67800000E+09	 3.79088766E-01	-8.38624046E+01
1.67900000E+09	 3.79161975E-01	-8.38525491E+01
1.68000000E+09	 3.79186962E-01	-8.38301553E+01
1.68100000E+09	 3.79346326E-01	-8.37932413E+01
1.68200000E+09	 3.79358827E-01	-8.37815713E+01
1.68300000E+09	 3.79426531E-01	-8.37623641E+01
1.68400000E+09	 3.79503623E-01	-8.37293671E+01
1.68500000E+09	 3.79546464E-01	-8.37016150E+01
1.68600000E+09	 3.79568084E-01	-8.36702860E+01
1.68700000E+09	 3.79639714E-01	-8.36397177E+01
1.68800000E+09	 3.79688975E-01	-8.36190980E+01
1.68900000E+09	 3.79700975E-01	-8.35935409E+01
1.69000000E+09	 3.79728995E-01	-8.35601212E+01
1.69100000E+09	 3.79791926E-01	-8.35423398E+01
1.69200000E+09	 3.79863955E-01	-8.35063823E+01
1.69300000E+09	 3.79897306E-01	-8.34758503E+01
1.69400000E+09	 3.79917103E-01	-8.34501064E+01
1.69500000E+09	 3.79960154E-01	-8.34182153E+01
1.69600000E+09	 3.79961373E-01	-8.33900668E+01
1.69700000E+09	 3.80034883E-01	-8.33602180E+01
1.69800000E+09	 3.80017391E-01	-8.33421596E+01
1.69900000E+09	 3.79993662E-01	-8.33117253E+01
1.70000000E+09	 3.80138971E-01	-8.32803242E+01
1.70100000E+09	 3.80009928E-01	-8.32591915E+01
1.70200000E+09	 3.80048899E-01	-8.32237833E+01
1.70300000E+09	 3.80107374E-01	-8.32011143E+01
1.70400000E+09	 3.80076048E-01	-8.31732821E+01
1.70500000E+09	 3.79965505E-01	-8.31461415E+01
1.70600000E+09	 3.80023860E-01	-8.31201538E+01
1.70700000E+09	 3.80008049E-01	-8.30891686E+01
1.70800000E+09	 3.79934649E-01	-8.30657727E+01
1.70900000E+09	 3.79940023E-01	-8.30334648E+01
1.71000000E+09	 3.79889466E-01	-8.30201868E+01
1.71100000E+09	 3.79821513E-01	-8.29884949E+01
1.71200000E+09	 3.79886738E-01	-8.29594837E+01
1.71300000E+09	 3.79798471E-01	-8.29360480E+01
1.71400000E+09	 3.79756036E-01	-8.29158548E+01
1.71500000E+09	 3.79742698E-01	-8.28959952E+01
1.71600000E+09	 3.79636143E-01	-8.28675838E+01
1.71700000E+09	 3.79620679E-01	-8.28335472E+01
1.71800000E+09	 3.79555331E-01	-8.28129063E+01
1.71900000E+09	 3.79509595E-01	-8.27992700E+01
1.72000000E+09	 3.79429913E-01	-8.27743188E+01
1.72100000E+09	 3.79333104E-01	-8.27543357E+01
1.72200000E+09	 3.79326196E-01	-8.27355341E+01
1.72300000E+09	 3.79235775E-01	-8.27149539E+01
1.72400000E+09	 3.79160598E-01	-8.26954830E+01
1.72500000E+09	 3.79148753E-01	-8.26734356E+01
1.72600000E+09	 3.79056507E-01	-8.26573340E+01
1.72700000E+09	 3.79015127E-01	-8.26396307E+01
1.72800000E+09	 3.78830108E-01	-8.26162239E+01
1.72900000E+09	 3.78820982E-01	-8.25888994E+01
1.73000000E+09	 3.78719520E-01	-8.25895238E+01
1.73100000E+09	 3.78574436E-01	-8.25681007E+01
1.73200000E+09	 3.78550579E-01	-8.25507606E+01
1.73300000E+09	 3.78443930E-01	-8.25296422E+01
1.73400000E+09	 3.78334277E-01	-8.25059256E+01
1.73500000E+09	 3.78329772E-01	-8.24916496E+01
1.73600000E+09	 3.78145130E-01	-8.24790527E+01
1.73700000E+09	 3.78134177E-01	-8.24595267E+01
1.73800000E+09	 3.77907281E-01	-8.24415255E+01
1.73900000E+09	 3.77872999E-01	-8.24282460E+01
1.74000000E+09	 3.77824445E-01	-8.23961591E+01
1.74100000E+09	 3.77706815E-01	-8.23856792E+01
1.74200000E+09	 3.77526520E-01	-8.23650318E+01
1.74300000E+09	 3.77362372E-01	-8.23478917E+01
1.74400000E+09	 3.77264456E-01	-8.23365337E+01
1.74500000E+09	 3.77152772E-01	-8.23134811E+01
1.74600000E+09	 3.77035280E-01	-8.22932257E+01
1.74700000E+09	 3.76961665E-01	-8.22795919E+01
1.74800000E+09	 3.76750568E-01	-8.22683493E+01
1.74900000E+09	 3.76563642E-01	-8.22550739E+01
1.75000000E+09	 3.76432942E-01	-8.22402223E+01
1.75100000E+09	 3.76360677E-01	-8.22215553E+01
1.75200000E+09	 3.76092895E-01	-8.22149289E+01
1.75300000E+09	 3.76034192E-01	-8.21948520E+01
1.75400000E+09	 3.75766624E-01	-8.21890639E+01
1.75500000E+09	 3.75648832E-01	-8.21703351E+01
1.75600000E+09	 3.75448285E-01	-8.21640378E+01
1.75700000E+09	 3.75317532E-01	-8.21555630E+01
1.75800000E+09	 3.75078645E-01	-8.21337197E+01
1.75900000E+09	 3.74940043E-01	-8.21361421E+01
1.76000000E+09	 3.74680105E-01	-8.21204253E+01
1.76100000E+09	 3.74538836E-01	-8.21047766E+01
1.76200000E+09	 3.74318544E-01	-8.21030431E+01
1.76300000E+09	 3.74158519E-01	-8.20945652E+01
1.76400000E+09	 3.73907723E-01	-8.20920625E+01
1.76500000E+09	 3.73751146E-01	-8.20829706E+01
1.76600000E+09	 3.73526811E-01	-8.20742663E+01
1.76700000E+09	 3.73372385E-01	-8.20599166E+01
1.76800000E+09	 3.73111300E-01	-8.20538196E+01
1.76900000E+09	 3.72894543E-01	-8.20524835E+01
1.77000000E+09	 3.72678433E-01	-8.20501232E+01
1.77100000E+09	 3.72553103E-01	-8.20313939E+01
1.77200000E+09	 3.72364906E-01	-8.20435497E+01
1.77300000E+09	 3.72181203E-01	-8.20200696E+01
1.77400000E+09	 3.72007804E-01	-8.20278812E+01
1.77500000E+09	 3.71844547E-01	-8.20208803E+01
1.77600000E+09	 3.71634632E-01	-8.20212125E+01
1.77700000E+09	 3.71517120E-01	-8.20081698E+01
1.77800000E+09	 3.71282177E-01	-8.20112954E+01
1.77900000E+09	 3.71131290E-01	-8.20015981E+01
1.78000000E+09	 3.70880822E-01	-8.19996354E+01
1.78100000E+09	 3.70687465E-01	-8.19791489E+01
1.78200000E+09	 3.70492267E-01	-8.19848908E+01
1.78300000E+09	 3.70283237E-01	-8.19741277E+01
1.78400000E+09	 3.70077118E-01	-8.19651552E+01
1.78500000E+09	 3.69953881E-01	-8.19597733E+01
1.78600000E+09	 3.69779420E-01	-8.19630271E+01
1.78700000E+09	 3.69569130E-01	-8.19525204E+01
1.78800000E+09	 3.69306989E-01	-8.19507901E+01
1.78900000E+09	 3.69122261E-01	-8.19463721E+01
1.79000000E+09	 3.68956105E-01	-8.19378300E+01
1.79100000E+09	 3.68659056E-01	-8.19417851E+01
1.79200000E+09	 3.68513052E-01	-8.19367065E+01
1.79300000E+09	 3.68246644E-01	-8.19436018E+01
1.79400000E+09	 3.68050272E-01	-8.19372795E+01
1.79500000E+09	 3.67895764E-01	-8.19452729E+01
1.79600000E+09	 3.67630682E-01	-8.19434332E+01
1.79700000E+09	 3.67433951E-01	-8.19438216E+01
1.79800000E+09	 3.67253622E-01	-8.19539699E+01
1.79900000E+09	 3.67057689E-01	-8.19602892E+01
1.80000000E+09	 3.66844045E-01	-8.19629910E+01
1.80100000E+09	 3.66647082E-01	-8.19705537E+01
1.80200000E+09	 3.66442800E-01	-8.19675004E+01
1.80300000E+09	 3.66284121E-01	-8.19814633E+01
1.80400000E+09	 3.66088235E-01	-8.19724421E+01
1.80500000E+09	 3.65913491E-01	-8.19787044E+01
1.80600000E+09	 3.65769979E-01	-8.19929927E+01
1.80700000E+09	 3.65607076E-01	-8.20038242E+01
1.80800000E+09	 3.65378387E-01	-8.20046835E+01
1.80900000E+09	 3.65102430E-01	-8.20045948E+01
1.81000000E+09	 3.64945256E-01	-8.20125271E+01
1.81100000E+09	 3.64756010E-01	-8.20225244E+01
1.81200000E+09	 3.64532397E-01	-8.20274174E+01
1.81300000E+09	 3.64382298E-01	-8.20332463E+01
1.81400000E+09	 3.64137681E-01	-8.20473450E+01
1.81500000E+09	 3.63928173E-01	-8.20517541E+01
1.81600000E+09	 3.63740644E-01	-8.20576484E+01
1.81700000E+09	 3.63525913E-01	-8.20788414E+01
1.81800000E+09	 3.63303633E-01	-8.20686882E+01
1.81900000E+09	 3.63093659E-01	-8.20868148E+01
1.82000000E+09	 3.62974081E-01	-8.21053892E+01
1.82100000E+09	 3.62697306E-01	-8.21035610E+01
1.82200000E+09	 3.62532786E-01	-8.21225458E+01
1.82300000E+09	 3.62259685E-01	-8.21352725E+01
1.82400000E+09	 3.62121070E-01	-8.21388360E+01
1.82500000E+09	 3.61920264E-01	-8.21591004E+01
1.82600000E+09	 3.61724993E-01	-8.21703155E+01
1.82700000E+09	 3.61519751E-01	-8.21878042E+01
1.82800000E+09	 3.61333405E-01	-8.22123978E+01
1.82900000E+09	 3.61172417E-01	-8.22317683E+01
1.83000000E+09	 3.60993633E-01	-8.22392021E+01
1.83100000E+09	 3.60807938E-01	-8.22677134E+01
1.83200000E+09	 3.60557344E-01	-8.22801234E+01
1.83300000E+09	 3.60399265E-01	-8.22970146E+01
1.83400000E+09	 3.60349063E-01	-8.23218349E+01
1.83500000E+09	 3.60017047E-01	-8.23286453E+01
1.83600000E+09	 3.59882732E-01	-8.23498347E+01
1.83700000E+09	 3.59790609E-01	-8.23593319E+01
1.83800000E+09	 3.59624070E-01	-8.23882229E+01
1.83900000E+09	 3.59388745E-01	-8.24160818E+01
1.84000000E+09	 3.59232915E-01	-8.24417762E+01
1.84100000E+09	 3.59126223E-01	-8.24658780E+01
1.84200000E+09	 3.58960755E-01	-8.24833428E+01
1.84300000E+09	 3.58780510E-01	-8.25125166E+01
1.84400000E+09	 3.58711044E-01	-8.25266063E+01
1.84500000E+09	 3.58434170E-01	-8.25464332E+01
1.84600000E+09	 3.58367342E-01	-8.25690296E+01
1.84700000E+09	 3.58173649E-01	-8.25928947E+01
1.84800000E+09	 3.58105735E-01	-8.26042021E+01
1.84900000E+09	 3.58019438E-01	-8.26289431E+01
1.85000000E+09	 3.57880173E-01	-8.26535472E+01
1.85100000E+09	 3.57816322E-01	-8.26721815E+01
1.85200000E+09	 3.57613805E-01	-8.26861224E+01
1.85300000E+09	 3.57494929E-01	-8.27082877E+01
1.85400000E+09	 3.57380892E-01	-8.27295842E+01
1.85500000E+09	 3.57260011E-01	-8.27563026E+01
1.85600000E+09	 3.57103653E-01	-8.27700988E+01
1.85700000E+09	 3.57072868E-01	-8.27871136E+01
1.85800000E+09	 3.56972496E-01	-8.28211409E+01
1.85900000E+09	 3.56860991E-01	-8.28366195E+01
1.86000000E+09	 3.56699412E-01	-8.28669539E+01
1.86100000E+09	 3.56543790E-01	-8.28704227E+01
1.86200000E+09	 3.56454564E-01	-8.29021931E+01
1.86300000E+09	 3.56453067E-01	-8.29201065E+01
1.86400000E+09	 3.56077042E-01	-8.29348121E+01
1.86500000E+09	 3.56105872E-01	-8.29509848E+01
1.86600000E+09	 3.55963971E-01	-8.29813001E+01
1.86700000E+09	 3.55850274E-01	-8.30001296E+01
1.86800000E+09	 3.55719101E-01	-8.30257175E+01
1.86900000E+09	 3.55514588E-01	-8.30468398E+01
1.87000000E+09	 3.55355003E-01	-8.30681331E+01
1.87100000E+09	 3.55284317E-01	-8.30825943E+01
1.87200000E+09	 3.55232787E-01	-8.31215953E+01
1.87300000E+09	 3.55076447E-01	-8.31489052E+01
1.87400000E+09	 3.55041924E-01	-8.31725595E+01
1.87500000E+09	 3.54856504E-01	-8.32083926E+01
1.87600000E+09	 3.54695769E-01	-8.32339258E+01
1.87700000E+09	 3.54726549E-01	-8.32782210E+01
1.87800000E+09	 3.54568672E-01	-8.33069246E+01
1.87900000E+09	 3.54507153E-01	-8.33280348E+01
1.88000000E+09	 3.54423037E-01	-8.33518914E+01
1.88100000E+09	 3.54355537E-01	-8.33898278E+01
1.88200000E+09	 3.54280481E-01	-8.34225013E+01
1.88300000E+09	 3.54141492E-01	-8.34453950E+01
1.88400000E+09	 3.54163205E-01	-8.34822022E+01
1.88500000E+09	 3.54040806E-01	-8.34971976E+01
1.88600000E+09	 3.54061334E-01	-8.35224672E+01
1.88700000E+09	 3.54048238E-01	-8.35492677E+01
1.88800000E+09	 3.53868914E-01	-8.35730592E+01
1.88900000E+09	 3.53801541E-01	-8.36001408E+01
1.89000000E+09	 3.53726300E-01	-8.36211893E+01
1.89100000E+09	 3.53704447E-01	-8.36369564E+01
1.89200000E+09	 3.53671618E-01	-8.36622985E+01
1.89300000E+09	 3.53467343E-01	-8.36902109E+01
1.89400000E+09	 3.53404257E-01	-8.37172371E+01
1.89500000E+09	 3.53304400E-01	-8.37412747E+01
1.89600000E+09	 3.53278757E-01	-8.37544732E+01
1.89700000E+09	 3.53210653E-01	-8.37803546E+01
1.89800000E+09	 3.53134282E-01	-8.38151077E+01
1.89900000E+09	 3.53073395E-01	-8.38448405E+01
1.90000000E+09	 3.52988570E-01	-8.38549975E+01
1.90100000E+09	 3.52925297E-01	-8.38886080E+01
1.90200000E+09	 3.52896898E-01	-8.39237766E+01
1.90300000E+09	 3.52882149E-01	-8.39569527E+01
1.90400000E+09	 3.52813522E-01	-8.39721712E+01
1.90500000E+09	 3.52786975E-01	-8.40206680E+01
1.90600000E+09	 3.52671709E-01	-8.40338221E+01
1.90700000E+09	 3.52756730E-01	-8.40664943E+01
1.90800000E+09	 3.52656907E-01	-8.40905543E+01
1.90900000E+09	 3.52683089E-01	-8.41171190E+01
1.91000000E+09	 3.52684441E-01	-8.41392794E+01
1.91100000E+09	 3.52701322E-01	-8.41853883E+01
1.91200000E+09	 3.52637987E-01	-8.41954201E+01
1.91300000E+09	 3.52677871E-01	-8.42351663E+01
1.91400000E+09	 3.52685699E-01	-8.42542644E+01
1.91500000E+09	 3.52692433E-01	-8.42916066E+01
1.91600000E+09	 3.52717598E-01	-8.43220144E+01
1.91700000E+09	 3.52688325E-01	-8.43454186E+01
1.91800000E+09	 3.52733972E-01	-8.43715925E+01
1.91900000E+09	 3.52749401E-01	-8.44037213E+01
1.92000000E+09	 3.52782650E-01	-8.44312245E+01
1.92100000E+09	 3.52757341E-01	-8.44448759E+01
1.92200000E+09	 3.52848732E-01	-8.44807536E+01
1.92300000E+09	 3.52820645E-01	-8.45043676E+01
1.92400000E+09	 3.52836634E-01	-8.45312174E+01
1.92500000E+09	 3.52905663E-01	-8.45521298E+01
1.92600000E+09	 3.52868865E-01	-8.45755574E+01
1.92700000E+09	 3.52928925E-01	-8.45995477E+01
1.92800000E+09	 3.53012688E-01	-8.46279808E+01
1.92900000E+09	 3.52992649E-01	-8.46508874E+01
1.93000000E+09	 3.52980495E-01	-8.46825494E+01
1.93100000E+09	 3.53144225E-01	-8.46865229E+01
1.93200000E+09	 3.53124179E-01	-8.47217196E+01
1.93300000E+09	 3.53240013E-01	-8.47392896E+01
1.93400000E+09	 3.53308764E-01	-8.47708469E+01
1.93500000E+09	 3.53341716E-01	-8.47844605E+01
1.93600000E+09	 3.53406949E-01	-8.48026631E+01
1.93700000E+09	 3.53492868E-01	-8.48338185E+01
1.93800000E+09	 3.53542768E-01	-8.48546395E+01
1.93900000E+09	 3.53628542E-01	-8.48727474E+01
1.94000000E+09	 3.53710173E-01	-8.48893156E+01
1.94100000E+09	 3.53743885E-01	-8.49056785E+01
1.94200000E+09	 3.53859609E-01	-8.49346633E+01
1.94300000E+09	 3.53853110E-01	-8.49535959E+01
1.94400000E+09	 3.54003664E-01	-8.49693238E+01
1.94500000E+09	 3.54113268E-01	-8.49917965E+01
1.94600000E+09	 3.54168084E-01	-8.50090004E+01
1.94700000E+09	 3.54261084E-01	-8.50235401E+01
1.94800000E+09	 3.54331833E-01	-8.50452081E+01
1.94900000E+09	 3.54412594E-01	-8.50640156E+01
1.95000000E+09	 3.54508030E-01	-8.50753524E+01
1.95100000E+09	 3.54601762E-01	-8.50886349E+01
1.95200000E+09	 3.54727024E-01	-8.51018170E+01
1.95300000E+09	 3.54782572E-01	-8.51107319E+01
1.95400000E+09	 3.54857784E-01	-8.51320766E+01
1.95500000E+09	 3.55063051E-01	-8.51458208E+01
1.95600000E+09	 3.55084821E-01	-8.51551595E+01
1.95700000E+09	 3.55162068E-01	-8.51569523E+01
1.95800000E+09	 3.55294631E-01	-8.51739364E+01
1.95900000E+09	 3.55315096E-01	-8.51767612E+01
1.96000000E+09	 3.55456618E-01	-8.51873427E+01
1.96100000E+09	 3.55488269E-01	-8.51969766E+01
1.96200000E+09	 3.55638035E-01	-8.52073555E+01
1.96300000E+09	 3.55742869E-01	-8.52130448E+01
1.96400000E+09	 3.55820922E-01	-8.52237802E+01
1.96500000E+09	 3.55910914E-01	-8.52306186E+01
1.96600000E+09	 3.56007584E-01	-8.52315588E+01
1.96700000E+09	 3.56078006E-01	-8.52306274E+01
1.96800000E+09	 3.56124819E-01	-8.52324660E+01
1.96900000E+09	 3.56170018E-01	-8.52379780E+01
1.97000000E+09	 3.56346036E-01	-8.52362159E+01
1.97100000E+09	 3.56443006E-01	-8.52425177E+01
1.97200000E+09	 3.56505880E-01	-8.52398596E+01
1.97300000E+09	 3.56558870E-01	-8.52385252E+01
1.97400000E+09	 3.56698030E-01	-8.52422990E+01
1.97500000E+09	 3.56773039E-01	-8.52373692E+01
1.97600000E+09	 3.56828932E-01	-8.52441370E+01
1.97700000E+09	 3.56902346E-01	-8.52400990E+01
1.97800000E+09	 3.56969141E-01	-8.52314286E+01
1.97900000E+09	 3.57015584E-01	-8.52365155E+01
1.98000000E+09	 3.57122443E-01	-8.52303588E+01
1.98100000E+09	 3.57127381E-01	-8.52255277E+01
1.98200000E+09	 3.57226146E-01	-8.52192120E+01
1.98300000E+09	 3.57371517E-01	-8.52177995E+01
1.98400000E+09	 3.57404764E-01	-8.52134143E+01
1.98500000E+09	 3.57471083E-01	-8.52091720E+01
1.98600000E+09	 3.57568555E-01	-8.52023162E+01
1.98700000E+09	 3.57640271E-01	-8.51943709E+01
1.98800000E+09	 3.57687839E-01	-8.51804345E+01
1.98900000E+09	 3.57738852E-01	-8.51618867E+01
1.99000000E+09	 3.57793605E-01	-8.51539017E+01
1.99100000E+09	 3.57910372E-01	-8.51562111E+01
1.99200000E+09	 3.57977176E-01	-8.51519270E+01
1.99300000E+09	 3.58081958E-01	-8.51336104E+01
1.99400000E+09	 3.58108702E-01	-8.51164771E+01
1.99500000E+09	 3.58157468E-01	-8.51076865E+01
1.99600000E+09	 3.58170485E-01	-8.50964682E+01
1.99700000E+09	 3.58319547E-01	-8.50847668E+01
1.99800000E+09	 3.58307063E-01	-8.50743984E+01
1.99900000E+09	 3.58394764E-01	-8.50571303E+01
2.00000000E+09	 3.58422792E-01	-8.50425956E+01
