! TOUCHSTONE file generated by CST MICROWAVE STUDIO
! Date and time: Sun Aug  2 21:42:27 2026
! Project name: Sonda-Coaxial_21mm_DisifixB_v2_Agua_Dest.cst
! Parameters = {h_recipiente=20; l_conector=5; r_arandela=35; r_ext=10.5; r_int=3; r_recipiente=50; z_recipiente=-50}
! Header version: 2018
! Port assignment regex: !\s*Touchstone port\s*([0-9]+)\s*=\s*(CST MWS port|CST DS port)\s*([0-9]+|Zmin|Zmax)\s*\(\"(.*)\"\)(\s*mode\s*([0-9]+))?.*
! Touchstone port assignment:
! Touchstone port 1 = CST MWS port 1 ("")
# GHz S RI R 50
0.001                   0.946664     -0.00277669
0.002                   0.946704     -0.00555061
0.003                    0.94677     -0.00831902
0.004                   0.946862      -0.0110793
0.005                   0.946978      -0.0138287
0.006                   0.947118       -0.016565
0.007                    0.94728      -0.0192858
0.008                   0.947463      -0.0219891
0.009                   0.947664      -0.0246728
0.01                    0.947883      -0.0273353
0.011                   0.948116      -0.0299751
0.012                   0.948362       -0.032591
0.013                    0.94862      -0.0351818
0.014                   0.948886      -0.0377468
0.015                   0.949159      -0.0402853
0.016                   0.949436       -0.042797
0.017                   0.949717      -0.0452815
0.018                   0.949997      -0.0477389
0.019                   0.950277      -0.0501693
0.02                    0.950553       -0.052573
0.021                   0.950825      -0.0549502
0.022                    0.95109      -0.0573016
0.023                   0.951348      -0.0596277
0.024                   0.951596      -0.0619292
0.025                   0.951835      -0.0642068
0.026                   0.952061      -0.0664614
0.027                   0.952275      -0.0686938
0.028                   0.952476      -0.0709048
0.029                   0.952662      -0.0730953
0.03                    0.952834      -0.0752662
0.031                    0.95299      -0.0774184
0.032                    0.95313      -0.0795527
0.033                   0.953253        -0.08167
0.034                    0.95336      -0.0837712
0.035                    0.95345       -0.085857
0.036                   0.953522      -0.0879283
0.037                   0.953577      -0.0899857
0.038                   0.953614      -0.0920301
0.039                   0.953633      -0.0940621
0.04                    0.953635      -0.0960824
0.041                   0.953619      -0.0980916
0.042                   0.953586        -0.10009
0.043                   0.953535       -0.102079
0.044                   0.953466       -0.104058
0.045                   0.953381       -0.106029
0.046                   0.953278       -0.107991
0.047                   0.953158       -0.109945
0.048                   0.953021       -0.111891
0.049                   0.952867        -0.11383
0.05                    0.952698       -0.115762
0.051                   0.952511       -0.117688
0.052                   0.952309       -0.119607
0.053                   0.952091        -0.12152
0.054                   0.951857       -0.123428
0.055                   0.951608        -0.12533
0.056                   0.951344       -0.127226
0.057                   0.951065       -0.129118
0.058                   0.950771       -0.131004
0.059                   0.950462       -0.132886
0.06                    0.950139       -0.134763
0.061                   0.949802       -0.136635
0.062                   0.949451       -0.138503
0.063                   0.949086       -0.140366
0.064                   0.948708       -0.142226
0.065                   0.948317       -0.144081
0.066                   0.947912       -0.145932
0.067                   0.947494       -0.147779
0.068                   0.947064       -0.149622
0.069                   0.946621       -0.151462
0.07                    0.946166       -0.153297
0.071                   0.945699       -0.155128
0.072                   0.945219       -0.156956
0.073                   0.944728        -0.15878
0.074                   0.944225         -0.1606
0.075                   0.943711       -0.162416
0.076                   0.943185       -0.164228
0.077                   0.942648       -0.166036
0.078                     0.9421       -0.167841
0.079                   0.941541       -0.169642
0.08                    0.940971       -0.171439
0.081                    0.94039       -0.173232
0.082                   0.939799       -0.175021
0.083                   0.939198       -0.176806
0.084                   0.938586       -0.178588
0.085                   0.937965       -0.180365
0.086                   0.937333       -0.182139
0.087                   0.936691       -0.183908
0.088                    0.93604       -0.185674
0.089                   0.935379       -0.187435
0.09                    0.934709       -0.189192
0.091                   0.934029       -0.190945
0.092                    0.93334       -0.192694
0.093                   0.932641       -0.194439
0.094                   0.931934       -0.196179
0.095                   0.931217       -0.197915
0.096                   0.930492       -0.199647
0.097                   0.929758       -0.201374
0.098                   0.929015       -0.203097
0.099                   0.928264       -0.204816
0.1                     0.927504        -0.20653
0.101                   0.926736       -0.208239
0.102                   0.925959       -0.209944
0.103                   0.925174       -0.211644
0.104                   0.924381        -0.21334
0.105                   0.923581       -0.215031
0.106                   0.922772       -0.216717
0.107                   0.921955       -0.218398
0.108                    0.92113       -0.220075
0.109                   0.920298       -0.221746
0.11                    0.919458       -0.223413
0.111                   0.918611       -0.225075
0.112                   0.917756       -0.226731
0.113                   0.916894       -0.228383
0.114                   0.916024        -0.23003
0.115                   0.915148       -0.231671
0.116                   0.914264       -0.233307
0.117                   0.913373       -0.234938
0.118                   0.912475       -0.236564
0.119                    0.91157       -0.238185
0.12                    0.910658         -0.2398
0.121                    0.90974        -0.24141
0.122                   0.908814       -0.243014
0.123                   0.907882       -0.244614
0.124                   0.906944       -0.246207
0.125                   0.905999       -0.247795
0.126                   0.905048       -0.249378
0.127                    0.90409       -0.250955
0.128                   0.903126       -0.252526
0.129                   0.902156       -0.254092
0.13                    0.901179       -0.255652
0.131                   0.900197       -0.257206
0.132                   0.899208       -0.258755
0.133                   0.898214       -0.260298
0.134                   0.897213       -0.261835
0.135                   0.896207       -0.263366
0.136                   0.895195       -0.264891
0.137                   0.894178        -0.26641
0.138                   0.893154       -0.267924
0.139                   0.892125       -0.269431
0.14                    0.891091       -0.270933
0.141                   0.890051       -0.272428
0.142                   0.889006       -0.273917
0.143                   0.887956       -0.275401
0.144                     0.8869       -0.276878
0.145                   0.885839       -0.278349
0.146                   0.884773       -0.279814
0.147                   0.883702       -0.281272
0.148                   0.882626       -0.282725
0.149                   0.881545       -0.284171
0.15                    0.880459       -0.285611
0.151                   0.879368       -0.287045
0.152                   0.878272       -0.288472
0.153                   0.877172       -0.289894
0.154                   0.876067       -0.291308
0.155                   0.874958       -0.292717
0.156                   0.873844       -0.294119
0.157                   0.872725       -0.295514
0.158                   0.871602       -0.296904
0.159                   0.870475       -0.298287
0.16                    0.869343       -0.299663
0.161                   0.868208       -0.301033
0.162                   0.867068       -0.302396
0.163                   0.865924       -0.303753
0.164                   0.864775       -0.305103
0.165                   0.863623       -0.306447
0.166                   0.862467       -0.307784
0.167                   0.861307       -0.309114
0.168                   0.860144       -0.310438
0.169                   0.858976       -0.311756
0.17                    0.857805       -0.313066
0.171                    0.85663        -0.31437
0.172                   0.855451       -0.315668
0.173                   0.854269       -0.316958
0.174                   0.853084       -0.318242
0.175                   0.851894        -0.31952
0.176                   0.850702       -0.320791
0.177                   0.849506       -0.322055
0.178                   0.848307       -0.323312
0.179                   0.847105       -0.324562
0.18                      0.8459       -0.325806
0.181                   0.844691       -0.327043
0.182                    0.84348       -0.328273
0.183                   0.842265       -0.329497
0.184                   0.841048       -0.330714
0.185                   0.839827       -0.331924
0.186                   0.838604       -0.333127
0.187                   0.837378       -0.334324
0.188                    0.83615       -0.335513
0.189                   0.834918       -0.336696
0.19                    0.833684       -0.337872
0.191                   0.832448       -0.339041
0.192                   0.831209       -0.340204
0.193                   0.829967        -0.34136
0.194                   0.828723       -0.342508
0.195                   0.827477        -0.34365
0.196                   0.826228       -0.344786
0.197                   0.824977       -0.345914
0.198                   0.823724       -0.347036
0.199                   0.822469        -0.34815
0.2                     0.821211       -0.349258
0.201                   0.819952       -0.350359
0.202                   0.818691       -0.351454
0.203                   0.817427       -0.352541
0.204                   0.816162       -0.353622
0.205                   0.814895       -0.354696
0.206                   0.813626       -0.355763
0.207                   0.812355       -0.356823
0.208                   0.811083       -0.357877
0.209                   0.809809       -0.358923
0.21                    0.808533       -0.359963
0.211                   0.807256       -0.360996
0.212                   0.805977       -0.362023
0.213                   0.804697       -0.363042
0.214                   0.803416       -0.364055
0.215                   0.802133       -0.365061
0.216                   0.800848        -0.36606
0.217                   0.799563       -0.367053
0.218                   0.798276       -0.368039
0.219                   0.796988       -0.369018
0.22                    0.795699        -0.36999
0.221                   0.794409       -0.370955
0.222                   0.793118       -0.371914
0.223                   0.791826       -0.372866
0.224                   0.790533       -0.373812
0.225                   0.789239       -0.374751
0.226                   0.787944       -0.375683
0.227                   0.786648       -0.376608
0.228                   0.785352       -0.377527
0.229                   0.784055       -0.378439
0.23                    0.782757       -0.379345
0.231                   0.781459       -0.380243
0.232                    0.78016       -0.381136
0.233                    0.77886       -0.382021
0.234                    0.77756         -0.3829
0.235                    0.77626       -0.383773
0.236                   0.774959       -0.384639
0.237                   0.773658       -0.385498
0.238                   0.772356       -0.386351
0.239                   0.771055       -0.387197
0.24                    0.769753       -0.388037
0.241                    0.76845       -0.388871
0.242                   0.767148       -0.389698
0.243                   0.765845       -0.390518
0.244                   0.764543       -0.391332
0.245                    0.76324        -0.39214
0.246                   0.761937       -0.392941
0.247                   0.760635       -0.393736
0.248                   0.759332       -0.394524
0.249                    0.75803       -0.395306
0.25                    0.756728       -0.396082
0.251                   0.755426       -0.396851
0.252                   0.754124       -0.397614
0.253                   0.752823       -0.398371
0.254                   0.751522       -0.399121
0.255                   0.750221       -0.399866
0.256                   0.748921       -0.400604
0.257                   0.747621       -0.401335
0.258                   0.746321       -0.402061
0.259                   0.745022        -0.40278
0.26                    0.743724       -0.403494
0.261                   0.742426       -0.404201
0.262                   0.741129       -0.404902
0.263                   0.739832       -0.405597
0.264                   0.738536       -0.406286
0.265                   0.737241       -0.406968
0.266                   0.735947       -0.407645
0.267                   0.734653       -0.408316
0.268                   0.733361       -0.408981
0.269                   0.732069       -0.409639
0.27                    0.730778       -0.410292
0.271                   0.729488       -0.410939
0.272                   0.728199        -0.41158
0.273                   0.726911       -0.412215
0.274                   0.725624       -0.412845
0.275                   0.724338       -0.413468
0.276                   0.723053       -0.414086
0.277                   0.721769       -0.414698
0.278                   0.720486       -0.415304
0.279                   0.719205       -0.415904
0.28                    0.717925       -0.416499
0.281                   0.716646       -0.417088
0.282                   0.715368       -0.417671
0.283                   0.714092       -0.418248
0.284                   0.712817        -0.41882
0.285                   0.711543       -0.419387
0.286                   0.710271       -0.419948
0.287                      0.709       -0.420503
0.288                   0.707731       -0.421053
0.289                   0.706463       -0.421597
0.29                    0.705197       -0.422136
0.291                   0.703932       -0.422669
0.292                   0.702669       -0.423197
0.293                   0.701407       -0.423719
0.294                   0.700147       -0.424236
0.295                   0.698889       -0.424748
0.296                   0.697632       -0.425255
0.297                   0.696378       -0.425756
0.298                   0.695124       -0.426252
0.299                   0.693873       -0.426742
0.3                     0.692623       -0.427228
0.301                   0.691375       -0.427708
0.302                   0.690129       -0.428183
0.303                   0.688885       -0.428653
0.304                   0.687643       -0.429118
0.305                   0.686402       -0.429578
0.306                   0.685164       -0.430033
0.307                   0.683928       -0.430482
0.308                   0.682693       -0.430927
0.309                   0.681461       -0.431367
0.31                     0.68023       -0.431802
0.311                   0.679002       -0.432232
0.312                   0.677775       -0.432657
0.313                   0.676551       -0.433077
0.314                   0.675329       -0.433492
0.315                   0.674109       -0.433902
0.316                   0.672891       -0.434308
0.317                   0.671675       -0.434709
0.318                   0.670461       -0.435105
0.319                    0.66925       -0.435497
0.32                    0.668041       -0.435884
0.321                   0.666834       -0.436266
0.322                   0.665629       -0.436644
0.323                   0.664427       -0.437017
0.324                   0.663227       -0.437385
0.325                   0.662029       -0.437749
0.326                   0.660834       -0.438109
0.327                   0.659641       -0.438464
0.328                    0.65845       -0.438814
0.329                   0.657262        -0.43916
0.33                    0.656076       -0.439502
0.331                   0.654893        -0.43984
0.332                   0.653712       -0.440173
0.333                   0.652533       -0.440501
0.334                   0.651358       -0.440826
0.335                   0.650184       -0.441146
0.336                   0.649013       -0.441462
0.337                   0.647844       -0.441774
0.338                   0.646678       -0.442082
0.339                   0.645515       -0.442385
0.34                    0.644354       -0.442685
0.341                   0.643196        -0.44298
0.342                    0.64204       -0.443272
0.343                   0.640887       -0.443559
0.344                   0.639737       -0.443843
0.345                   0.638589       -0.444122
0.346                   0.637444       -0.444397
0.347                   0.636301       -0.444669
0.348                   0.635161       -0.444937
0.349                   0.634024       -0.445201
0.35                    0.632889       -0.445461
0.351                   0.631758       -0.445717
0.352                   0.630629        -0.44597
0.353                   0.629502       -0.446219
0.354                   0.628379       -0.446464
0.355                   0.627258       -0.446705
0.356                   0.626139       -0.446943
0.357                   0.625024       -0.447177
0.358                   0.623912       -0.447408
0.359                   0.622802       -0.447635
0.36                    0.621695       -0.447858
0.361                    0.62059       -0.448078
0.362                   0.619489       -0.448295
0.363                   0.618391       -0.448508
0.364                   0.617295       -0.448718
0.365                   0.616202       -0.448924
0.366                   0.615112       -0.449127
0.367                   0.614024       -0.449327
0.368                    0.61294       -0.449523
0.369                   0.611858       -0.449716
0.37                     0.61078       -0.449906
0.371                   0.609704       -0.450092
0.372                   0.608631       -0.450276
0.373                   0.607561       -0.450456
0.374                   0.606494       -0.450633
0.375                    0.60543       -0.450807
0.376                   0.604369       -0.450978
0.377                    0.60331       -0.451146
0.378                   0.602255        -0.45131
0.379                   0.601202       -0.451472
0.38                    0.600152       -0.451631
0.381                   0.599106       -0.451787
0.382                   0.598062        -0.45194
0.383                   0.597021        -0.45209
0.384                   0.595983       -0.452237
0.385                   0.594948       -0.452381
0.386                   0.593916       -0.452523
0.387                   0.592887       -0.452662
0.388                   0.591861       -0.452798
0.389                   0.590838       -0.452931
0.39                    0.589818       -0.453062
0.391                   0.588801       -0.453189
0.392                   0.587786       -0.453315
0.393                   0.586775       -0.453437
0.394                   0.585767       -0.453557
0.395                   0.584761       -0.453675
0.396                   0.583759        -0.45379
0.397                    0.58276       -0.453902
0.398                   0.581763       -0.454012
0.399                    0.58077       -0.454119
0.4                     0.579779       -0.454224
0.401                   0.578792       -0.454327
0.402                   0.577807       -0.454427
0.403                   0.576825       -0.454524
0.404                   0.575847        -0.45462
0.405                   0.574871       -0.454713
0.406                   0.573899       -0.454804
0.407                   0.572929       -0.454892
0.408                   0.571962       -0.454978
0.409                   0.570998       -0.455062
0.41                    0.570038       -0.455144
0.411                    0.56908       -0.455224
0.412                   0.568125       -0.455301
0.413                   0.567173       -0.455377
0.414                   0.566224        -0.45545
0.415                   0.565278       -0.455521
0.416                   0.564335        -0.45559
0.417                   0.563395       -0.455657
0.418                   0.562458       -0.455722
0.419                   0.561524       -0.455785
0.42                    0.560593       -0.455847
0.421                   0.559665       -0.455906
0.422                   0.558739       -0.455963
0.423                   0.557817       -0.456018
0.424                   0.556897       -0.456072
0.425                   0.555981       -0.456124
0.426                   0.555067       -0.456173
0.427                   0.554157       -0.456221
0.428                   0.553249       -0.456268
0.429                   0.552344       -0.456312
0.43                    0.551442       -0.456355
0.431                   0.550543       -0.456396
0.432                   0.549647       -0.456435
0.433                   0.548754       -0.456473
0.434                   0.547864       -0.456509
0.435                   0.546976       -0.456544
0.436                   0.546092       -0.456576
0.437                    0.54521       -0.456608
0.438                   0.544331       -0.456637
0.439                   0.543455       -0.456665
0.44                    0.542582       -0.456692
0.441                   0.541712       -0.456717
0.442                   0.540845       -0.456741
0.443                    0.53998       -0.456763
0.444                   0.539119       -0.456784
0.445                    0.53826       -0.456803
0.446                   0.537404       -0.456821
0.447                   0.536551       -0.456837
0.448                     0.5357       -0.456852
0.449                   0.534853       -0.456866
0.45                    0.534008       -0.456879
0.451                   0.533166        -0.45689
0.452                   0.532327         -0.4569
0.453                    0.53149       -0.456908
0.454                   0.530657       -0.456916
0.455                   0.529826       -0.456922
0.456                   0.528998       -0.456927
0.457                   0.528173       -0.456931
0.458                    0.52735       -0.456933
0.459                    0.52653       -0.456935
0.46                    0.525713       -0.456935
0.461                   0.524899       -0.456934
0.462                   0.524087       -0.456932
0.463                   0.523278       -0.456929
0.464                   0.522472       -0.456925
0.465                   0.521668        -0.45692
0.466                   0.520867       -0.456914
0.467                   0.520069       -0.456907
0.468                   0.519273       -0.456899
0.469                    0.51848        -0.45689
0.47                     0.51769        -0.45688
0.471                   0.516902       -0.456869
0.472                   0.516117       -0.456857
0.473                   0.515335       -0.456844
0.474                   0.514555        -0.45683
0.475                   0.513778       -0.456815
0.476                   0.513003         -0.4568
0.477                   0.512231       -0.456784
0.478                   0.511462       -0.456767
0.479                   0.510695       -0.456749
0.48                    0.509931        -0.45673
0.481                   0.509169        -0.45671
0.482                    0.50841        -0.45669
0.483                   0.507653       -0.456669
0.484                   0.506899       -0.456647
0.485                   0.506147       -0.456624
0.486                   0.505398       -0.456601
0.487                   0.504652       -0.456577
0.488                   0.503908       -0.456553
0.489                   0.503166       -0.456527
0.49                    0.502427       -0.456501
0.491                    0.50169       -0.456475
0.492                   0.500956       -0.456448
0.493                   0.500224        -0.45642
0.494                   0.499494       -0.456391
0.495                   0.498767       -0.456362
0.496                   0.498043       -0.456333
0.497                    0.49732       -0.456302
0.498                   0.496601       -0.456272
0.499                   0.495883        -0.45624
0.5                     0.495168       -0.456209
0.501                   0.494455       -0.456176
0.502                   0.493745       -0.456144
0.503                   0.493037        -0.45611
0.504                   0.492331       -0.456077
0.505                   0.491628       -0.456043
0.506                   0.490927       -0.456008
0.507                   0.490228       -0.455973
0.508                   0.489531       -0.455937
0.509                   0.488837       -0.455902
0.51                    0.488145       -0.455865
0.511                   0.487455       -0.455829
0.512                   0.486768       -0.455792
0.513                   0.486082       -0.455754
0.514                   0.485399       -0.455716
0.515                   0.484719       -0.455678
0.516                    0.48404        -0.45564
0.517                   0.483363       -0.455601
0.518                   0.482689       -0.455562
0.519                   0.482017       -0.455522
0.52                    0.481347       -0.455483
0.521                   0.480679       -0.455443
0.522                   0.480014       -0.455403
0.523                    0.47935       -0.455362
0.524                   0.478689       -0.455321
0.525                    0.47803        -0.45528
0.526                   0.477372       -0.455239
0.527                   0.476717       -0.455198
0.528                   0.476064       -0.455156
0.529                   0.475413       -0.455114
0.53                    0.474764       -0.455072
0.531                   0.474117        -0.45503
0.532                   0.473473       -0.454987
0.533                    0.47283       -0.454945
0.534                   0.472189       -0.454902
0.535                    0.47155       -0.454859
0.536                   0.470913       -0.454816
0.537                   0.470278       -0.454773
0.538                   0.469646       -0.454729
0.539                   0.469015       -0.454686
0.54                    0.468386       -0.454642
0.541                   0.467759       -0.454599
0.542                   0.467134       -0.454555
0.543                    0.46651       -0.454511
0.544                   0.465889       -0.454467
0.545                    0.46527       -0.454423
0.546                   0.464652       -0.454379
0.547                   0.464037       -0.454335
0.548                   0.463423        -0.45429
0.549                   0.462811       -0.454246
0.55                    0.462201       -0.454202
0.551                   0.461593       -0.454157
0.552                   0.460986       -0.454113
0.553                   0.460381       -0.454069
0.554                   0.459779       -0.454024
0.555                   0.459178        -0.45398
0.556                   0.458578       -0.453935
0.557                   0.457981       -0.453891
0.558                   0.457385       -0.453846
0.559                   0.456791       -0.453802
0.56                    0.456199       -0.453758
0.561                   0.455609       -0.453713
0.562                    0.45502       -0.453669
0.563                   0.454433       -0.453625
0.564                   0.453847        -0.45358
0.565                   0.453264       -0.453536
0.566                   0.452681       -0.453492
0.567                   0.452101       -0.453448
0.568                   0.451523       -0.453404
0.569                   0.450946        -0.45336
0.57                     0.45037       -0.453316
0.571                   0.449796       -0.453272
0.572                   0.449224       -0.453228
0.573                   0.448653       -0.453185
0.574                   0.448085       -0.453141
0.575                   0.447517       -0.453098
0.576                   0.446951       -0.453054
0.577                   0.446387       -0.453011
0.578                   0.445824       -0.452968
0.579                   0.445263       -0.452925
0.58                    0.444704       -0.452882
0.581                   0.444146       -0.452839
0.582                   0.443589       -0.452796
0.583                   0.443034       -0.452754
0.584                   0.442481       -0.452711
0.585                   0.441929       -0.452669
0.586                   0.441378       -0.452627
0.587                   0.440829       -0.452585
0.588                   0.440281       -0.452543
0.589                   0.439735       -0.452501
0.59                     0.43919       -0.452459
0.591                   0.438647       -0.452418
0.592                   0.438105       -0.452377
0.593                   0.437565       -0.452335
0.594                   0.437026       -0.452294
0.595                   0.436488       -0.452254
0.596                   0.435952       -0.452213
0.597                   0.435417       -0.452172
0.598                   0.434883       -0.452132
0.599                   0.434351       -0.452092
0.6                     0.433821       -0.452052
0.601                   0.433291       -0.452012
0.602                   0.432763       -0.451973
0.603                   0.432236       -0.451933
0.604                   0.431711       -0.451894
0.605                   0.431186       -0.451855
0.606                   0.430664       -0.451816
0.607                   0.430142       -0.451777
0.608                   0.429622       -0.451739
0.609                   0.429103         -0.4517
0.61                    0.428585       -0.451662
0.611                   0.428068       -0.451624
0.612                   0.427553       -0.451586
0.613                   0.427039       -0.451549
0.614                   0.426526       -0.451511
0.615                   0.426015       -0.451474
0.616                   0.425505       -0.451437
0.617                   0.424995       -0.451401
0.618                   0.424488       -0.451364
0.619                   0.423981       -0.451328
0.62                    0.423475       -0.451291
0.621                   0.422971       -0.451256
0.622                   0.422468        -0.45122
0.623                   0.421966       -0.451184
0.624                   0.421465       -0.451149
0.625                   0.420965       -0.451114
0.626                   0.420466       -0.451079
0.627                   0.419969       -0.451044
0.628                   0.419472        -0.45101
0.629                   0.418977       -0.450976
0.63                    0.418483       -0.450942
0.631                    0.41799       -0.450908
0.632                   0.417498       -0.450874
0.633                   0.417007       -0.450841
0.634                   0.416517       -0.450808
0.635                   0.416029       -0.450775
0.636                   0.415541       -0.450742
0.637                   0.415054       -0.450709
0.638                   0.414569       -0.450677
0.639                   0.414084       -0.450645
0.64                    0.413601       -0.450613
0.641                   0.413119       -0.450581
0.642                   0.412637        -0.45055
0.643                   0.412157       -0.450519
0.644                   0.411677       -0.450488
0.645                   0.411199       -0.450457
0.646                   0.410721       -0.450426
0.647                   0.410245       -0.450396
0.648                   0.409769       -0.450366
0.649                   0.409295       -0.450335
0.65                    0.408822       -0.450306
0.651                   0.408349       -0.450276
0.652                   0.407878       -0.450247
0.653                   0.407407       -0.450218
0.654                   0.406937       -0.450189
0.655                   0.406468        -0.45016
0.656                      0.406       -0.450132
0.657                   0.405534       -0.450103
0.658                   0.405068       -0.450075
0.659                   0.404603       -0.450047
0.66                    0.404139        -0.45002
0.661                   0.403675       -0.449992
0.662                   0.403213       -0.449965
0.663                   0.402751       -0.449938
0.664                   0.402291       -0.449911
0.665                   0.401831       -0.449885
0.666                   0.401372       -0.449858
0.667                   0.400914       -0.449832
0.668                   0.400457       -0.449806
0.669                   0.400001        -0.44978
0.67                    0.399545       -0.449754
0.671                   0.399091       -0.449729
0.672                   0.398637       -0.449704
0.673                   0.398184       -0.449679
0.674                   0.397732       -0.449654
0.675                   0.397281       -0.449629
0.676                    0.39683       -0.449605
0.677                   0.396381        -0.44958
0.678                   0.395932       -0.449556
0.679                   0.395484       -0.449533
0.68                    0.395037       -0.449509
0.681                    0.39459       -0.449485
0.682                   0.394145       -0.449462
0.683                     0.3937       -0.449439
0.684                   0.393256       -0.449416
0.685                   0.392813       -0.449393
0.686                    0.39237        -0.44937
0.687                   0.391928       -0.449348
0.688                   0.391487       -0.449326
0.689                   0.391047       -0.449304
0.69                    0.390608       -0.449282
0.691                   0.390169        -0.44926
0.692                   0.389731       -0.449238
0.693                   0.389294       -0.449217
0.694                   0.388857       -0.449196
0.695                   0.388421       -0.449175
0.696                   0.387986       -0.449154
0.697                   0.387552       -0.449133
0.698                   0.387118       -0.449113
0.699                   0.386685       -0.449092
0.7                     0.386253       -0.449072
0.701                   0.385822       -0.449052
0.702                   0.385391       -0.449032
0.703                   0.384961       -0.449012
0.704                   0.384532       -0.448993
0.705                   0.384103       -0.448973
0.706                   0.383675       -0.448954
0.707                   0.383247       -0.448935
0.708                   0.382821       -0.448916
0.709                   0.382395       -0.448897
0.71                     0.38197       -0.448879
0.711                   0.381545        -0.44886
0.712                   0.381121       -0.448842
0.713                   0.380698       -0.448823
0.714                   0.380275       -0.448805
0.715                   0.379853       -0.448787
0.716                   0.379432       -0.448769
0.717                   0.379011       -0.448752
0.718                   0.378591       -0.448734
0.719                   0.378171       -0.448717
0.72                    0.377753       -0.448699
0.721                   0.377335       -0.448682
0.722                   0.376917       -0.448665
0.723                     0.3765       -0.448648
0.724                   0.376084       -0.448631
0.725                   0.375668       -0.448615
0.726                   0.375253       -0.448598
0.727                   0.374839       -0.448582
0.728                   0.374425       -0.448566
0.729                   0.374012       -0.448549
0.73                      0.3736       -0.448533
0.731                   0.373188       -0.448517
0.732                   0.372777       -0.448501
0.733                   0.372366       -0.448486
0.734                   0.371956        -0.44847
0.735                   0.371546       -0.448455
0.736                   0.371137       -0.448439
0.737                   0.370729       -0.448424
0.738                   0.370321       -0.448409
0.739                   0.369914       -0.448394
0.74                    0.369508       -0.448379
0.741                   0.369102       -0.448364
0.742                   0.368696       -0.448349
0.743                   0.368292       -0.448334
0.744                   0.367887        -0.44832
0.745                   0.367484       -0.448305
0.746                   0.367081       -0.448291
0.747                   0.366678       -0.448276
0.748                   0.366276       -0.448262
0.749                   0.365875       -0.448248
0.75                    0.365474       -0.448234
0.751                   0.365074        -0.44822
0.752                   0.364674       -0.448206
0.753                   0.364275       -0.448192
0.754                   0.363877       -0.448179
0.755                   0.363479       -0.448165
0.756                   0.363081       -0.448151
0.757                   0.362684       -0.448138
0.758                   0.362288       -0.448125
0.759                   0.361892       -0.448111
0.76                    0.361497       -0.448098
0.761                   0.361102       -0.448085
0.762                   0.360708       -0.448072
0.763                   0.360315       -0.448059
0.764                   0.359922       -0.448046
0.765                   0.359529       -0.448033
0.766                   0.359137        -0.44802
0.767                   0.358746       -0.448007
0.768                   0.358355       -0.447995
0.769                   0.357965       -0.447982
0.77                    0.357575       -0.447969
0.771                   0.357185       -0.447957
0.772                   0.356797       -0.447944
0.773                   0.356408       -0.447932
0.774                   0.356021        -0.44792
0.775                   0.355633       -0.447908
0.776                   0.355247       -0.447895
0.777                   0.354861       -0.447883
0.778                   0.354475       -0.447871
0.779                    0.35409       -0.447859
0.78                    0.353705       -0.447847
0.781                   0.353321       -0.447835
0.782                   0.352938       -0.447823
0.783                   0.352555       -0.447812
0.784                   0.352172         -0.4478
0.785                    0.35179       -0.447788
0.786                   0.351409       -0.447776
0.787                   0.351028       -0.447765
0.788                   0.350647       -0.447753
0.789                   0.350267       -0.447742
0.79                    0.349888        -0.44773
0.791                   0.349509       -0.447719
0.792                    0.34913       -0.447707
0.793                   0.348752       -0.447696
0.794                   0.348375       -0.447685
0.795                   0.347998       -0.447673
0.796                   0.347622       -0.447662
0.797                   0.347246       -0.447651
0.798                    0.34687        -0.44764
0.799                   0.346496       -0.447629
0.8                     0.346121       -0.447617
0.801                   0.345747       -0.447606
0.802                   0.345374       -0.447595
0.803                   0.345001       -0.447584
0.804                   0.344628       -0.447573
0.805                   0.344257       -0.447563
0.806                   0.343885       -0.447552
0.807                   0.343514       -0.447541
0.808                   0.343144        -0.44753
0.809                   0.342774       -0.447519
0.81                    0.342404       -0.447508
0.811                   0.342035       -0.447498
0.812                   0.341667       -0.447487
0.813                   0.341299       -0.447476
0.814                   0.340932       -0.447466
0.815                   0.340565       -0.447455
0.816                   0.340198       -0.447445
0.817                   0.339832       -0.447434
0.818                   0.339466       -0.447424
0.819                   0.339102       -0.447413
0.82                    0.338737       -0.447403
0.821                   0.338373       -0.447392
0.822                   0.338009       -0.447382
0.823                   0.337646       -0.447372
0.824                   0.337284       -0.447361
0.825                   0.336922       -0.447351
0.826                    0.33656       -0.447341
0.827                   0.336199        -0.44733
0.828                   0.335838        -0.44732
0.829                   0.335478        -0.44731
0.83                    0.335118         -0.4473
0.831                   0.334759        -0.44729
0.832                     0.3344        -0.44728
0.833                   0.334042       -0.447269
0.834                   0.333684       -0.447259
0.835                   0.333327       -0.447249
0.836                    0.33297       -0.447239
0.837                   0.332614       -0.447229
0.838                   0.332258       -0.447219
0.839                   0.331902       -0.447209
0.84                    0.331547         -0.4472
0.841                   0.331193        -0.44719
0.842                   0.330839        -0.44718
0.843                   0.330486        -0.44717
0.844                   0.330133        -0.44716
0.845                    0.32978        -0.44715
0.846                   0.329428       -0.447141
0.847                   0.329077       -0.447131
0.848                   0.328725       -0.447121
0.849                   0.328375       -0.447112
0.85                    0.328025       -0.447102
0.851                   0.327675       -0.447092
0.852                   0.327326       -0.447083
0.853                   0.326977       -0.447073
0.854                   0.326629       -0.447064
0.855                   0.326281       -0.447054
0.856                   0.325934       -0.447045
0.857                   0.325587       -0.447035
0.858                    0.32524       -0.447026
0.859                   0.324894       -0.447017
0.86                    0.324549       -0.447007
0.861                   0.324204       -0.446998
0.862                    0.32386       -0.446989
0.863                   0.323516        -0.44698
0.864                   0.323172        -0.44697
0.865                   0.322829       -0.446961
0.866                   0.322486       -0.446952
0.867                   0.322144       -0.446943
0.868                   0.321802       -0.446934
0.869                   0.321461       -0.446925
0.87                    0.321121       -0.446916
0.871                    0.32078       -0.446907
0.872                    0.32044       -0.446898
0.873                   0.320101       -0.446889
0.874                   0.319762        -0.44688
0.875                   0.319424       -0.446871
0.876                   0.319086       -0.446863
0.877                   0.318748       -0.446854
0.878                   0.318411       -0.446845
0.879                   0.318075       -0.446837
0.88                    0.317738       -0.446828
0.881                   0.317403        -0.44682
0.882                   0.317068       -0.446811
0.883                   0.316733       -0.446803
0.884                   0.316399       -0.446794
0.885                   0.316065       -0.446786
0.886                   0.315731       -0.446777
0.887                   0.315398       -0.446769
0.888                   0.315066       -0.446761
0.889                   0.314734       -0.446753
0.89                    0.314403       -0.446745
0.891                   0.314071       -0.446737
0.892                   0.313741       -0.446728
0.893                   0.313411       -0.446721
0.894                   0.313081       -0.446713
0.895                   0.312752       -0.446705
0.896                   0.312423       -0.446697
0.897                   0.312095       -0.446689
0.898                   0.311767       -0.446681
0.899                   0.311439       -0.446674
0.9                     0.311112       -0.446666
0.901                   0.310786       -0.446659
0.902                    0.31046       -0.446651
0.903                   0.310134       -0.446644
0.904                   0.309809       -0.446636
0.905                   0.309484       -0.446629
0.906                    0.30916       -0.446622
0.907                   0.308836       -0.446615
0.908                   0.308513       -0.446608
0.909                   0.308189         -0.4466
0.91                    0.307867       -0.446594
0.911                   0.307545       -0.446587
0.912                   0.307223        -0.44658
0.913                   0.306902       -0.446573
0.914                   0.306581       -0.446566
0.915                   0.306261        -0.44656
0.916                   0.305941       -0.446553
0.917                   0.305622       -0.446547
0.918                   0.305303        -0.44654
0.919                   0.304984       -0.446534
0.92                    0.304666       -0.446528
0.921                   0.304349       -0.446522
0.922                   0.304031       -0.446515
0.923                   0.303715       -0.446509
0.924                   0.303398       -0.446503
0.925                   0.303082       -0.446498
0.926                   0.302767       -0.446492
0.927                   0.302452       -0.446486
0.928                   0.302137       -0.446481
0.929                   0.301823       -0.446475
0.93                    0.301509        -0.44647
0.931                   0.301196       -0.446464
0.932                   0.300883       -0.446459
0.933                    0.30057       -0.446454
0.934                   0.300258       -0.446449
0.935                   0.299947       -0.446444
0.936                   0.299636       -0.446439
0.937                   0.299325       -0.446434
0.938                   0.299014        -0.44643
0.939                   0.298705       -0.446425
0.94                    0.298395        -0.44642
0.941                   0.298086       -0.446416
0.942                   0.297777       -0.446412
0.943                   0.297469       -0.446408
0.944                   0.297161       -0.446404
0.945                   0.296854         -0.4464
0.946                   0.296547       -0.446396
0.947                    0.29624       -0.446392
0.948                   0.295934       -0.446388
0.949                   0.295628       -0.446385
0.95                    0.295323       -0.446381
0.951                   0.295018       -0.446378
0.952                   0.294713       -0.446375
0.953                   0.294409       -0.446372
0.954                   0.294105       -0.446369
0.955                   0.293802       -0.446366
0.956                   0.293499       -0.446363
0.957                   0.293196        -0.44636
0.958                   0.292894       -0.446358
0.959                   0.292593       -0.446355
0.96                    0.292291       -0.446353
0.961                    0.29199       -0.446351
0.962                    0.29169       -0.446349
0.963                    0.29139       -0.446347
0.964                    0.29109       -0.446345
0.965                   0.290791       -0.446343
0.966                   0.290492       -0.446342
0.967                   0.290193        -0.44634
0.968                   0.289895       -0.446339
0.969                   0.289597       -0.446338
0.97                      0.2893       -0.446337
0.971                   0.289003       -0.446336
0.972                   0.288706       -0.446335
0.973                    0.28841       -0.446335
0.974                   0.288114       -0.446334
0.975                   0.287818       -0.446334
0.976                   0.287523       -0.446334
0.977                   0.287228       -0.446334
0.978                   0.286934       -0.446334
0.979                    0.28664       -0.446334
0.98                    0.286346       -0.446334
0.981                   0.286053       -0.446335
0.982                    0.28576       -0.446335
0.983                   0.285468       -0.446336
0.984                   0.285175       -0.446337
0.985                   0.284884       -0.446338
0.986                   0.284592       -0.446339
0.987                   0.284301       -0.446341
0.988                    0.28401       -0.446342
0.989                    0.28372       -0.446344
0.99                     0.28343       -0.446345
0.991                    0.28314       -0.446347
0.992                   0.282851        -0.44635
0.993                   0.282562       -0.446352
0.994                   0.282274       -0.446354
0.995                   0.281985       -0.446357
0.996                   0.281698        -0.44636
0.997                    0.28141       -0.446363
0.998                   0.281123       -0.446366
0.999                   0.280836       -0.446369
1                       0.280549       -0.446372
1.001                   0.280263       -0.446376
1.002                   0.279977       -0.446379
1.003                   0.279692       -0.446383
1.004                   0.279407       -0.446387
1.005                   0.279122       -0.446392
1.006                   0.278837       -0.446396
1.007                   0.278553         -0.4464
1.008                   0.278269       -0.446405
1.009                   0.277986        -0.44641
1.01                    0.277703       -0.446415
1.011                    0.27742        -0.44642
1.012                   0.277137       -0.446426
1.013                   0.276855       -0.446431
1.014                   0.276573       -0.446437
1.015                   0.276291       -0.446443
1.016                    0.27601       -0.446449
1.017                   0.275729       -0.446455
1.018                   0.275448       -0.446462
1.019                   0.275168       -0.446468
1.02                    0.274888       -0.446475
1.021                   0.274608       -0.446482
1.022                   0.274329       -0.446489
1.023                    0.27405       -0.446496
1.024                   0.273771       -0.446504
1.025                   0.273492       -0.446512
1.026                   0.273214       -0.446519
1.027                   0.272936       -0.446527
1.028                   0.272658       -0.446536
1.029                   0.272381       -0.446544
1.03                    0.272104       -0.446553
1.031                   0.271827       -0.446561
1.032                   0.271551        -0.44657
1.033                   0.271274       -0.446579
1.034                   0.270998       -0.446589
1.035                   0.270723       -0.446598
1.036                   0.270447       -0.446608
1.037                   0.270172       -0.446618
1.038                   0.269897       -0.446628
1.039                   0.269623       -0.446638
1.04                    0.269348       -0.446649
1.041                   0.269074       -0.446659
1.042                     0.2688        -0.44667
1.043                   0.268527       -0.446681
1.044                   0.268254       -0.446692
1.045                   0.267981       -0.446704
1.046                   0.267708       -0.446715
1.047                   0.267435       -0.446727
1.048                   0.267163       -0.446739
1.049                   0.266891       -0.446751
1.05                    0.266619       -0.446764
1.051                   0.266348       -0.446776
1.052                   0.266077       -0.446789
1.053                   0.265806       -0.446802
1.054                   0.265535       -0.446815
1.055                   0.265264       -0.446828
1.056                   0.264994       -0.446842
1.057                   0.264724       -0.446856
1.058                   0.264454        -0.44687
1.059                   0.264185       -0.446884
1.06                    0.263915       -0.446898
1.061                   0.263646       -0.446912
1.062                   0.263377       -0.446927
1.063                   0.263109       -0.446942
1.064                    0.26284       -0.446957
1.065                   0.262572       -0.446972
1.066                   0.262304       -0.446988
1.067                   0.262036       -0.447004
1.068                   0.261768       -0.447019
1.069                   0.261501       -0.447036
1.07                    0.261234       -0.447052
1.071                   0.260967       -0.447068
1.072                     0.2607       -0.447085
1.073                   0.260433       -0.447102
1.074                   0.260167       -0.447119
1.075                   0.259901       -0.447136
1.076                   0.259635       -0.447154
1.077                   0.259369       -0.447171
1.078                   0.259104       -0.447189
1.079                   0.258838       -0.447207
1.08                    0.258573       -0.447225
1.081                   0.258308       -0.447244
1.082                   0.258043       -0.447262
1.083                   0.257779       -0.447281
1.084                   0.257514         -0.4473
1.085                    0.25725       -0.447319
1.086                   0.256986       -0.447339
1.087                   0.256722       -0.447358
1.088                   0.256458       -0.447378
1.089                   0.256194       -0.447398
1.09                    0.255931       -0.447418
1.091                   0.255668       -0.447439
1.092                   0.255405       -0.447459
1.093                   0.255142        -0.44748
1.094                   0.254879       -0.447501
1.095                   0.254616       -0.447522
1.096                   0.254354       -0.447544
1.097                   0.254092       -0.447565
1.098                   0.253829       -0.447587
1.099                   0.253567       -0.447609
1.1                     0.253305       -0.447631
1.101                   0.253044       -0.447653
1.102                   0.252782       -0.447676
1.103                   0.252521       -0.447699
1.104                   0.252259       -0.447721
1.105                   0.251998       -0.447745
1.106                   0.251737       -0.447768
1.107                   0.251477       -0.447791
1.108                   0.251216       -0.447815
1.109                   0.250955       -0.447839
1.11                    0.250695       -0.447863
1.111                   0.250434       -0.447887
1.112                   0.250174       -0.447911
1.113                   0.249914       -0.447936
1.114                   0.249654       -0.447961
1.115                   0.249394       -0.447986
1.116                   0.249134       -0.448011
1.117                   0.248875       -0.448036
1.118                   0.248615       -0.448062
1.119                   0.248356       -0.448087
1.12                    0.248097       -0.448113
1.121                   0.247838       -0.448139
1.122                   0.247578       -0.448165
1.123                    0.24732       -0.448192
1.124                   0.247061       -0.448218
1.125                   0.246802       -0.448245
1.126                   0.246543       -0.448272
1.127                   0.246285       -0.448299
1.128                   0.246026       -0.448327
1.129                   0.245768       -0.448354
1.13                     0.24551       -0.448382
1.131                   0.245251       -0.448409
1.132                   0.244993       -0.448437
1.133                   0.244735       -0.448466
1.134                   0.244477       -0.448494
1.135                    0.24422       -0.448522
1.136                   0.243962       -0.448551
1.137                   0.243704        -0.44858
1.138                   0.243446       -0.448609
1.139                   0.243189       -0.448638
1.14                    0.242931       -0.448667
1.141                   0.242674       -0.448697
1.142                   0.242417       -0.448727
1.143                   0.242159       -0.448756
1.144                   0.241902       -0.448786
1.145                   0.241645       -0.448817
1.146                   0.241388       -0.448847
1.147                   0.241131       -0.448877
1.148                   0.240874       -0.448908
1.149                   0.240617       -0.448939
1.15                    0.240361        -0.44897
1.151                   0.240104       -0.449001
1.152                   0.239847       -0.449032
1.153                   0.239591       -0.449063
1.154                   0.239334       -0.449095
1.155                   0.239077       -0.449127
1.156                   0.238821       -0.449158
1.157                   0.238565        -0.44919
1.158                   0.238308       -0.449223
1.159                   0.238052       -0.449255
1.16                    0.237796       -0.449287
1.161                   0.237539        -0.44932
1.162                   0.237283       -0.449353
1.163                   0.237027       -0.449385
1.164                   0.236771       -0.449419
1.165                   0.236515       -0.449452
1.166                   0.236259       -0.449485
1.167                   0.236002       -0.449518
1.168                   0.235746       -0.449552
1.169                    0.23549       -0.449586
1.17                    0.235234       -0.449619
1.171                   0.234979       -0.449653
1.172                   0.234723       -0.449687
1.173                   0.234467       -0.449722
1.174                   0.234211       -0.449756
1.175                   0.233955        -0.44979
1.176                   0.233699       -0.449825
1.177                   0.233444        -0.44986
1.178                   0.233188       -0.449894
1.179                   0.232932       -0.449929
1.18                    0.232676       -0.449964
1.181                   0.232421           -0.45
1.182                   0.232165       -0.450035
1.183                   0.231909        -0.45007
1.184                   0.231654       -0.450106
1.185                   0.231398       -0.450142
1.186                   0.231142       -0.450177
1.187                   0.230886       -0.450213
1.188                   0.230631       -0.450249
1.189                   0.230375       -0.450285
1.19                    0.230119       -0.450322
1.191                   0.229864       -0.450358
1.192                   0.229608       -0.450394
1.193                   0.229353       -0.450431
1.194                   0.229097       -0.450467
1.195                   0.228842       -0.450504
1.196                   0.228586       -0.450541
1.197                    0.22833       -0.450578
1.198                   0.228075       -0.450615
1.199                   0.227819       -0.450652
1.2                     0.227563       -0.450689
1.201                   0.227308       -0.450726
1.202                   0.227052       -0.450764
1.203                   0.226796       -0.450801
1.204                   0.226541       -0.450839
1.205                   0.226285       -0.450876
1.206                   0.226029       -0.450914
1.207                   0.225774       -0.450952
1.208                   0.225518       -0.450989
1.209                   0.225262       -0.451027
1.21                    0.225006       -0.451065
1.211                   0.224751       -0.451104
1.212                   0.224495       -0.451142
1.213                   0.224239        -0.45118
1.214                   0.223983       -0.451218
1.215                   0.223727       -0.451257
1.216                   0.223471       -0.451295
1.217                   0.223216       -0.451333
1.218                    0.22296       -0.451372
1.219                   0.222704       -0.451411
1.22                    0.222448       -0.451449
1.221                   0.222192       -0.451488
1.222                   0.221936       -0.451527
1.223                    0.22168       -0.451566
1.224                   0.221424       -0.451605
1.225                   0.221168       -0.451644
1.226                   0.220912       -0.451683
1.227                   0.220656       -0.451722
1.228                     0.2204       -0.451761
1.229                   0.220144         -0.4518
1.23                    0.219887        -0.45184
1.231                   0.219631       -0.451879
1.232                   0.219375       -0.451918
1.233                   0.219119       -0.451957
1.234                   0.218863       -0.451997
1.235                   0.218606       -0.452036
1.236                    0.21835       -0.452076
1.237                   0.218094       -0.452115
1.238                   0.217837       -0.452155
1.239                   0.217581       -0.452194
1.24                    0.217324       -0.452234
1.241                   0.217068       -0.452274
1.242                   0.216811       -0.452313
1.243                   0.216555       -0.452353
1.244                   0.216298       -0.452393
1.245                   0.216042       -0.452433
1.246                   0.215785       -0.452472
1.247                   0.215529       -0.452512
1.248                   0.215272       -0.452552
1.249                   0.215015       -0.452592
1.25                    0.214759       -0.452632
1.251                   0.214502       -0.452672
1.252                   0.214245       -0.452712
1.253                   0.213988       -0.452751
1.254                   0.213731       -0.452791
1.255                   0.213475       -0.452831
1.256                   0.213217       -0.452871
1.257                    0.21296       -0.452911
1.258                   0.212703       -0.452951
1.259                   0.212446       -0.452991
1.26                    0.212189       -0.453031
1.261                   0.211932       -0.453071
1.262                   0.211675       -0.453111
1.263                   0.211418       -0.453151
1.264                   0.211161       -0.453191
1.265                   0.210904       -0.453231
1.266                   0.210646        -0.45327
1.267                   0.210389        -0.45331
1.268                   0.210132        -0.45335
1.269                   0.209874        -0.45339
1.27                    0.209617        -0.45343
1.271                    0.20936        -0.45347
1.272                   0.209102        -0.45351
1.273                   0.208845        -0.45355
1.274                   0.208587       -0.453589
1.275                    0.20833       -0.453629
1.276                   0.208072       -0.453669
1.277                   0.207815       -0.453709
1.278                   0.207557       -0.453748
1.279                   0.207299       -0.453788
1.28                    0.207042       -0.453828
1.281                   0.206784       -0.453867
1.282                   0.206526       -0.453907
1.283                   0.206269       -0.453947
1.284                   0.206011       -0.453986
1.285                   0.205753       -0.454026
1.286                   0.205495       -0.454065
1.287                   0.205237       -0.454105
1.288                   0.204979       -0.454144
1.289                   0.204722       -0.454184
1.29                    0.204464       -0.454223
1.291                   0.204206       -0.454262
1.292                   0.203948       -0.454301
1.293                    0.20369       -0.454341
1.294                   0.203432        -0.45438
1.295                   0.203174       -0.454419
1.296                   0.202916       -0.454458
1.297                   0.202658       -0.454497
1.298                     0.2024       -0.454536
1.299                   0.202141       -0.454575
1.3                     0.201883       -0.454614
1.301                   0.201625       -0.454653
1.302                   0.201367       -0.454692
1.303                   0.201109        -0.45473
1.304                   0.200851       -0.454769
1.305                   0.200592       -0.454808
1.306                   0.200334       -0.454846
1.307                   0.200076       -0.454885
1.308                   0.199818       -0.454923
1.309                   0.199559       -0.454962
1.31                    0.199301          -0.455
1.311                   0.199043       -0.455038
1.312                   0.198784       -0.455076
1.313                   0.198526       -0.455114
1.314                   0.198268       -0.455153
1.315                   0.198009       -0.455191
1.316                   0.197751       -0.455229
1.317                   0.197493       -0.455266
1.318                   0.197234       -0.455304
1.319                   0.196976       -0.455342
1.32                    0.196718        -0.45538
1.321                   0.196459       -0.455417
1.322                   0.196201       -0.455455
1.323                   0.195942       -0.455492
1.324                   0.195684       -0.455529
1.325                   0.195426       -0.455567
1.326                   0.195167       -0.455604
1.327                   0.194909       -0.455641
1.328                   0.194651       -0.455678
1.329                   0.194392       -0.455715
1.33                    0.194134       -0.455752
1.331                   0.193875       -0.455789
1.332                   0.193617       -0.455826
1.333                   0.193359       -0.455862
1.334                     0.1931       -0.455899
1.335                   0.192842       -0.455935
1.336                   0.192584       -0.455972
1.337                   0.192325       -0.456008
1.338                   0.192067       -0.456044
1.339                   0.191809       -0.456081
1.34                     0.19155       -0.456117
1.341                   0.191292       -0.456153
1.342                   0.191034       -0.456188
1.343                   0.190776       -0.456224
1.344                   0.190517        -0.45626
1.345                   0.190259       -0.456296
1.346                   0.190001       -0.456331
1.347                   0.189743       -0.456367
1.348                   0.189485       -0.456402
1.349                   0.189227       -0.456437
1.35                    0.188969       -0.456472
1.351                    0.18871       -0.456507
1.352                   0.188452       -0.456542
1.353                   0.188194       -0.456577
1.354                   0.187936       -0.456612
1.355                   0.187678       -0.456647
1.356                   0.187421       -0.456681
1.357                   0.187163       -0.456716
1.358                   0.186905        -0.45675
1.359                   0.186647       -0.456785
1.36                    0.186389       -0.456819
1.361                   0.186131       -0.456853
1.362                   0.185874       -0.456887
1.363                   0.185616       -0.456921
1.364                   0.185358       -0.456955
1.365                     0.1851       -0.456989
1.366                   0.184843       -0.457022
1.367                   0.184585       -0.457056
1.368                   0.184328       -0.457089
1.369                    0.18407       -0.457123
1.37                    0.183813       -0.457156
1.371                   0.183556       -0.457189
1.372                   0.183298       -0.457222
1.373                   0.183041       -0.457255
1.374                   0.182784       -0.457288
1.375                   0.182526       -0.457321
1.376                   0.182269       -0.457353
1.377                   0.182012       -0.457386
1.378                   0.181755       -0.457419
1.379                   0.181498       -0.457451
1.38                    0.181241       -0.457483
1.381                   0.180984       -0.457515
1.382                   0.180728       -0.457547
1.383                   0.180471       -0.457579
1.384                   0.180214       -0.457611
1.385                   0.179957       -0.457643
1.386                   0.179701       -0.457675
1.387                   0.179444       -0.457706
1.388                   0.179188       -0.457738
1.389                   0.178931       -0.457769
1.39                    0.178675       -0.457801
1.391                   0.178419       -0.457832
1.392                   0.178163       -0.457863
1.393                   0.177907       -0.457894
1.394                   0.177651       -0.457925
1.395                   0.177394       -0.457956
1.396                   0.177139       -0.457986
1.397                   0.176883       -0.458017
1.398                   0.176627       -0.458047
1.399                   0.176371       -0.458078
1.4                     0.176116       -0.458108
1.401                    0.17586       -0.458138
1.402                   0.175605       -0.458169
1.403                   0.175349       -0.458199
1.404                   0.175094       -0.458229
1.405                   0.174839       -0.458258
1.406                   0.174584       -0.458288
1.407                   0.174329       -0.458318
1.408                   0.174074       -0.458347
1.409                   0.173819       -0.458377
1.41                    0.173564       -0.458406
1.411                   0.173309       -0.458436
1.412                   0.173055       -0.458465
1.413                     0.1728       -0.458494
1.414                   0.172546       -0.458523
1.415                   0.172291       -0.458552
1.416                   0.172037       -0.458581
1.417                   0.171783        -0.45861
1.418                   0.171529       -0.458638
1.419                   0.171275       -0.458667
1.42                    0.171021       -0.458695
1.421                   0.170767       -0.458724
1.422                   0.170513       -0.458752
1.423                    0.17026        -0.45878
1.424                   0.170006       -0.458809
1.425                   0.169753       -0.458837
1.426                   0.169499       -0.458865
1.427                   0.169246       -0.458893
1.428                   0.168993        -0.45892
1.429                    0.16874       -0.458948
1.43                    0.168487       -0.458976
1.431                   0.168234       -0.459004
1.432                   0.167982       -0.459031
1.433                   0.167729       -0.459059
1.434                   0.167477       -0.459086
1.435                   0.167224       -0.459113
1.436                   0.166972       -0.459141
1.437                    0.16672       -0.459168
1.438                   0.166468       -0.459195
1.439                   0.166216       -0.459222
1.44                    0.165964       -0.459249
1.441                   0.165712       -0.459276
1.442                   0.165461       -0.459302
1.443                   0.165209       -0.459329
1.444                   0.164958       -0.459356
1.445                   0.164707       -0.459382
1.446                   0.164455       -0.459409
1.447                   0.164204       -0.459436
1.448                   0.163954       -0.459462
1.449                   0.163703       -0.459488
1.45                    0.163452       -0.459515
1.451                   0.163202       -0.459541
1.452                   0.162951       -0.459567
1.453                   0.162701       -0.459593
1.454                   0.162451       -0.459619
1.455                     0.1622       -0.459645
1.456                   0.161951       -0.459671
1.457                   0.161701       -0.459697
1.458                   0.161451       -0.459723
1.459                   0.161201       -0.459749
1.46                    0.160952       -0.459775
1.461                   0.160703         -0.4598
1.462                   0.160453       -0.459826
1.463                   0.160204       -0.459852
1.464                   0.159955       -0.459877
1.465                   0.159706       -0.459903
1.466                   0.159458       -0.459928
1.467                   0.159209       -0.459954
1.468                   0.158961       -0.459979
1.469                   0.158712       -0.460004
1.47                    0.158464        -0.46003
1.471                   0.158216       -0.460055
1.472                   0.157968        -0.46008
1.473                    0.15772       -0.460105
1.474                   0.157472       -0.460131
1.475                   0.157225       -0.460156
1.476                   0.156977       -0.460181
1.477                    0.15673       -0.460206
1.478                   0.156483       -0.460231
1.479                   0.156236       -0.460256
1.48                    0.155989       -0.460281
1.481                   0.155742       -0.460306
1.482                   0.155495       -0.460331
1.483                   0.155249       -0.460356
1.484                   0.155002       -0.460381
1.485                   0.154756       -0.460406
1.486                    0.15451       -0.460431
1.487                   0.154264       -0.460455
1.488                   0.154018        -0.46048
1.489                   0.153772       -0.460505
1.49                    0.153527        -0.46053
1.491                   0.153281       -0.460555
1.492                   0.153036        -0.46058
1.493                    0.15279       -0.460604
1.494                   0.152545       -0.460629
1.495                     0.1523       -0.460654
1.496                   0.152055       -0.460679
1.497                   0.151811       -0.460703
1.498                   0.151566       -0.460728
1.499                   0.151321       -0.460753
1.5                     0.151077       -0.460778
1.501                   0.150833       -0.460802
1.502                   0.150589       -0.460827
1.503                   0.150345       -0.460852
1.504                   0.150101       -0.460877
1.505                   0.149857       -0.460902
1.506                   0.149614       -0.460926
1.507                    0.14937       -0.460951
1.508                   0.149127       -0.460976
1.509                   0.148883       -0.461001
1.51                     0.14864       -0.461026
1.511                   0.148397       -0.461051
1.512                   0.148154       -0.461076
1.513                   0.147912         -0.4611
1.514                   0.147669       -0.461125
1.515                   0.147427        -0.46115
1.516                   0.147184       -0.461175
1.517                   0.146942         -0.4612
1.518                     0.1467       -0.461225
1.519                   0.146458        -0.46125
1.52                    0.146216       -0.461275
1.521                   0.145974         -0.4613
1.522                   0.145733       -0.461326
1.523                   0.145491       -0.461351
1.524                    0.14525       -0.461376
1.525                   0.145008       -0.461401
1.526                   0.144767       -0.461427
1.527                   0.144526       -0.461452
1.528                   0.144285       -0.461477
1.529                   0.144044       -0.461503
1.53                    0.143804       -0.461528
1.531                   0.143563       -0.461554
1.532                   0.143322       -0.461579
1.533                   0.143082       -0.461605
1.534                   0.142842        -0.46163
1.535                   0.142602       -0.461656
1.536                   0.142361       -0.461682
1.537                   0.142121       -0.461707
1.538                   0.141882       -0.461733
1.539                   0.141642       -0.461759
1.54                    0.141402       -0.461785
1.541                   0.141163       -0.461811
1.542                   0.140923       -0.461837
1.543                   0.140684       -0.461863
1.544                   0.140445       -0.461889
1.545                   0.140205       -0.461915
1.546                   0.139966       -0.461942
1.547                   0.139728       -0.461968
1.548                   0.139489       -0.461995
1.549                    0.13925       -0.462021
1.55                    0.139011       -0.462048
1.551                   0.138773       -0.462074
1.552                   0.138534       -0.462101
1.553                   0.138296       -0.462128
1.554                   0.138058       -0.462154
1.555                   0.137819       -0.462181
1.556                   0.137581       -0.462208
1.557                   0.137343       -0.462235
1.558                   0.137105       -0.462262
1.559                   0.136867        -0.46229
1.56                    0.136629       -0.462317
1.561                   0.136392       -0.462344
1.562                   0.136154       -0.462372
1.563                   0.135917       -0.462399
1.564                   0.135679       -0.462427
1.565                   0.135442       -0.462455
1.566                   0.135204       -0.462482
1.567                   0.134967        -0.46251
1.568                    0.13473       -0.462538
1.569                   0.134493       -0.462566
1.57                    0.134256       -0.462594
1.571                   0.134019       -0.462623
1.572                   0.133782       -0.462651
1.573                   0.133545       -0.462679
1.574                   0.133308       -0.462708
1.575                   0.133071       -0.462736
1.576                   0.132834       -0.462765
1.577                   0.132598       -0.462794
1.578                   0.132361       -0.462823
1.579                   0.132125       -0.462852
1.58                    0.131888       -0.462881
1.581                   0.131652        -0.46291
1.582                   0.131415       -0.462939
1.583                   0.131179       -0.462969
1.584                   0.130943       -0.462998
1.585                   0.130706       -0.463028
1.586                    0.13047       -0.463057
1.587                   0.130234       -0.463087
1.588                   0.129998       -0.463117
1.589                   0.129762       -0.463147
1.59                    0.129526       -0.463177
1.591                    0.12929       -0.463207
1.592                   0.129054       -0.463238
1.593                   0.128818       -0.463268
1.594                   0.128582       -0.463298
1.595                   0.128346       -0.463329
1.596                    0.12811        -0.46336
1.597                   0.127874       -0.463391
1.598                   0.127638       -0.463422
1.599                   0.127402       -0.463453
1.6                     0.127166       -0.463484
1.601                   0.126931       -0.463515
1.602                   0.126695       -0.463546
1.603                   0.126459       -0.463578
1.604                   0.126223        -0.46361
1.605                   0.125987       -0.463641
1.606                   0.125752       -0.463673
1.607                   0.125516       -0.463705
1.608                    0.12528       -0.463737
1.609                   0.125044       -0.463769
1.61                    0.124808       -0.463802
1.611                   0.124573       -0.463834
1.612                   0.124337       -0.463867
1.613                   0.124101       -0.463899
1.614                   0.123865       -0.463932
1.615                   0.123629       -0.463965
1.616                   0.123393       -0.463998
1.617                   0.123157       -0.464031
1.618                   0.122921       -0.464064
1.619                   0.122686       -0.464098
1.62                     0.12245       -0.464131
1.621                   0.122214       -0.464165
1.622                   0.121978       -0.464198
1.623                   0.121741       -0.464232
1.624                   0.121505       -0.464266
1.625                   0.121269         -0.4643
1.626                   0.121033       -0.464334
1.627                   0.120797       -0.464368
1.628                   0.120561       -0.464403
1.629                   0.120324       -0.464437
1.63                    0.120088       -0.464472
1.631                   0.119852       -0.464507
1.632                   0.119615       -0.464541
1.633                   0.119379       -0.464576
1.634                   0.119142       -0.464611
1.635                   0.118906       -0.464647
1.636                   0.118669       -0.464682
1.637                   0.118432       -0.464717
1.638                   0.118195       -0.464753
1.639                   0.117959       -0.464788
1.64                    0.117722       -0.464824
1.641                   0.117485        -0.46486
1.642                   0.117247       -0.464896
1.643                    0.11701       -0.464932
1.644                   0.116773       -0.464968
1.645                   0.116536       -0.465004
1.646                   0.116298       -0.465041
1.647                   0.116061       -0.465077
1.648                   0.115823       -0.465114
1.649                   0.115586        -0.46515
1.65                    0.115348       -0.465187
1.651                    0.11511       -0.465224
1.652                   0.114872       -0.465261
1.653                   0.114634       -0.465298
1.654                   0.114396       -0.465335
1.655                   0.114158       -0.465373
1.656                    0.11392        -0.46541
1.657                   0.113681       -0.465448
1.658                   0.113443       -0.465485
1.659                   0.113204       -0.465523
1.66                    0.112965       -0.465561
1.661                   0.112726       -0.465598
1.662                   0.112487       -0.465636
1.663                   0.112248       -0.465675
1.664                   0.112009       -0.465713
1.665                    0.11177       -0.465751
1.666                    0.11153       -0.465789
1.667                   0.111291       -0.465828
1.668                   0.111051       -0.465866
1.669                   0.110811       -0.465905
1.67                    0.110571       -0.465944
1.671                   0.110331       -0.465982
1.672                    0.11009       -0.466021
1.673                    0.10985        -0.46606
1.674                    0.10961       -0.466099
1.675                   0.109369       -0.466138
1.676                   0.109128       -0.466177
1.677                   0.108887       -0.466217
1.678                   0.108646       -0.466256
1.679                   0.108404       -0.466295
1.68                    0.108163       -0.466335
1.681                   0.107921       -0.466374
1.682                    0.10768       -0.466414
1.683                   0.107438       -0.466453
1.684                   0.107196       -0.466493
1.685                   0.106953       -0.466533
1.686                   0.106711       -0.466573
1.687                   0.106468       -0.466613
1.688                   0.106226       -0.466653
1.689                   0.105983       -0.466693
1.69                    0.105739       -0.466733
1.691                   0.105496       -0.466773
1.692                   0.105253       -0.466813
1.693                   0.105009       -0.466853
1.694                   0.104765       -0.466893
1.695                   0.104521       -0.466934
1.696                   0.104277       -0.466974
1.697                   0.104033       -0.467014
1.698                   0.103788       -0.467055
1.699                   0.103544       -0.467095
1.7                     0.103298       -0.467136
1.701                   0.103053       -0.467176
1.702                   0.102808       -0.467217
1.703                   0.102563       -0.467257
1.704                   0.102317       -0.467298
1.705                   0.102071       -0.467339
1.706                   0.101825       -0.467379
1.707                   0.101578        -0.46742
1.708                   0.101332        -0.46746
1.709                   0.101085       -0.467501
1.71                    0.100838       -0.467542
1.711                   0.100591       -0.467583
1.712                   0.100344       -0.467623
1.713                   0.100096       -0.467664
1.714                  0.0998483       -0.467705
1.715                  0.0996002       -0.467745
1.716                   0.099352       -0.467786
1.717                  0.0991036       -0.467827
1.718                   0.098855       -0.467867
1.719                  0.0986061       -0.467908
1.72                   0.0983569       -0.467949
1.721                  0.0981076        -0.46799
1.722                  0.0978581        -0.46803
1.723                  0.0976083       -0.468071
1.724                  0.0973583       -0.468111
1.725                  0.0971081       -0.468152
1.726                  0.0968578       -0.468192
1.727                   0.096607       -0.468233
1.728                  0.0963562       -0.468273
1.729                  0.0961051       -0.468314
1.73                   0.0958536       -0.468354
1.731                  0.0956019       -0.468395
1.732                  0.0953502       -0.468435
1.733                  0.0950981       -0.468475
1.734                  0.0948457       -0.468515
1.735                   0.094593       -0.468556
1.736                  0.0943407       -0.468596
1.737                  0.0940874       -0.468636
1.738                  0.0938341       -0.468676
1.739                  0.0935805       -0.468716
1.74                    0.093327       -0.468755
1.741                  0.0930728       -0.468795
1.742                  0.0928188       -0.468835
1.743                  0.0925641       -0.468875
1.744                  0.0923094       -0.468914
1.745                  0.0920545       -0.468954
1.746                  0.0917992       -0.468993
1.747                  0.0915438       -0.469032
1.748                  0.0912881       -0.469071
1.749                  0.0910321       -0.469111
1.75                    0.090776       -0.469149
1.751                  0.0905194       -0.469188
1.752                  0.0902626       -0.469227
1.753                  0.0900058       -0.469266
1.754                  0.0897488       -0.469304
1.755                  0.0894913       -0.469343
1.756                  0.0892336       -0.469381
1.757                  0.0889756       -0.469419
1.758                  0.0887176       -0.469458
1.759                  0.0884591       -0.469496
1.76                   0.0882004       -0.469533
1.761                  0.0879415       -0.469571
1.762                   0.087682       -0.469609
1.763                  0.0874228       -0.469646
1.764                  0.0871632       -0.469683
1.765                  0.0869035       -0.469721
1.766                  0.0866431       -0.469758
1.767                  0.0863827       -0.469794
1.768                   0.086122       -0.469831
1.769                  0.0858611       -0.469868
1.77                   0.0855998       -0.469904
1.771                  0.0853386        -0.46994
1.772                   0.085077       -0.469976
1.773                  0.0848151       -0.470012
1.774                  0.0845529       -0.470048
1.775                  0.0842906       -0.470083
1.776                  0.0840277       -0.470119
1.777                  0.0837651       -0.470154
1.778                  0.0835019       -0.470189
1.779                  0.0832386       -0.470223
1.78                   0.0829749       -0.470258
1.781                  0.0827113       -0.470292
1.782                  0.0824472       -0.470327
1.783                  0.0821828        -0.47036
1.784                  0.0819182       -0.470394
1.785                  0.0816535       -0.470428
1.786                  0.0813884       -0.470461
1.787                  0.0811232       -0.470494
1.788                  0.0808578       -0.470527
1.789                  0.0805919        -0.47056
1.79                   0.0803258       -0.470592
1.791                  0.0800598       -0.470624
1.792                  0.0797934       -0.470656
1.793                  0.0795267       -0.470688
1.794                  0.0792598        -0.47072
1.795                  0.0789928       -0.470751
1.796                  0.0787256       -0.470782
1.797                  0.0784577       -0.470813
1.798                  0.0781901       -0.470843
1.799                  0.0779219       -0.470873
1.8                    0.0776539       -0.470903
1.801                  0.0773854       -0.470933
1.802                  0.0771169       -0.470962
1.803                  0.0768481       -0.470991
1.804                  0.0765788        -0.47102
1.805                  0.0763098       -0.471049
1.806                  0.0760402       -0.471077
1.807                  0.0757706       -0.471105
1.808                  0.0755008       -0.471133
1.809                  0.0752304       -0.471161
1.81                   0.0749603       -0.471188
1.811                  0.0746897       -0.471215
1.812                   0.074419       -0.471241
1.813                  0.0741481       -0.471268
1.814                  0.0738772       -0.471294
1.815                  0.0736058       -0.471319
1.816                  0.0733343       -0.471345
1.817                  0.0730626        -0.47137
1.818                  0.0727909       -0.471394
1.819                  0.0725189       -0.471419
1.82                   0.0722468       -0.471443
1.821                  0.0719745       -0.471467
1.822                   0.071702        -0.47149
1.823                  0.0714294       -0.471513
1.824                  0.0711563       -0.471536
1.825                  0.0708835       -0.471558
1.826                  0.0706101        -0.47158
1.827                  0.0703369       -0.471602
1.828                  0.0700633       -0.471624
1.829                  0.0697898       -0.471645
1.83                   0.0695159       -0.471665
1.831                  0.0692419       -0.471686
1.832                  0.0689677       -0.471706
1.833                  0.0686934       -0.471725
1.834                  0.0684192       -0.471744
1.835                  0.0681448       -0.471763
1.836                  0.0678703       -0.471782
1.837                  0.0675952         -0.4718
1.838                  0.0673203       -0.471818
1.839                  0.0670452       -0.471835
1.84                   0.0667701       -0.471852
1.841                  0.0664949       -0.471869
1.842                  0.0662197       -0.471885
1.843                   0.065944       -0.471901
1.844                  0.0656685       -0.471916
1.845                  0.0653927       -0.471931
1.846                  0.0651169       -0.471946
1.847                  0.0648409       -0.471961
1.848                   0.064565       -0.471974
1.849                  0.0642889       -0.471988
1.85                   0.0640127       -0.472001
1.851                  0.0637364       -0.472014
1.852                  0.0634601       -0.472026
1.853                  0.0631837       -0.472038
1.854                  0.0629072       -0.472049
1.855                  0.0626306        -0.47206
1.856                  0.0623541       -0.472071
1.857                  0.0620774       -0.472081
1.858                  0.0618007       -0.472091
1.859                   0.061524       -0.472101
1.86                   0.0612471        -0.47211
1.861                  0.0609703       -0.472118
1.862                  0.0606934       -0.472126
1.863                  0.0604163       -0.472134
1.864                  0.0601393       -0.472141
1.865                  0.0598624       -0.472148
1.866                  0.0595853       -0.472155
1.867                  0.0593083       -0.472161
1.868                  0.0590313       -0.472166
1.869                  0.0587543       -0.472171
1.87                   0.0584772       -0.472176
1.871                  0.0582001        -0.47218
1.872                   0.057923       -0.472184
1.873                   0.057646       -0.472187
1.874                  0.0573689        -0.47219
1.875                  0.0570919       -0.472193
1.876                  0.0568148       -0.472195
1.877                  0.0565378       -0.472196
1.878                   0.056261       -0.472198
1.879                  0.0559841       -0.472198
1.88                    0.055707       -0.472199
1.881                  0.0554302       -0.472198
1.882                  0.0551535       -0.472198
1.883                  0.0548768       -0.472197
1.884                  0.0546001       -0.472195
1.885                  0.0543235       -0.472193
1.886                  0.0540468       -0.472191
1.887                  0.0537704       -0.472188
1.888                   0.053494       -0.472185
1.889                  0.0532177       -0.472181
1.89                   0.0529414       -0.472177
1.891                  0.0526654       -0.472172
1.892                  0.0523893       -0.472167
1.893                  0.0521133       -0.472161
1.894                  0.0518376       -0.472155
1.895                  0.0515618       -0.472149
1.896                  0.0512862       -0.472142
1.897                  0.0510107       -0.472134
1.898                  0.0507354       -0.472126
1.899                  0.0504602       -0.472118
1.9                     0.050185       -0.472109
1.901                    0.04991         -0.4721
1.902                  0.0496353        -0.47209
1.903                  0.0493605        -0.47208
1.904                   0.049086        -0.47207
1.905                  0.0488117       -0.472059
1.906                  0.0485376       -0.472047
1.907                  0.0482636       -0.472035
1.908                  0.0479897       -0.472023
1.909                  0.0477161        -0.47201
1.91                   0.0474427       -0.471997
1.911                  0.0471694       -0.471983
1.912                  0.0468964       -0.471969
1.913                  0.0466235       -0.471955
1.914                  0.0463508       -0.471939
1.915                  0.0460783       -0.471924
1.916                  0.0458062       -0.471908
1.917                  0.0455342       -0.471892
1.918                  0.0452624       -0.471875
1.919                  0.0449909       -0.471858
1.92                   0.0447196        -0.47184
1.921                  0.0444485       -0.471822
1.922                  0.0441777       -0.471804
1.923                  0.0439073       -0.471785
1.924                  0.0436369       -0.471765
1.925                  0.0433669       -0.471746
1.926                  0.0430971       -0.471725
1.927                  0.0428276       -0.471705
1.928                  0.0425585       -0.471684
1.929                  0.0422896       -0.471662
1.93                    0.042021        -0.47164
1.931                  0.0417526       -0.471618
1.932                  0.0414846       -0.471596
1.933                  0.0412169       -0.471572
1.934                  0.0409494       -0.471549
1.935                  0.0406824       -0.471525
1.936                  0.0404156       -0.471501
1.937                  0.0401491       -0.471476
1.938                  0.0398831       -0.471451
1.939                  0.0396173       -0.471426
1.94                   0.0393518         -0.4714
1.941                  0.0390867       -0.471374
1.942                   0.038822       -0.471347
1.943                  0.0385576        -0.47132
1.944                  0.0382936       -0.471293
1.945                    0.03803       -0.471265
1.946                  0.0377668       -0.471237
1.947                  0.0375038       -0.471208
1.948                  0.0372413        -0.47118
1.949                  0.0369791       -0.471151
1.95                   0.0367174       -0.471121
1.951                  0.0364561       -0.471091
1.952                  0.0361952       -0.471061
1.953                  0.0359345        -0.47103
1.954                  0.0356744          -0.471
1.955                  0.0354147       -0.470968
1.956                  0.0351554       -0.470937
1.957                  0.0348965       -0.470905
1.958                  0.0346381       -0.470873
1.959                  0.0343801        -0.47084
1.96                   0.0341224       -0.470808
1.961                  0.0338655       -0.470774
1.962                  0.0336087       -0.470741
1.963                  0.0333525       -0.470707
1.964                  0.0330967       -0.470673
1.965                  0.0328413       -0.470639
1.966                  0.0325865       -0.470604
1.967                  0.0323321        -0.47057
1.968                  0.0320782       -0.470535
1.969                  0.0318248       -0.470499
1.97                   0.0315718       -0.470464
1.971                  0.0313193       -0.470428
1.972                  0.0310674       -0.470391
1.973                  0.0308158       -0.470355
1.974                  0.0305648       -0.470318
1.975                  0.0303144       -0.470282
1.976                  0.0300644       -0.470245
1.977                  0.0298148       -0.470207
1.978                  0.0295658        -0.47017
1.979                  0.0293175       -0.470132
1.98                   0.0290695       -0.470094
1.981                  0.0288222       -0.470056
1.982                  0.0285751       -0.470018
1.983                  0.0283288       -0.469979
1.984                   0.028083        -0.46994
1.985                  0.0278377       -0.469902
1.986                  0.0275929       -0.469863
1.987                  0.0273489       -0.469823
1.988                  0.0271051       -0.469784
1.989                   0.026862       -0.469744
1.99                   0.0266195       -0.469705
1.991                  0.0263774       -0.469665
1.992                  0.0261361       -0.469625
1.993                  0.0258952       -0.469585
1.994                  0.0256548       -0.469545
1.995                   0.025415       -0.469505
1.996                  0.0251759       -0.469464
1.997                  0.0249373       -0.469424
1.998                  0.0246992       -0.469383
1.999                  0.0244617       -0.469343
2                      0.0242249       -0.469302
