! TOUCHSTONE file generated by CST MICROWAVE STUDIO
! Date and time: Sun Aug  2 21:13:22 2026
! Project name: Sonda-Coaxial_21mm_DisifixB_v2_open.cst
! Parameters = {h_recipiente=5; l_conector=5; r_arandela=35; r_ext=10.5; r_int=3; r_recipiente=100; z_recipiente=-50}
! Header version: 2018
! Port assignment regex: !\s*Touchstone port\s*([0-9]+)\s*=\s*(CST MWS port|CST DS port)\s*([0-9]+|Zmin|Zmax)\s*\(\"(.*)\"\)(\s*mode\s*([0-9]+))?.*
! Touchstone port assignment:
! Touchstone port 1 = CST MWS port 1 ("")
# GHz S RI R 50
0.001                  -0.999886     0.000293297
0.002                  -0.999886     0.000586221
0.003                  -0.999886     0.000879144
0.004                  -0.999886       0.0011723
0.005                  -0.999886      0.00146522
0.006                  -0.999885      0.00175837
0.007                  -0.999885       0.0020513
0.008                  -0.999885      0.00234445
0.009                  -0.999884      0.00263737
0.01                   -0.999884       0.0029303
0.011                  -0.999883      0.00322322
0.012                  -0.999883      0.00351614
0.013                  -0.999882      0.00380884
0.014                  -0.999881      0.00410176
0.015                  -0.999881      0.00439446
0.016                   -0.99988      0.00468715
0.017                  -0.999879      0.00497985
0.018                  -0.999878      0.00527254
0.019                  -0.999877      0.00556524
0.02                   -0.999876      0.00585793
0.021                  -0.999874      0.00615063
0.022                  -0.999873      0.00644309
0.023                  -0.999872      0.00673579
0.024                   -0.99987      0.00702825
0.025                  -0.999869      0.00732049
0.026                  -0.999867      0.00761296
0.027                  -0.999865      0.00790542
0.028                  -0.999864      0.00819788
0.029                  -0.999862      0.00849035
0.03                    -0.99986      0.00878258
0.031                  -0.999857      0.00907481
0.032                  -0.999855      0.00936705
0.033                  -0.999853      0.00965951
0.034                   -0.99985      0.00995174
0.035                  -0.999848       0.0102442
0.036                  -0.999845       0.0105362
0.037                  -0.999843       0.0108284
0.038                   -0.99984       0.0111207
0.039                  -0.999837       0.0114129
0.04                   -0.999834       0.0117049
0.041                  -0.999831       0.0119971
0.042                  -0.999828       0.0122893
0.043                  -0.999824       0.0125816
0.044                  -0.999821       0.0128736
0.045                  -0.999817       0.0131658
0.046                  -0.999814        0.013458
0.047                   -0.99981       0.0137498
0.048                  -0.999806        0.014042
0.049                  -0.999803       0.0143342
0.05                   -0.999799       0.0146264
0.051                  -0.999795       0.0149182
0.052                   -0.99979       0.0152104
0.053                  -0.999786       0.0155026
0.054                  -0.999782       0.0157944
0.055                  -0.999777       0.0160866
0.056                  -0.999773       0.0163788
0.057                  -0.999768       0.0166708
0.058                  -0.999763       0.0169627
0.059                  -0.999759       0.0172547
0.06                   -0.999754       0.0175469
0.061                  -0.999749       0.0178389
0.062                  -0.999743       0.0181309
0.063                  -0.999738       0.0184231
0.064                  -0.999733       0.0187148
0.065                  -0.999728        0.019007
0.066                  -0.999722        0.019299
0.067                  -0.999717       0.0195912
0.068                  -0.999711       0.0198829
0.069                  -0.999705       0.0201751
0.07                   -0.999699       0.0204673
0.071                  -0.999693        0.020759
0.072                  -0.999687       0.0210512
0.073                  -0.999681       0.0213431
0.074                  -0.999675       0.0216351
0.075                  -0.999669        0.021927
0.076                  -0.999662       0.0222192
0.077                  -0.999656       0.0225109
0.078                  -0.999649       0.0228031
0.079                  -0.999642        0.023095
0.08                   -0.999636        0.023387
0.081                  -0.999629       0.0236789
0.082                  -0.999622       0.0239711
0.083                  -0.999615       0.0242628
0.084                  -0.999608       0.0245549
0.085                    -0.9996       0.0248471
0.086                  -0.999593        0.025139
0.087                  -0.999586        0.025431
0.088                  -0.999578       0.0257229
0.089                  -0.999571        0.026015
0.09                   -0.999563       0.0263067
0.091                  -0.999555       0.0265989
0.092                  -0.999547       0.0268908
0.093                  -0.999539       0.0271827
0.094                  -0.999531       0.0274746
0.095                  -0.999523       0.0277667
0.096                  -0.999515       0.0280584
0.097                  -0.999507       0.0283505
0.098                  -0.999498       0.0286427
0.099                   -0.99949       0.0289346
0.1                    -0.999481       0.0292265
0.101                  -0.999473       0.0295183
0.102                  -0.999464       0.0298105
0.103                  -0.999455       0.0301021
0.104                  -0.999446       0.0303942
0.105                  -0.999437       0.0306861
0.106                  -0.999428        0.030978
0.107                  -0.999419       0.0312699
0.108                   -0.99941        0.031562
0.109                    -0.9994       0.0318541
0.11                   -0.999391       0.0321457
0.111                  -0.999381       0.0324378
0.112                  -0.999372       0.0327297
0.113                  -0.999362       0.0330215
0.114                  -0.999352       0.0333134
0.115                  -0.999342       0.0336055
0.116                  -0.999332       0.0338971
0.117                  -0.999322       0.0341892
0.118                  -0.999312        0.034481
0.119                  -0.999302       0.0347729
0.12                   -0.999292       0.0350649
0.121                  -0.999281       0.0353568
0.122                  -0.999271       0.0356486
0.123                   -0.99926       0.0359404
0.124                   -0.99925       0.0362325
0.125                  -0.999239       0.0365241
0.126                  -0.999228       0.0368161
0.127                  -0.999217       0.0371079
0.128                  -0.999206          0.0374
0.129                  -0.999195       0.0376916
0.13                   -0.999184       0.0379836
0.131                  -0.999172       0.0382754
0.132                  -0.999161       0.0385672
0.133                   -0.99915        0.038859
0.134                  -0.999138        0.039151
0.135                  -0.999126       0.0394428
0.136                  -0.999115       0.0397346
0.137                  -0.999103       0.0400266
0.138                  -0.999091       0.0403182
0.139                  -0.999079       0.0406102
0.14                   -0.999067        0.040902
0.141                  -0.999055        0.041194
0.142                  -0.999043       0.0414855
0.143                   -0.99903       0.0417775
0.144                  -0.999018       0.0420693
0.145                  -0.999005        0.042361
0.146                  -0.998993       0.0426528
0.147                   -0.99898       0.0429447
0.148                  -0.998967       0.0432363
0.149                  -0.998955       0.0435282
0.15                   -0.998942         0.04382
0.151                  -0.998929       0.0441117
0.152                  -0.998915       0.0444034
0.153                  -0.998902       0.0446954
0.154                  -0.998889       0.0449869
0.155                  -0.998876       0.0452788
0.156                  -0.998862       0.0455705
0.157                  -0.998849       0.0458623
0.158                  -0.998835        0.046154
0.159                  -0.998821       0.0464459
0.16                   -0.998808       0.0467374
0.161                  -0.998794       0.0470293
0.162                   -0.99878        0.047321
0.163                  -0.998766       0.0476129
0.164                  -0.998752       0.0479044
0.165                  -0.998737        0.048196
0.166                  -0.998723       0.0484879
0.167                  -0.998709       0.0487793
0.168                  -0.998694       0.0490712
0.169                  -0.998679       0.0493629
0.17                   -0.998665       0.0496545
0.171                   -0.99865       0.0499462
0.172                  -0.998635       0.0502381
0.173                   -0.99862       0.0505295
0.174                  -0.998605       0.0508211
0.175                   -0.99859        0.051113
0.176                  -0.998575       0.0514044
0.177                   -0.99856       0.0516963
0.178                  -0.998545       0.0519879
0.179                  -0.998529       0.0522797
0.18                   -0.998514       0.0525711
0.181                  -0.998498       0.0528627
0.182                  -0.998482       0.0531546
0.183                  -0.998466       0.0534459
0.184                  -0.998451       0.0537378
0.185                  -0.998435       0.0540291
0.186                  -0.998419        0.054321
0.187                  -0.998403       0.0546125
0.188                  -0.998386       0.0549039
0.189                   -0.99837       0.0551957
0.19                   -0.998354       0.0554873
0.191                  -0.998337       0.0557786
0.192                  -0.998321       0.0560704
0.193                  -0.998304       0.0563619
0.194                  -0.998287       0.0566537
0.195                  -0.998271        0.056945
0.196                  -0.998254       0.0572366
0.197                  -0.998237       0.0575283
0.198                   -0.99822       0.0578197
0.199                  -0.998202       0.0581112
0.2                    -0.998185       0.0584029
0.201                  -0.998168       0.0586942
0.202                   -0.99815       0.0589857
0.203                  -0.998133       0.0592775
0.204                  -0.998115       0.0595687
0.205                  -0.998098       0.0598602
0.206                   -0.99808        0.060152
0.207                  -0.998062       0.0604432
0.208                  -0.998044       0.0607347
0.209                  -0.998026       0.0610264
0.21                   -0.998008       0.0613176
0.211                   -0.99799       0.0616091
0.212                  -0.997972       0.0619008
0.213                  -0.997953        0.062192
0.214                  -0.997935       0.0624835
0.215                  -0.997916       0.0627751
0.216                  -0.997898       0.0630664
0.217                  -0.997879       0.0633578
0.218                   -0.99786        0.063649
0.219                  -0.997841       0.0639407
0.22                   -0.997822       0.0642321
0.221                  -0.997803       0.0645233
0.222                  -0.997784       0.0648149
0.223                  -0.997765       0.0651063
0.224                  -0.997746       0.0653975
0.225                  -0.997726       0.0656889
0.226                  -0.997707       0.0659805
0.227                  -0.997687       0.0662716
0.228                  -0.997668        0.066563
0.229                  -0.997648       0.0668544
0.23                   -0.997628       0.0671457
0.231                  -0.997608       0.0674371
0.232                  -0.997588       0.0677284
0.233                  -0.997568       0.0680196
0.234                  -0.997548       0.0683111
0.235                  -0.997528       0.0686025
0.236                  -0.997508       0.0688936
0.237                  -0.997487       0.0691849
0.238                  -0.997467       0.0694762
0.239                  -0.997446       0.0697675
0.24                   -0.997425       0.0700588
0.241                  -0.997405       0.0703501
0.242                  -0.997384       0.0706412
0.243                  -0.997363       0.0709325
0.244                  -0.997342        0.071224
0.245                  -0.997321        0.071515
0.246                    -0.9973       0.0718063
0.247                  -0.997278       0.0720973
0.248                  -0.997257       0.0723886
0.249                  -0.997236       0.0726801
0.25                   -0.997214       0.0729711
0.251                  -0.997193       0.0732623
0.252                  -0.997171       0.0735536
0.253                  -0.997149       0.0738446
0.254                  -0.997127       0.0741358
0.255                  -0.997105        0.074427
0.256                  -0.997083       0.0747182
0.257                  -0.997061       0.0750094
0.258                  -0.997039       0.0753006
0.259                  -0.997017       0.0755916
0.26                   -0.996994       0.0758828
0.261                  -0.996972       0.0761737
0.262                  -0.996949       0.0764649
0.263                  -0.996927       0.0767563
0.264                  -0.996904       0.0770472
0.265                  -0.996881       0.0773384
0.266                  -0.996858       0.0776295
0.267                  -0.996835       0.0779204
0.268                  -0.996812       0.0782115
0.269                  -0.996789       0.0785027
0.27                   -0.996766       0.0787936
0.271                  -0.996743       0.0790847
0.272                  -0.996719       0.0793755
0.273                  -0.996696       0.0796669
0.274                  -0.996672        0.079958
0.275                  -0.996649       0.0802488
0.276                  -0.996625       0.0805399
0.277                  -0.996601        0.080831
0.278                  -0.996577       0.0811218
0.279                  -0.996553       0.0814129
0.28                   -0.996529       0.0817039
0.281                  -0.996505       0.0819947
0.282                  -0.996481       0.0822858
0.283                  -0.996457       0.0825766
0.284                  -0.996432       0.0828676
0.285                  -0.996408       0.0831586
0.286                  -0.996383       0.0834494
0.287                  -0.996358       0.0837404
0.288                  -0.996334       0.0840314
0.289                  -0.996309       0.0843222
0.29                   -0.996284       0.0846132
0.291                  -0.996259       0.0849039
0.292                  -0.996234       0.0851949
0.293                  -0.996209       0.0854858
0.294                  -0.996183       0.0857766
0.295                  -0.996158       0.0860675
0.296                  -0.996133       0.0863584
0.297                  -0.996107       0.0866491
0.298                  -0.996082       0.0869401
0.299                  -0.996056       0.0872308
0.3                     -0.99603       0.0875217
0.301                  -0.996004       0.0878126
0.302                  -0.995978       0.0881033
0.303                  -0.995952       0.0883941
0.304                  -0.995926        0.088685
0.305                    -0.9959       0.0889757
0.306                  -0.995874       0.0892665
0.307                  -0.995847       0.0895572
0.308                  -0.995821        0.089848
0.309                  -0.995794       0.0901389
0.31                   -0.995768       0.0904295
0.311                  -0.995741       0.0907203
0.312                  -0.995714       0.0910111
0.313                  -0.995688       0.0913017
0.314                  -0.995661       0.0915925
0.315                  -0.995634       0.0918831
0.316                  -0.995606       0.0921739
0.317                  -0.995579       0.0924647
0.318                  -0.995552       0.0927552
0.319                  -0.995525        0.093046
0.32                   -0.995497       0.0933363
0.321                   -0.99547       0.0936271
0.322                  -0.995442       0.0939178
0.323                  -0.995414       0.0942083
0.324                  -0.995386        0.094499
0.325                  -0.995359       0.0947898
0.326                  -0.995331       0.0950802
0.327                  -0.995303       0.0953709
0.328                  -0.995274       0.0956617
0.329                  -0.995246       0.0959521
0.33                   -0.995218       0.0962428
0.331                  -0.995189        0.096533
0.332                  -0.995161       0.0968237
0.333                  -0.995133       0.0971143
0.334                  -0.995104       0.0974048
0.335                  -0.995075       0.0976954
0.336                  -0.995046       0.0979858
0.337                  -0.995017       0.0982764
0.338                  -0.994988       0.0985671
0.339                  -0.994959       0.0988572
0.34                    -0.99493       0.0991478
0.341                  -0.994901       0.0994382
0.342                  -0.994872       0.0997288
0.343                  -0.994842        0.100019
0.344                  -0.994813         0.10031
0.345                  -0.994783          0.1006
0.346                  -0.994754         0.10089
0.347                  -0.994724        0.101181
0.348                  -0.994694        0.101471
0.349                  -0.994664        0.101762
0.35                   -0.994634        0.102052
0.351                  -0.994604        0.102343
0.352                  -0.994574        0.102633
0.353                  -0.994544        0.102923
0.354                  -0.994513        0.103214
0.355                  -0.994483        0.103504
0.356                  -0.994452        0.103794
0.357                  -0.994422        0.104085
0.358                  -0.994391        0.104375
0.359                   -0.99436        0.104665
0.36                    -0.99433        0.104956
0.361                  -0.994299        0.105246
0.362                  -0.994268        0.105536
0.363                  -0.994237        0.105826
0.364                  -0.994205        0.106117
0.365                  -0.994174        0.106407
0.366                  -0.994143        0.106697
0.367                  -0.994111        0.106987
0.368                   -0.99408        0.107278
0.369                  -0.994048        0.107568
0.37                   -0.994017        0.107858
0.371                  -0.993985        0.108148
0.372                  -0.993953        0.108439
0.373                  -0.993921        0.108729
0.374                  -0.993889        0.109019
0.375                  -0.993857        0.109309
0.376                  -0.993825        0.109599
0.377                  -0.993792        0.109889
0.378                   -0.99376        0.110179
0.379                  -0.993728        0.110469
0.38                   -0.993695         0.11076
0.381                  -0.993663         0.11105
0.382                   -0.99363         0.11134
0.383                  -0.993597         0.11163
0.384                  -0.993564         0.11192
0.385                  -0.993531         0.11221
0.386                  -0.993498          0.1125
0.387                  -0.993465         0.11279
0.388                  -0.993432         0.11308
0.389                  -0.993399         0.11337
0.39                   -0.993365         0.11366
0.391                  -0.993332         0.11395
0.392                  -0.993298         0.11424
0.393                  -0.993265         0.11453
0.394                  -0.993231         0.11482
0.395                  -0.993197         0.11511
0.396                  -0.993163          0.1154
0.397                  -0.993129         0.11569
0.398                  -0.993095         0.11598
0.399                  -0.993061         0.11627
0.4                    -0.993027         0.11656
0.401                  -0.992993        0.116849
0.402                  -0.992958         0.11714
0.403                  -0.992924         0.11743
0.404                  -0.992889        0.117719
0.405                  -0.992855        0.118009
0.406                   -0.99282        0.118299
0.407                  -0.992785        0.118589
0.408                   -0.99275        0.118879
0.409                  -0.992715        0.119168
0.41                    -0.99268        0.119458
0.411                  -0.992645        0.119748
0.412                   -0.99261        0.120038
0.413                  -0.992575        0.120328
0.414                  -0.992539        0.120617
0.415                  -0.992504        0.120907
0.416                  -0.992468        0.121197
0.417                  -0.992432        0.121487
0.418                  -0.992397        0.121776
0.419                  -0.992361        0.122066
0.42                   -0.992325        0.122356
0.421                  -0.992289        0.122645
0.422                  -0.992253        0.122935
0.423                  -0.992217        0.123225
0.424                  -0.992181        0.123514
0.425                  -0.992144        0.123804
0.426                  -0.992108        0.124094
0.427                  -0.992072        0.124383
0.428                  -0.992035        0.124673
0.429                  -0.991998        0.124963
0.43                   -0.991962        0.125252
0.431                  -0.991925        0.125542
0.432                  -0.991888        0.125832
0.433                  -0.991851        0.126121
0.434                  -0.991814        0.126411
0.435                  -0.991777          0.1267
0.436                  -0.991739         0.12699
0.437                  -0.991702        0.127279
0.438                  -0.991665        0.127569
0.439                  -0.991627        0.127858
0.44                    -0.99159        0.128148
0.441                  -0.991552        0.128437
0.442                  -0.991514        0.128727
0.443                  -0.991476        0.129016
0.444                  -0.991438        0.129306
0.445                    -0.9914        0.129595
0.446                  -0.991362        0.129885
0.447                  -0.991324        0.130174
0.448                  -0.991286        0.130463
0.449                  -0.991248        0.130753
0.45                   -0.991209        0.131042
0.451                  -0.991171        0.131332
0.452                  -0.991132        0.131621
0.453                  -0.991093         0.13191
0.454                  -0.991055          0.1322
0.455                  -0.991016        0.132489
0.456                  -0.990977        0.132778
0.457                  -0.990938        0.133067
0.458                  -0.990899        0.133357
0.459                   -0.99086        0.133646
0.46                    -0.99082        0.133935
0.461                  -0.990781        0.134225
0.462                  -0.990742        0.134514
0.463                  -0.990702        0.134803
0.464                  -0.990662        0.135093
0.465                  -0.990623        0.135382
0.466                  -0.990583        0.135671
0.467                  -0.990543         0.13596
0.468                  -0.990503        0.136249
0.469                  -0.990463        0.136538
0.47                   -0.990423        0.136827
0.471                  -0.990383        0.137117
0.472                  -0.990343        0.137406
0.473                  -0.990302        0.137695
0.474                  -0.990262        0.137984
0.475                  -0.990221        0.138273
0.476                  -0.990181        0.138562
0.477                   -0.99014        0.138851
0.478                  -0.990099         0.13914
0.479                  -0.990058        0.139429
0.48                   -0.990018        0.139719
0.481                  -0.989977        0.140007
0.482                  -0.989935        0.140297
0.483                  -0.989894        0.140585
0.484                  -0.989853        0.140875
0.485                  -0.989812        0.141164
0.486                   -0.98977        0.141452
0.487                  -0.989729        0.141742
0.488                  -0.989687         0.14203
0.489                  -0.989645        0.142319
0.49                   -0.989603        0.142608
0.491                  -0.989562        0.142897
0.492                   -0.98952        0.143186
0.493                  -0.989478        0.143475
0.494                  -0.989435        0.143764
0.495                  -0.989393        0.144053
0.496                  -0.989351        0.144342
0.497                  -0.989309        0.144631
0.498                  -0.989266        0.144919
0.499                  -0.989224        0.145208
0.5                    -0.989181        0.145497
0.501                  -0.989138        0.145786
0.502                  -0.989095        0.146075
0.503                  -0.989053        0.146363
0.504                   -0.98901        0.146652
0.505                  -0.988967        0.146941
0.506                  -0.988924        0.147229
0.507                   -0.98888        0.147518
0.508                  -0.988837        0.147807
0.509                  -0.988794        0.148096
0.51                    -0.98875        0.148384
0.511                  -0.988707        0.148673
0.512                  -0.988663        0.148962
0.513                  -0.988619         0.14925
0.514                  -0.988576        0.149539
0.515                  -0.988532        0.149828
0.516                  -0.988488        0.150116
0.517                  -0.988444        0.150405
0.518                  -0.988399        0.150693
0.519                  -0.988355        0.150982
0.52                   -0.988311        0.151271
0.521                  -0.988266        0.151559
0.522                  -0.988222        0.151848
0.523                  -0.988178        0.152136
0.524                  -0.988133        0.152425
0.525                  -0.988088        0.152713
0.526                  -0.988043        0.153001
0.527                  -0.987998         0.15329
0.528                  -0.987953        0.153578
0.529                  -0.987908        0.153867
0.53                   -0.987863        0.154156
0.531                  -0.987818        0.154444
0.532                  -0.987773        0.154732
0.533                  -0.987727         0.15502
0.534                  -0.987682        0.155309
0.535                  -0.987636        0.155598
0.536                  -0.987591        0.155886
0.537                  -0.987545        0.156174
0.538                  -0.987499        0.156462
0.539                  -0.987453        0.156751
0.54                   -0.987407        0.157039
0.541                  -0.987361        0.157327
0.542                  -0.987315        0.157616
0.543                  -0.987269        0.157904
0.544                  -0.987222        0.158192
0.545                  -0.987176         0.15848
0.546                   -0.98713        0.158769
0.547                  -0.987083        0.159057
0.548                  -0.987036        0.159345
0.549                   -0.98699        0.159633
0.55                   -0.986943        0.159921
0.551                  -0.986896         0.16021
0.552                  -0.986849        0.160498
0.553                  -0.986802        0.160786
0.554                  -0.986755        0.161074
0.555                  -0.986707        0.161362
0.556                   -0.98666         0.16165
0.557                  -0.986613        0.161938
0.558                  -0.986565        0.162226
0.559                  -0.986518        0.162515
0.56                    -0.98647        0.162802
0.561                  -0.986422        0.163091
0.562                  -0.986374        0.163378
0.563                  -0.986326        0.163667
0.564                  -0.986278        0.163954
0.565                   -0.98623        0.164242
0.566                  -0.986182        0.164531
0.567                  -0.986134        0.164818
0.568                  -0.986086        0.165106
0.569                  -0.986037        0.165394
0.57                   -0.985989        0.165682
0.571                   -0.98594         0.16597
0.572                  -0.985891        0.166258
0.573                  -0.985843        0.166546
0.574                  -0.985794        0.166833
0.575                  -0.985745        0.167122
0.576                  -0.985696        0.167409
0.577                  -0.985647        0.167697
0.578                  -0.985598        0.167985
0.579                  -0.985548        0.168273
0.58                   -0.985499        0.168561
0.581                   -0.98545        0.168848
0.582                    -0.9854        0.169136
0.583                  -0.985351        0.169423
0.584                  -0.985301        0.169711
0.585                  -0.985251        0.169999
0.586                  -0.985201        0.170287
0.587                  -0.985151        0.170575
0.588                  -0.985101        0.170862
0.589                  -0.985051         0.17115
0.59                   -0.985001        0.171437
0.591                  -0.984951        0.171725
0.592                    -0.9849        0.172013
0.593                   -0.98485          0.1723
0.594                  -0.984799        0.172588
0.595                  -0.984749        0.172875
0.596                  -0.984698        0.173163
0.597                  -0.984647         0.17345
0.598                  -0.984597        0.173738
0.599                  -0.984546        0.174026
0.6                    -0.984495        0.174313
0.601                  -0.984443          0.1746
0.602                  -0.984392        0.174888
0.603                  -0.984341        0.175175
0.604                   -0.98429        0.175463
0.605                  -0.984238         0.17575
0.606                  -0.984187        0.176038
0.607                  -0.984135        0.176325
0.608                  -0.984083        0.176612
0.609                  -0.984032          0.1769
0.61                    -0.98398        0.177187
0.611                  -0.983928        0.177475
0.612                  -0.983876        0.177762
0.613                  -0.983824        0.178049
0.614                  -0.983772        0.178336
0.615                  -0.983719        0.178624
0.616                  -0.983667        0.178911
0.617                  -0.983614        0.179198
0.618                  -0.983562        0.179485
0.619                  -0.983509        0.179772
0.62                   -0.983457         0.18006
0.621                  -0.983404        0.180347
0.622                  -0.983351        0.180634
0.623                  -0.983298        0.180921
0.624                  -0.983245        0.181208
0.625                  -0.983192        0.181496
0.626                  -0.983139        0.181782
0.627                  -0.983085         0.18207
0.628                  -0.983032        0.182357
0.629                  -0.982979        0.182644
0.63                   -0.982925        0.182931
0.631                  -0.982871        0.183218
0.632                  -0.982818        0.183505
0.633                  -0.982764        0.183792
0.634                   -0.98271        0.184079
0.635                  -0.982656        0.184366
0.636                  -0.982602        0.184653
0.637                  -0.982548         0.18494
0.638                  -0.982494        0.185227
0.639                  -0.982439        0.185514
0.64                   -0.982385          0.1858
0.641                  -0.982331        0.186087
0.642                  -0.982276        0.186374
0.643                  -0.982221        0.186661
0.644                  -0.982167        0.186948
0.645                  -0.982112        0.187235
0.646                  -0.982057        0.187522
0.647                  -0.982002        0.187808
0.648                  -0.981947        0.188095
0.649                  -0.981892        0.188382
0.65                   -0.981837        0.188669
0.651                  -0.981781        0.188956
0.652                  -0.981726        0.189242
0.653                  -0.981671        0.189529
0.654                  -0.981615        0.189815
0.655                  -0.981559        0.190102
0.656                  -0.981504        0.190389
0.657                  -0.981448        0.190675
0.658                  -0.981392        0.190962
0.659                  -0.981336        0.191249
0.66                    -0.98128        0.191535
0.661                  -0.981224        0.191822
0.662                  -0.981168        0.192108
0.663                  -0.981111        0.192395
0.664                  -0.981055        0.192681
0.665                  -0.980998        0.192968
0.666                  -0.980942        0.193254
0.667                  -0.980885        0.193541
0.668                  -0.980829        0.193827
0.669                  -0.980772        0.194114
0.67                   -0.980715          0.1944
0.671                  -0.980658        0.194687
0.672                  -0.980601        0.194973
0.673                  -0.980544        0.195259
0.674                  -0.980487        0.195546
0.675                  -0.980429        0.195832
0.676                  -0.980372        0.196118
0.677                  -0.980314        0.196405
0.678                  -0.980257        0.196691
0.679                  -0.980199        0.196978
0.68                   -0.980142        0.197264
0.681                  -0.980084         0.19755
0.682                  -0.980026        0.197836
0.683                  -0.979968        0.198122
0.684                   -0.97991        0.198409
0.685                  -0.979852        0.198695
0.686                  -0.979793        0.198981
0.687                  -0.979735        0.199267
0.688                  -0.979677        0.199553
0.689                  -0.979618         0.19984
0.69                    -0.97956        0.200125
0.691                  -0.979501        0.200412
0.692                  -0.979442        0.200698
0.693                  -0.979383        0.200984
0.694                  -0.979325         0.20127
0.695                  -0.979266        0.201556
0.696                  -0.979207        0.201842
0.697                  -0.979147        0.202128
0.698                  -0.979088        0.202414
0.699                  -0.979029          0.2027
0.7                    -0.978969        0.202986
0.701                   -0.97891        0.203271
0.702                   -0.97885        0.203557
0.703                  -0.978791        0.203844
0.704                  -0.978731        0.204129
0.705                  -0.978671        0.204415
0.706                  -0.978611        0.204701
0.707                  -0.978551        0.204987
0.708                  -0.978491        0.205272
0.709                  -0.978431        0.205558
0.71                   -0.978371        0.205844
0.711                  -0.978311         0.20613
0.712                   -0.97825        0.206416
0.713                   -0.97819        0.206701
0.714                  -0.978129        0.206987
0.715                  -0.978069        0.207273
0.716                  -0.978008        0.207558
0.717                  -0.977947        0.207844
0.718                  -0.977886         0.20813
0.719                  -0.977825        0.208415
0.72                   -0.977764        0.208701
0.721                  -0.977703        0.208986
0.722                  -0.977642        0.209272
0.723                   -0.97758        0.209558
0.724                  -0.977519        0.209843
0.725                  -0.977457        0.210129
0.726                  -0.977396        0.210414
0.727                  -0.977334        0.210699
0.728                  -0.977272        0.210985
0.729                  -0.977211        0.211271
0.73                   -0.977149        0.211556
0.731                  -0.977087        0.211842
0.732                  -0.977025        0.212127
0.733                  -0.976963        0.212412
0.734                    -0.9769        0.212697
0.735                  -0.976838        0.212983
0.736                  -0.976776        0.213268
0.737                  -0.976713        0.213553
0.738                  -0.976651        0.213839
0.739                  -0.976588        0.214124
0.74                   -0.976525        0.214409
0.741                  -0.976462        0.214694
0.742                    -0.9764         0.21498
0.743                  -0.976336        0.215265
0.744                  -0.976273         0.21555
0.745                   -0.97621        0.215835
0.746                  -0.976147         0.21612
0.747                  -0.976084        0.216406
0.748                   -0.97602        0.216691
0.749                  -0.975957        0.216976
0.75                   -0.975893        0.217261
0.751                   -0.97583        0.217546
0.752                  -0.975766        0.217831
0.753                  -0.975702        0.218116
0.754                  -0.975638        0.218401
0.755                  -0.975574        0.218686
0.756                   -0.97551        0.218971
0.757                  -0.975446        0.219256
0.758                  -0.975382        0.219541
0.759                  -0.975317        0.219826
0.76                   -0.975253        0.220111
0.761                  -0.975189        0.220396
0.762                  -0.975124         0.22068
0.763                  -0.975059        0.220965
0.764                  -0.974994         0.22125
0.765                   -0.97493        0.221535
0.766                  -0.974865         0.22182
0.767                    -0.9748        0.222104
0.768                  -0.974735        0.222389
0.769                   -0.97467        0.222674
0.77                   -0.974604        0.222959
0.771                  -0.974539        0.223244
0.772                  -0.974474        0.223528
0.773                  -0.974408        0.223813
0.774                  -0.974342        0.224097
0.775                  -0.974277        0.224382
0.776                  -0.974211        0.224667
0.777                  -0.974145        0.224951
0.778                   -0.97408        0.225236
0.779                  -0.974014         0.22552
0.78                   -0.973947        0.225805
0.781                  -0.973881        0.226089
0.782                  -0.973815        0.226374
0.783                  -0.973749        0.226658
0.784                  -0.973682        0.226943
0.785                  -0.973616        0.227227
0.786                  -0.973549        0.227512
0.787                  -0.973483        0.227796
0.788                  -0.973416         0.22808
0.789                  -0.973349        0.228365
0.79                   -0.973282        0.228649
0.791                  -0.973215        0.228933
0.792                  -0.973148        0.229218
0.793                  -0.973081        0.229502
0.794                  -0.973014        0.229786
0.795                  -0.972946        0.230071
0.796                  -0.972879        0.230355
0.797                  -0.972812        0.230639
0.798                  -0.972744        0.230923
0.799                  -0.972676        0.231207
0.8                    -0.972609        0.231491
0.801                  -0.972541        0.231776
0.802                  -0.972473         0.23206
0.803                  -0.972405        0.232344
0.804                  -0.972337        0.232628
0.805                  -0.972269        0.232912
0.806                    -0.9722        0.233196
0.807                  -0.972132         0.23348
0.808                  -0.972064        0.233764
0.809                  -0.971995        0.234048
0.81                   -0.971927        0.234332
0.811                  -0.971858        0.234616
0.812                  -0.971789          0.2349
0.813                   -0.97172        0.235184
0.814                  -0.971651        0.235468
0.815                  -0.971583        0.235751
0.816                  -0.971513        0.236035
0.817                  -0.971444        0.236319
0.818                  -0.971375        0.236603
0.819                  -0.971306        0.236887
0.82                   -0.971236        0.237171
0.821                  -0.971167        0.237455
0.822                  -0.971097        0.237738
0.823                  -0.971028        0.238022
0.824                  -0.970958        0.238305
0.825                  -0.970888        0.238589
0.826                  -0.970818        0.238873
0.827                  -0.970748        0.239156
0.828                  -0.970678         0.23944
0.829                  -0.970608        0.239724
0.83                   -0.970538        0.240007
0.831                  -0.970468        0.240291
0.832                  -0.970397        0.240574
0.833                  -0.970327        0.240858
0.834                  -0.970256        0.241141
0.835                  -0.970185        0.241425
0.836                  -0.970115        0.241708
0.837                  -0.970044        0.241992
0.838                  -0.969973        0.242275
0.839                  -0.969902        0.242559
0.84                   -0.969831        0.242842
0.841                   -0.96976        0.243125
0.842                  -0.969689        0.243409
0.843                  -0.969617        0.243692
0.844                  -0.969546        0.243975
0.845                  -0.969475        0.244258
0.846                  -0.969403        0.244542
0.847                  -0.969331        0.244825
0.848                   -0.96926        0.245108
0.849                  -0.969188        0.245391
0.85                   -0.969116        0.245675
0.851                  -0.969044        0.245958
0.852                  -0.968972        0.246241
0.853                    -0.9689        0.246524
0.854                  -0.968828        0.246807
0.855                  -0.968755         0.24709
0.856                  -0.968683        0.247373
0.857                   -0.96861        0.247656
0.858                  -0.968538        0.247939
0.859                  -0.968465        0.248222
0.86                   -0.968393        0.248505
0.861                   -0.96832        0.248788
0.862                  -0.968247        0.249071
0.863                  -0.968174        0.249354
0.864                  -0.968101        0.249637
0.865                  -0.968028         0.24992
0.866                  -0.967955        0.250203
0.867                  -0.967881        0.250485
0.868                  -0.967808        0.250768
0.869                  -0.967734        0.251051
0.87                   -0.967661        0.251334
0.871                  -0.967587        0.251616
0.872                  -0.967514        0.251899
0.873                   -0.96744        0.252182
0.874                  -0.967366        0.252465
0.875                  -0.967292        0.252747
0.876                  -0.967218         0.25303
0.877                  -0.967144        0.253313
0.878                   -0.96707        0.253595
0.879                  -0.966995        0.253878
0.88                   -0.966921         0.25416
0.881                  -0.966846        0.254443
0.882                  -0.966772        0.254725
0.883                  -0.966697        0.255008
0.884                  -0.966623         0.25529
0.885                  -0.966548        0.255573
0.886                  -0.966473        0.255855
0.887                  -0.966398        0.256137
0.888                  -0.966323         0.25642
0.889                  -0.966248        0.256702
0.89                   -0.966173        0.256985
0.891                  -0.966097        0.257267
0.892                  -0.966022        0.257549
0.893                  -0.965947        0.257831
0.894                  -0.965871        0.258114
0.895                  -0.965795        0.258396
0.896                   -0.96572        0.258678
0.897                  -0.965644         0.25896
0.898                  -0.965568        0.259243
0.899                  -0.965492        0.259525
0.9                    -0.965416        0.259807
0.901                   -0.96534        0.260089
0.902                  -0.965264        0.260371
0.903                  -0.965187        0.260653
0.904                  -0.965111        0.260935
0.905                  -0.965035        0.261217
0.906                  -0.964958        0.261499
0.907                  -0.964882        0.261781
0.908                  -0.964805        0.262063
0.909                  -0.964728        0.262345
0.91                   -0.964651        0.262627
0.911                  -0.964574        0.262909
0.912                  -0.964497        0.263191
0.913                   -0.96442        0.263473
0.914                  -0.964343        0.263755
0.915                  -0.964266        0.264036
0.916                  -0.964188        0.264318
0.917                  -0.964111          0.2646
0.918                  -0.964034        0.264882
0.919                  -0.963956        0.265163
0.92                   -0.963878        0.265445
0.921                  -0.963801        0.265727
0.922                  -0.963723        0.266008
0.923                  -0.963645         0.26629
0.924                  -0.963567        0.266572
0.925                  -0.963489        0.266853
0.926                  -0.963411        0.267135
0.927                  -0.963332        0.267416
0.928                  -0.963254        0.267698
0.929                  -0.963176        0.267979
0.93                   -0.963097        0.268261
0.931                  -0.963019        0.268542
0.932                   -0.96294        0.268824
0.933                  -0.962861        0.269105
0.934                  -0.962782        0.269387
0.935                  -0.962703        0.269668
0.936                  -0.962624        0.269949
0.937                  -0.962545        0.270231
0.938                  -0.962466        0.270512
0.939                  -0.962387        0.270793
0.94                   -0.962308        0.271075
0.941                  -0.962228        0.271356
0.942                  -0.962149        0.271637
0.943                  -0.962069        0.271918
0.944                  -0.961989        0.272199
0.945                   -0.96191         0.27248
0.946                   -0.96183        0.272761
0.947                   -0.96175        0.273043
0.948                   -0.96167        0.273324
0.949                   -0.96159        0.273605
0.95                    -0.96151        0.273886
0.951                   -0.96143        0.274167
0.952                  -0.961349        0.274448
0.953                  -0.961269        0.274729
0.954                  -0.961188         0.27501
0.955                  -0.961108        0.275291
0.956                  -0.961027        0.275571
0.957                  -0.960946        0.275853
0.958                  -0.960866        0.276133
0.959                  -0.960785        0.276414
0.96                   -0.960704        0.276695
0.961                  -0.960623        0.276976
0.962                  -0.960542        0.277256
0.963                   -0.96046        0.277537
0.964                  -0.960379        0.277818
0.965                  -0.960298        0.278099
0.966                  -0.960216        0.278379
0.967                  -0.960135         0.27866
0.968                  -0.960053        0.278941
0.969                  -0.959971        0.279221
0.97                    -0.95989        0.279502
0.971                  -0.959808        0.279782
0.972                  -0.959726        0.280063
0.973                  -0.959644        0.280343
0.974                  -0.959562        0.280624
0.975                  -0.959479        0.280904
0.976                  -0.959397        0.281185
0.977                  -0.959315        0.281465
0.978                  -0.959232        0.281746
0.979                   -0.95915        0.282026
0.98                   -0.959067        0.282306
0.981                  -0.958984        0.282587
0.982                  -0.958902        0.282867
0.983                  -0.958819        0.283147
0.984                  -0.958736        0.283428
0.985                  -0.958653        0.283708
0.986                   -0.95857        0.283988
0.987                  -0.958487        0.284268
0.988                  -0.958403        0.284548
0.989                   -0.95832        0.284829
0.99                   -0.958237        0.285108
0.991                  -0.958153        0.285389
0.992                  -0.958069        0.285669
0.993                  -0.957986        0.285949
0.994                  -0.957902        0.286229
0.995                  -0.957818        0.286509
0.996                  -0.957734        0.286789
0.997                   -0.95765        0.287069
0.998                  -0.957566        0.287349
0.999                  -0.957482        0.287628
1                      -0.957398        0.287908
1.001                  -0.957313        0.288188
1.002                  -0.957229        0.288468
1.003                  -0.957144        0.288748
1.004                   -0.95706        0.289028
1.005                  -0.956975        0.289307
1.006                   -0.95689        0.289587
1.007                  -0.956806        0.289867
1.008                  -0.956721        0.290147
1.009                  -0.956636        0.290426
1.01                   -0.956551        0.290706
1.011                  -0.956465        0.290985
1.012                   -0.95638        0.291265
1.013                  -0.956295        0.291545
1.014                  -0.956209        0.291824
1.015                  -0.956124        0.292104
1.016                  -0.956039        0.292383
1.017                  -0.955953        0.292663
1.018                  -0.955867        0.292942
1.019                  -0.955781        0.293222
1.02                   -0.955695        0.293501
1.021                  -0.955609         0.29378
1.022                  -0.955523         0.29406
1.023                  -0.955437        0.294339
1.024                  -0.955351        0.294618
1.025                  -0.955265        0.294898
1.026                  -0.955178        0.295177
1.027                  -0.955092        0.295456
1.028                  -0.955005        0.295735
1.029                  -0.954919        0.296015
1.03                   -0.954832        0.296294
1.031                  -0.954745        0.296573
1.032                  -0.954658        0.296852
1.033                  -0.954571        0.297131
1.034                  -0.954484         0.29741
1.035                  -0.954397        0.297689
1.036                   -0.95431        0.297968
1.037                  -0.954223        0.298247
1.038                  -0.954135        0.298526
1.039                  -0.954048        0.298805
1.04                    -0.95396        0.299084
1.041                  -0.953873        0.299363
1.042                  -0.953785        0.299642
1.043                  -0.953697        0.299921
1.044                  -0.953609        0.300199
1.045                  -0.953521        0.300478
1.046                  -0.953433        0.300757
1.047                  -0.953345        0.301036
1.048                  -0.953257        0.301314
1.049                  -0.953169        0.301593
1.05                    -0.95308        0.301872
1.051                  -0.952992         0.30215
1.052                  -0.952903        0.302429
1.053                  -0.952815        0.302708
1.054                  -0.952726        0.302986
1.055                  -0.952637        0.303265
1.056                  -0.952549        0.303543
1.057                   -0.95246        0.303822
1.058                  -0.952371          0.3041
1.059                  -0.952282        0.304379
1.06                   -0.952193        0.304657
1.061                  -0.952103        0.304936
1.062                  -0.952014        0.305214
1.063                  -0.951924        0.305492
1.064                  -0.951835         0.30577
1.065                  -0.951745        0.306049
1.066                  -0.951656        0.306327
1.067                  -0.951566        0.306605
1.068                  -0.951476        0.306884
1.069                  -0.951386        0.307162
1.07                   -0.951296         0.30744
1.071                  -0.951206        0.307718
1.072                  -0.951116        0.307996
1.073                  -0.951026        0.308274
1.074                  -0.950936        0.308552
1.075                  -0.950845         0.30883
1.076                  -0.950755        0.309108
1.077                  -0.950664        0.309386
1.078                  -0.950574        0.309664
1.079                  -0.950483        0.309942
1.08                   -0.950392         0.31022
1.081                  -0.950301        0.310498
1.082                   -0.95021        0.310776
1.083                  -0.950119        0.311054
1.084                  -0.950028        0.311332
1.085                  -0.949937        0.311609
1.086                  -0.949846        0.311887
1.087                  -0.949754        0.312165
1.088                  -0.949663        0.312443
1.089                  -0.949571         0.31272
1.09                    -0.94948        0.312998
1.091                  -0.949388        0.313276
1.092                  -0.949296        0.313553
1.093                  -0.949204        0.313831
1.094                  -0.949112        0.314108
1.095                   -0.94902        0.314386
1.096                  -0.948928        0.314663
1.097                  -0.948836        0.314941
1.098                  -0.948744        0.315218
1.099                  -0.948651        0.315496
1.1                    -0.948559        0.315773
1.101                  -0.948466        0.316051
1.102                  -0.948374        0.316328
1.103                  -0.948281        0.316605
1.104                  -0.948188        0.316882
1.105                  -0.948096         0.31716
1.106                  -0.948003        0.317437
1.107                   -0.94791        0.317714
1.108                  -0.947817        0.317991
1.109                  -0.947723        0.318269
1.11                    -0.94763        0.318546
1.111                  -0.947537        0.318823
1.112                  -0.947444          0.3191
1.113                   -0.94735        0.319377
1.114                  -0.947256        0.319654
1.115                  -0.947163        0.319931
1.116                  -0.947069        0.320208
1.117                  -0.946975        0.320485
1.118                  -0.946881        0.320762
1.119                  -0.946788        0.321039
1.12                   -0.946693        0.321316
1.121                  -0.946599        0.321593
1.122                  -0.946505         0.32187
1.123                  -0.946411        0.322146
1.124                  -0.946316        0.322423
1.125                  -0.946222          0.3227
1.126                  -0.946127        0.322977
1.127                  -0.946033        0.323253
1.128                  -0.945938         0.32353
1.129                  -0.945843        0.323807
1.13                   -0.945748        0.324083
1.131                  -0.945653         0.32436
1.132                  -0.945558        0.324636
1.133                  -0.945463        0.324913
1.134                  -0.945368        0.325189
1.135                  -0.945273        0.325466
1.136                  -0.945178        0.325742
1.137                  -0.945082        0.326019
1.138                  -0.944987        0.326295
1.139                  -0.944891        0.326571
1.14                   -0.944795        0.326848
1.141                    -0.9447        0.327124
1.142                  -0.944604          0.3274
1.143                  -0.944508        0.327677
1.144                  -0.944412        0.327953
1.145                  -0.944316        0.328229
1.146                   -0.94422        0.328505
1.147                  -0.944123        0.328781
1.148                  -0.944027        0.329058
1.149                  -0.943931        0.329334
1.15                   -0.943834         0.32961
1.151                  -0.943737        0.329886
1.152                  -0.943641        0.330162
1.153                  -0.943544        0.330438
1.154                  -0.943447        0.330714
1.155                   -0.94335         0.33099
1.156                  -0.943253        0.331266
1.157                  -0.943156        0.331542
1.158                  -0.943059        0.331817
1.159                  -0.942962        0.332093
1.16                   -0.942865        0.332369
1.161                  -0.942767        0.332645
1.162                   -0.94267         0.33292
1.163                  -0.942572        0.333196
1.164                  -0.942475        0.333472
1.165                  -0.942377        0.333748
1.166                  -0.942279        0.334023
1.167                  -0.942181        0.334299
1.168                  -0.942083        0.334575
1.169                  -0.941985         0.33485
1.17                   -0.941887        0.335126
1.171                  -0.941789        0.335401
1.172                  -0.941691        0.335677
1.173                  -0.941592        0.335952
1.174                  -0.941494        0.336227
1.175                  -0.941396        0.336503
1.176                  -0.941297        0.336778
1.177                  -0.941198        0.337053
1.178                  -0.941099        0.337329
1.179                  -0.941001        0.337604
1.18                   -0.940902        0.337879
1.181                  -0.940803        0.338155
1.182                  -0.940704         0.33843
1.183                  -0.940604        0.338705
1.184                  -0.940505         0.33898
1.185                  -0.940406        0.339255
1.186                  -0.940307         0.33953
1.187                  -0.940207        0.339805
1.188                  -0.940108         0.34008
1.189                  -0.940008        0.340355
1.19                   -0.939908        0.340631
1.191                  -0.939808        0.340905
1.192                  -0.939708         0.34118
1.193                  -0.939608        0.341455
1.194                  -0.939508         0.34173
1.195                  -0.939408        0.342005
1.196                  -0.939308         0.34228
1.197                  -0.939208        0.342554
1.198                  -0.939107        0.342829
1.199                  -0.939007        0.343104
1.2                    -0.938906        0.343379
1.201                  -0.938806        0.343653
1.202                  -0.938705        0.343928
1.203                  -0.938604        0.344203
1.204                  -0.938503        0.344477
1.205                  -0.938402        0.344752
1.206                  -0.938301        0.345026
1.207                    -0.9382        0.345301
1.208                  -0.938099        0.345575
1.209                  -0.937998         0.34585
1.21                   -0.937896        0.346124
1.211                  -0.937795        0.346399
1.212                  -0.937694        0.346673
1.213                  -0.937592        0.346947
1.214                   -0.93749        0.347221
1.215                  -0.937389        0.347496
1.216                  -0.937287         0.34777
1.217                  -0.937185        0.348044
1.218                  -0.937083        0.348318
1.219                  -0.936981        0.348593
1.22                   -0.936879        0.348867
1.221                  -0.936776        0.349141
1.222                  -0.936674        0.349415
1.223                  -0.936572        0.349689
1.224                  -0.936469        0.349963
1.225                  -0.936367        0.350237
1.226                  -0.936264        0.350511
1.227                  -0.936161        0.350785
1.228                  -0.936059        0.351059
1.229                  -0.935956        0.351333
1.23                   -0.935853        0.351607
1.231                   -0.93575         0.35188
1.232                  -0.935646        0.352154
1.233                  -0.935543        0.352428
1.234                   -0.93544        0.352701
1.235                  -0.935337        0.352975
1.236                  -0.935233        0.353249
1.237                   -0.93513        0.353523
1.238                  -0.935026        0.353796
1.239                  -0.934922         0.35407
1.24                   -0.934819        0.354343
1.241                  -0.934715        0.354617
1.242                  -0.934611         0.35489
1.243                  -0.934507        0.355164
1.244                  -0.934403        0.355437
1.245                  -0.934299         0.35571
1.246                  -0.934194        0.355984
1.247                   -0.93409        0.356257
1.248                  -0.933986        0.356531
1.249                  -0.933881        0.356804
1.25                   -0.933777        0.357077
1.251                  -0.933672        0.357351
1.252                  -0.933567        0.357623
1.253                  -0.933462        0.357897
1.254                  -0.933358         0.35817
1.255                  -0.933253        0.358443
1.256                  -0.933148        0.358716
1.257                  -0.933042        0.358989
1.258                  -0.932937        0.359262
1.259                  -0.932832        0.359535
1.26                   -0.932726        0.359808
1.261                  -0.932621        0.360081
1.262                  -0.932516        0.360354
1.263                   -0.93241        0.360627
1.264                  -0.932304          0.3609
1.265                  -0.932198        0.361173
1.266                  -0.932093        0.361445
1.267                  -0.931987        0.361718
1.268                  -0.931881        0.361991
1.269                  -0.931775        0.362263
1.27                   -0.931668        0.362536
1.271                  -0.931562        0.362809
1.272                  -0.931456        0.363081
1.273                  -0.931349        0.363354
1.274                  -0.931243        0.363627
1.275                  -0.931136        0.363899
1.276                   -0.93103        0.364171
1.277                  -0.930923        0.364444
1.278                  -0.930816        0.364716
1.279                  -0.930709        0.364989
1.28                   -0.930602        0.365261
1.281                  -0.930495        0.365534
1.282                  -0.930388        0.365806
1.283                  -0.930281        0.366078
1.284                  -0.930173         0.36635
1.285                  -0.930066        0.366622
1.286                  -0.929959        0.366895
1.287                  -0.929851        0.367167
1.288                  -0.929744        0.367439
1.289                  -0.929636        0.367711
1.29                   -0.929528        0.367983
1.291                   -0.92942        0.368255
1.292                  -0.929312        0.368527
1.293                  -0.929204        0.368799
1.294                  -0.929096        0.369071
1.295                  -0.928988        0.369343
1.296                   -0.92888        0.369615
1.297                  -0.928771        0.369887
1.298                  -0.928663        0.370159
1.299                  -0.928555         0.37043
1.3                    -0.928446        0.370702
1.301                  -0.928337        0.370974
1.302                  -0.928228        0.371246
1.303                   -0.92812        0.371517
1.304                  -0.928011        0.371789
1.305                  -0.927902        0.372061
1.306                  -0.927793        0.372332
1.307                  -0.927684        0.372604
1.308                  -0.927574        0.372875
1.309                  -0.927465        0.373147
1.31                   -0.927356        0.373418
1.311                  -0.927246        0.373689
1.312                  -0.927137        0.373961
1.313                  -0.927027        0.374232
1.314                  -0.926917        0.374504
1.315                  -0.926808        0.374775
1.316                  -0.926698        0.375046
1.317                  -0.926588        0.375318
1.318                  -0.926478        0.375589
1.319                  -0.926368         0.37586
1.32                   -0.926257        0.376131
1.321                  -0.926147        0.376402
1.322                  -0.926037        0.376673
1.323                  -0.925927        0.376944
1.324                  -0.925816        0.377215
1.325                  -0.925706        0.377486
1.326                  -0.925595        0.377757
1.327                  -0.925484        0.378028
1.328                  -0.925373        0.378299
1.329                  -0.925262         0.37857
1.33                   -0.925151        0.378841
1.331                   -0.92504        0.379112
1.332                  -0.924929        0.379382
1.333                  -0.924818        0.379653
1.334                  -0.924707        0.379924
1.335                  -0.924595        0.380194
1.336                  -0.924484        0.380465
1.337                  -0.924372        0.380736
1.338                  -0.924261        0.381006
1.339                  -0.924149        0.381277
1.34                   -0.924037        0.381547
1.341                  -0.923925        0.381818
1.342                  -0.923814        0.382088
1.343                  -0.923701        0.382359
1.344                  -0.923589        0.382629
1.345                  -0.923477          0.3829
1.346                  -0.923365         0.38317
1.347                  -0.923253         0.38344
1.348                   -0.92314        0.383711
1.349                  -0.923028        0.383981
1.35                   -0.922915        0.384251
1.351                  -0.922803        0.384521
1.352                   -0.92269        0.384791
1.353                  -0.922577        0.385061
1.354                  -0.922464        0.385331
1.355                  -0.922351        0.385602
1.356                  -0.922238        0.385871
1.357                  -0.922125        0.386142
1.358                  -0.922012        0.386411
1.359                  -0.921898        0.386681
1.36                   -0.921785        0.386951
1.361                  -0.921672        0.387221
1.362                  -0.921558        0.387491
1.363                  -0.921445        0.387761
1.364                  -0.921331        0.388031
1.365                  -0.921217          0.3883
1.366                  -0.921103         0.38857
1.367                  -0.920989         0.38884
1.368                  -0.920875        0.389109
1.369                  -0.920761        0.389379
1.37                   -0.920647        0.389648
1.371                  -0.920533        0.389918
1.372                  -0.920418        0.390188
1.373                  -0.920304        0.390457
1.374                   -0.92019        0.390727
1.375                  -0.920075        0.390996
1.376                   -0.91996        0.391265
1.377                  -0.919845        0.391535
1.378                  -0.919731        0.391804
1.379                  -0.919616        0.392073
1.38                   -0.919501        0.392342
1.381                  -0.919386        0.392612
1.382                  -0.919271        0.392881
1.383                  -0.919156         0.39315
1.384                   -0.91904        0.393419
1.385                  -0.918925        0.393688
1.386                  -0.918809        0.393957
1.387                  -0.918694        0.394226
1.388                  -0.918578        0.394495
1.389                  -0.918463        0.394764
1.39                   -0.918347        0.395033
1.391                  -0.918231        0.395302
1.392                  -0.918115        0.395571
1.393                  -0.917999         0.39584
1.394                  -0.917883        0.396108
1.395                  -0.917767        0.396377
1.396                  -0.917651        0.396646
1.397                  -0.917534        0.396915
1.398                  -0.917418        0.397183
1.399                  -0.917302        0.397452
1.4                    -0.917185        0.397721
1.401                  -0.917068        0.397989
1.402                  -0.916952        0.398258
1.403                  -0.916835        0.398526
1.404                  -0.916718        0.398795
1.405                  -0.916601        0.399063
1.406                  -0.916484        0.399331
1.407                  -0.916367          0.3996
1.408                   -0.91625        0.399868
1.409                  -0.916133        0.400137
1.41                   -0.916015        0.400405
1.411                  -0.915898        0.400673
1.412                   -0.91578        0.400941
1.413                  -0.915663        0.401209
1.414                  -0.915545        0.401478
1.415                  -0.915427        0.401746
1.416                   -0.91531        0.402014
1.417                  -0.915192        0.402282
1.418                  -0.915074         0.40255
1.419                  -0.914956        0.402818
1.42                   -0.914838        0.403086
1.421                  -0.914719        0.403354
1.422                  -0.914601        0.403622
1.423                  -0.914483        0.403889
1.424                  -0.914364        0.404157
1.425                  -0.914246        0.404425
1.426                  -0.914127        0.404693
1.427                  -0.914009         0.40496
1.428                   -0.91389        0.405228
1.429                  -0.913771        0.405496
1.43                   -0.913652        0.405763
1.431                  -0.913533        0.406031
1.432                  -0.913414        0.406298
1.433                  -0.913295        0.406566
1.434                  -0.913175        0.406833
1.435                  -0.913056        0.407101
1.436                  -0.912937        0.407368
1.437                  -0.912817        0.407635
1.438                  -0.912698        0.407903
1.439                  -0.912578         0.40817
1.44                   -0.912458        0.408437
1.441                  -0.912339        0.408705
1.442                  -0.912219        0.408972
1.443                  -0.912099        0.409239
1.444                  -0.911979        0.409506
1.445                  -0.911859        0.409773
1.446                  -0.911739         0.41004
1.447                  -0.911618        0.410307
1.448                  -0.911498        0.410574
1.449                  -0.911378        0.410841
1.45                   -0.911257        0.411108
1.451                  -0.911136        0.411375
1.452                  -0.911016        0.411642
1.453                  -0.910895        0.411909
1.454                  -0.910774        0.412175
1.455                  -0.910653        0.412442
1.456                  -0.910532        0.412709
1.457                  -0.910411        0.412976
1.458                   -0.91029        0.413243
1.459                  -0.910169        0.413509
1.46                   -0.910048        0.413776
1.461                  -0.909926        0.414042
1.462                  -0.909805        0.414309
1.463                  -0.909683        0.414575
1.464                  -0.909562        0.414842
1.465                   -0.90944        0.415108
1.466                  -0.909318        0.415374
1.467                  -0.909196        0.415641
1.468                  -0.909074        0.415907
1.469                  -0.908952        0.416174
1.47                    -0.90883         0.41644
1.471                  -0.908708        0.416706
1.472                  -0.908586        0.416972
1.473                  -0.908464        0.417238
1.474                  -0.908341        0.417504
1.475                  -0.908219         0.41777
1.476                  -0.908096        0.418036
1.477                  -0.907974        0.418302
1.478                  -0.907851        0.418568
1.479                  -0.907728        0.418834
1.48                   -0.907605          0.4191
1.481                  -0.907482        0.419366
1.482                  -0.907359        0.419632
1.483                  -0.907236        0.419898
1.484                  -0.907113        0.420164
1.485                   -0.90699        0.420429
1.486                  -0.906867        0.420695
1.487                  -0.906743        0.420961
1.488                   -0.90662        0.421226
1.489                  -0.906496        0.421492
1.49                   -0.906372        0.421757
1.491                  -0.906249        0.422023
1.492                  -0.906125        0.422288
1.493                  -0.906001        0.422554
1.494                  -0.905877        0.422819
1.495                  -0.905753        0.423085
1.496                  -0.905629         0.42335
1.497                  -0.905505        0.423615
1.498                   -0.90538         0.42388
1.499                  -0.905256        0.424146
1.5                    -0.905132        0.424411
1.501                  -0.905007        0.424676
1.502                  -0.904883        0.424941
1.503                  -0.904758        0.425206
1.504                  -0.904633        0.425471
1.505                  -0.904508        0.425737
1.506                  -0.904384        0.426001
1.507                  -0.904259        0.426266
1.508                  -0.904133        0.426531
1.509                  -0.904008        0.426796
1.51                   -0.903883        0.427061
1.511                  -0.903758        0.427326
1.512                  -0.903633        0.427591
1.513                  -0.903507        0.427855
1.514                  -0.903382         0.42812
1.515                  -0.903256        0.428385
1.516                   -0.90313        0.428649
1.517                  -0.903005        0.428914
1.518                  -0.902879        0.429179
1.519                  -0.902753        0.429443
1.52                   -0.902627        0.429708
1.521                  -0.902501        0.429972
1.522                  -0.902375        0.430237
1.523                  -0.902248        0.430501
1.524                  -0.902122        0.430765
1.525                  -0.901996         0.43103
1.526                  -0.901869        0.431294
1.527                  -0.901743        0.431558
1.528                  -0.901616        0.431822
1.529                  -0.901489        0.432087
1.53                   -0.901363        0.432351
1.531                  -0.901236        0.432615
1.532                  -0.901109        0.432879
1.533                  -0.900982        0.433143
1.534                  -0.900855        0.433407
1.535                  -0.900727        0.433671
1.536                    -0.9006        0.433935
1.537                  -0.900473        0.434199
1.538                  -0.900346        0.434463
1.539                  -0.900218        0.434727
1.54                   -0.900091         0.43499
1.541                  -0.899963        0.435254
1.542                  -0.899835        0.435518
1.543                  -0.899707        0.435781
1.544                   -0.89958        0.436045
1.545                  -0.899452        0.436308
1.546                  -0.899323        0.436572
1.547                  -0.899196        0.436836
1.548                  -0.899067        0.437099
1.549                  -0.898939        0.437363
1.55                   -0.898811        0.437626
1.551                  -0.898682        0.437889
1.552                  -0.898554        0.438153
1.553                  -0.898425        0.438416
1.554                  -0.898297        0.438679
1.555                  -0.898168        0.438943
1.556                  -0.898039        0.439206
1.557                   -0.89791        0.439469
1.558                  -0.897781        0.439732
1.559                  -0.897652        0.439995
1.56                   -0.897523        0.440258
1.561                  -0.897394        0.440521
1.562                  -0.897265        0.440784
1.563                  -0.897135        0.441047
1.564                  -0.897006         0.44131
1.565                  -0.896876        0.441573
1.566                  -0.896747        0.441836
1.567                  -0.896617        0.442099
1.568                  -0.896487        0.442361
1.569                  -0.896358        0.442624
1.57                   -0.896228        0.442887
1.571                  -0.896098        0.443149
1.572                  -0.895968        0.443412
1.573                  -0.895837        0.443675
1.574                  -0.895707        0.443937
1.575                  -0.895577          0.4442
1.576                  -0.895447        0.444462
1.577                  -0.895316        0.444725
1.578                  -0.895186        0.444987
1.579                  -0.895055        0.445249
1.58                   -0.894925        0.445512
1.581                  -0.894794        0.445774
1.582                  -0.894663        0.446036
1.583                  -0.894532        0.446299
1.584                  -0.894401        0.446561
1.585                   -0.89427        0.446823
1.586                  -0.894139        0.447085
1.587                  -0.894008        0.447347
1.588                  -0.893876        0.447609
1.589                  -0.893745        0.447871
1.59                   -0.893614        0.448133
1.591                  -0.893482        0.448395
1.592                  -0.893351        0.448657
1.593                  -0.893219        0.448919
1.594                  -0.893087        0.449181
1.595                  -0.892955        0.449442
1.596                  -0.892823        0.449704
1.597                  -0.892691        0.449966
1.598                  -0.892559        0.450227
1.599                  -0.892427        0.450489
1.6                    -0.892295         0.45075
1.601                  -0.892163        0.451012
1.602                   -0.89203        0.451274
1.603                  -0.891898        0.451535
1.604                  -0.891765        0.451796
1.605                  -0.891633        0.452058
1.606                    -0.8915        0.452319
1.607                  -0.891367        0.452581
1.608                  -0.891234        0.452842
1.609                  -0.891102        0.453103
1.61                   -0.890969        0.453364
1.611                  -0.890836        0.453625
1.612                  -0.890702        0.453887
1.613                  -0.890569        0.454148
1.614                  -0.890436        0.454409
1.615                  -0.890303         0.45467
1.616                  -0.890169        0.454931
1.617                  -0.890036        0.455192
1.618                  -0.889902        0.455453
1.619                  -0.889768        0.455713
1.62                   -0.889634        0.455974
1.621                  -0.889501        0.456235
1.622                  -0.889367        0.456496
1.623                  -0.889233        0.456757
1.624                  -0.889099        0.457017
1.625                  -0.888965        0.457278
1.626                   -0.88883        0.457539
1.627                  -0.888696        0.457799
1.628                  -0.888562         0.45806
1.629                  -0.888427         0.45832
1.63                   -0.888293        0.458581
1.631                  -0.888158        0.458841
1.632                  -0.888023        0.459101
1.633                  -0.887889        0.459362
1.634                  -0.887754        0.459622
1.635                  -0.887619        0.459882
1.636                  -0.887484        0.460143
1.637                  -0.887349        0.460403
1.638                  -0.887214        0.460663
1.639                  -0.887078        0.460923
1.64                   -0.886943        0.461183
1.641                  -0.886808        0.461443
1.642                  -0.886672        0.461703
1.643                  -0.886537        0.461963
1.644                  -0.886401        0.462223
1.645                  -0.886266        0.462483
1.646                   -0.88613        0.462743
1.647                  -0.885994        0.463003
1.648                  -0.885858        0.463262
1.649                  -0.885722        0.463522
1.65                   -0.885586        0.463782
1.651                   -0.88545        0.464042
1.652                  -0.885314        0.464301
1.653                  -0.885177        0.464561
1.654                  -0.885041         0.46482
1.655                  -0.884904         0.46508
1.656                  -0.884768        0.465339
1.657                  -0.884631        0.465599
1.658                  -0.884495        0.465858
1.659                  -0.884358        0.466117
1.66                   -0.884221        0.466377
1.661                  -0.884084        0.466636
1.662                  -0.883947        0.466895
1.663                   -0.88381        0.467154
1.664                  -0.883673        0.467413
1.665                  -0.883536        0.467673
1.666                  -0.883398        0.467932
1.667                  -0.883261        0.468191
1.668                  -0.883124         0.46845
1.669                  -0.882986        0.468709
1.67                   -0.882848        0.468968
1.671                  -0.882711        0.469227
1.672                  -0.882573        0.469486
1.673                  -0.882435        0.469744
1.674                  -0.882297        0.470003
1.675                  -0.882159        0.470262
1.676                  -0.882021         0.47052
1.677                  -0.881883        0.470779
1.678                  -0.881745        0.471038
1.679                  -0.881606        0.471296
1.68                   -0.881468        0.471555
1.681                   -0.88133        0.471813
1.682                  -0.881191        0.472072
1.683                  -0.881053         0.47233
1.684                  -0.880914        0.472589
1.685                  -0.880775        0.472847
1.686                  -0.880636        0.473105
1.687                  -0.880497        0.473364
1.688                  -0.880358        0.473622
1.689                  -0.880219         0.47388
1.69                    -0.88008        0.474138
1.691                  -0.879941        0.474396
1.692                  -0.879802        0.474654
1.693                  -0.879662        0.474912
1.694                  -0.879523         0.47517
1.695                  -0.879383        0.475428
1.696                  -0.879244        0.475686
1.697                  -0.879104        0.475944
1.698                  -0.878964        0.476202
1.699                  -0.878824         0.47646
1.7                    -0.878685        0.476717
1.701                  -0.878545        0.476975
1.702                  -0.878405        0.477233
1.703                  -0.878265         0.47749
1.704                  -0.878124        0.477748
1.705                  -0.877984        0.478005
1.706                  -0.877844        0.478263
1.707                  -0.877703         0.47852
1.708                  -0.877563        0.478778
1.709                  -0.877422        0.479035
1.71                   -0.877281        0.479293
1.711                  -0.877141         0.47955
1.712                     -0.877        0.479807
1.713                  -0.876859        0.480065
1.714                  -0.876718        0.480321
1.715                  -0.876577        0.480579
1.716                  -0.876436        0.480836
1.717                  -0.876295        0.481093
1.718                  -0.876153         0.48135
1.719                  -0.876012        0.481607
1.72                   -0.875871        0.481864
1.721                  -0.875729        0.482121
1.722                  -0.875588        0.482378
1.723                  -0.875446        0.482635
1.724                  -0.875304        0.482891
1.725                  -0.875162        0.483148
1.726                  -0.875021        0.483405
1.727                  -0.874879        0.483662
1.728                  -0.874736        0.483918
1.729                  -0.874594        0.484175
1.73                   -0.874452        0.484431
1.731                   -0.87431        0.484688
1.732                  -0.874168        0.484944
1.733                  -0.874025        0.485201
1.734                  -0.873882        0.485457
1.735                   -0.87374        0.485714
1.736                  -0.873597         0.48597
1.737                  -0.873455        0.486226
1.738                  -0.873312        0.486483
1.739                  -0.873169        0.486739
1.74                   -0.873026        0.486995
1.741                  -0.872883        0.487251
1.742                   -0.87274        0.487507
1.743                  -0.872597        0.487763
1.744                  -0.872453        0.488019
1.745                   -0.87231        0.488275
1.746                  -0.872167        0.488531
1.747                  -0.872023        0.488787
1.748                   -0.87188        0.489043
1.749                  -0.871736        0.489299
1.75                   -0.871592        0.489554
1.751                  -0.871449         0.48981
1.752                  -0.871305        0.490066
1.753                  -0.871161        0.490321
1.754                  -0.871017        0.490577
1.755                  -0.870873        0.490833
1.756                  -0.870729        0.491088
1.757                  -0.870584        0.491343
1.758                   -0.87044        0.491599
1.759                  -0.870296        0.491854
1.76                   -0.870151        0.492109
1.761                  -0.870006        0.492365
1.762                  -0.869862         0.49262
1.763                  -0.869717        0.492875
1.764                  -0.869572        0.493131
1.765                  -0.869428        0.493386
1.766                  -0.869283        0.493641
1.767                  -0.869138        0.493896
1.768                  -0.868993        0.494151
1.769                  -0.868847        0.494406
1.77                   -0.868702        0.494661
1.771                  -0.868557        0.494916
1.772                  -0.868412        0.495171
1.773                  -0.868266        0.495425
1.774                  -0.868121         0.49568
1.775                  -0.867975        0.495935
1.776                  -0.867829         0.49619
1.777                  -0.867684        0.496444
1.778                  -0.867538        0.496699
1.779                  -0.867392        0.496954
1.78                   -0.867246        0.497208
1.781                    -0.8671        0.497462
1.782                  -0.866954        0.497717
1.783                  -0.866807        0.497971
1.784                  -0.866661        0.498226
1.785                  -0.866515         0.49848
1.786                  -0.866368        0.498734
1.787                  -0.866222        0.498989
1.788                  -0.866075        0.499243
1.789                  -0.865928        0.499497
1.79                   -0.865782        0.499751
1.791                  -0.865635        0.500005
1.792                  -0.865488        0.500259
1.793                  -0.865341        0.500513
1.794                  -0.865194        0.500767
1.795                  -0.865047        0.501021
1.796                    -0.8649        0.501275
1.797                  -0.864752        0.501529
1.798                  -0.864605        0.501782
1.799                  -0.864458        0.502036
1.8                     -0.86431         0.50229
1.801                  -0.864163        0.502544
1.802                  -0.864015        0.502797
1.803                  -0.863867        0.503051
1.804                   -0.86372        0.503304
1.805                  -0.863572        0.503558
1.806                  -0.863424        0.503811
1.807                  -0.863276        0.504065
1.808                  -0.863128        0.504318
1.809                   -0.86298        0.504571
1.81                   -0.862831        0.504825
1.811                  -0.862683        0.505078
1.812                  -0.862535        0.505331
1.813                  -0.862386        0.505584
1.814                  -0.862237        0.505837
1.815                  -0.862089         0.50609
1.816                   -0.86194        0.506344
1.817                  -0.861791        0.506597
1.818                  -0.861642         0.50685
1.819                  -0.861494        0.507102
1.82                   -0.861345        0.507355
1.821                  -0.861195        0.507608
1.822                  -0.861046        0.507861
1.823                  -0.860897        0.508114
1.824                  -0.860748        0.508366
1.825                  -0.860598        0.508619
1.826                  -0.860449        0.508871
1.827                    -0.8603        0.509124
1.828                   -0.86015        0.509377
1.829                      -0.86        0.509629
1.83                   -0.859851        0.509882
1.831                  -0.859701        0.510134
1.832                  -0.859551        0.510387
1.833                  -0.859401        0.510639
1.834                  -0.859251        0.510891
1.835                    -0.8591        0.511143
1.836                   -0.85895        0.511395
1.837                    -0.8588        0.511648
1.838                   -0.85865          0.5119
1.839                  -0.858499        0.512152
1.84                   -0.858349        0.512404
1.841                  -0.858198        0.512656
1.842                  -0.858048        0.512908
1.843                  -0.857897         0.51316
1.844                  -0.857746        0.513412
1.845                  -0.857595        0.513663
1.846                  -0.857444        0.513915
1.847                  -0.857293        0.514167
1.848                  -0.857142        0.514418
1.849                  -0.856991         0.51467
1.85                    -0.85684        0.514922
1.851                  -0.856688        0.515173
1.852                  -0.856537        0.515425
1.853                  -0.856385        0.515676
1.854                  -0.856234        0.515928
1.855                  -0.856082        0.516179
1.856                  -0.855931         0.51643
1.857                  -0.855779        0.516682
1.858                  -0.855627        0.516933
1.859                  -0.855475        0.517184
1.86                   -0.855323        0.517435
1.861                  -0.855171        0.517686
1.862                  -0.855019        0.517938
1.863                  -0.854866        0.518189
1.864                  -0.854714         0.51844
1.865                  -0.854562        0.518691
1.866                  -0.854409        0.518941
1.867                  -0.854257        0.519192
1.868                  -0.854104        0.519443
1.869                  -0.853952        0.519694
1.87                   -0.853799        0.519945
1.871                  -0.853646        0.520195
1.872                  -0.853493        0.520446
1.873                   -0.85334        0.520697
1.874                  -0.853187        0.520947
1.875                  -0.853034        0.521198
1.876                  -0.852881        0.521448
1.877                  -0.852727        0.521699
1.878                  -0.852574        0.521949
1.879                  -0.852421        0.522199
1.88                   -0.852267         0.52245
1.881                  -0.852114          0.5227
1.882                   -0.85196         0.52295
1.883                  -0.851806        0.523201
1.884                  -0.851652        0.523451
1.885                  -0.851498        0.523701
1.886                  -0.851345        0.523951
1.887                  -0.851191        0.524201
1.888                  -0.851036        0.524451
1.889                  -0.850882        0.524701
1.89                   -0.850728        0.524951
1.891                  -0.850574          0.5252
1.892                  -0.850419         0.52545
1.893                  -0.850265          0.5257
1.894                   -0.85011         0.52595
1.895                  -0.849956        0.526199
1.896                  -0.849801        0.526449
1.897                  -0.849646        0.526698
1.898                  -0.849491        0.526948
1.899                  -0.849337        0.527197
1.9                    -0.849182        0.527447
1.901                  -0.849027        0.527696
1.902                  -0.848871        0.527946
1.903                  -0.848716        0.528195
1.904                  -0.848561        0.528444
1.905                  -0.848406        0.528693
1.906                   -0.84825        0.528942
1.907                  -0.848094        0.529192
1.908                  -0.847939        0.529441
1.909                  -0.847783         0.52969
1.91                   -0.847627        0.529939
1.911                  -0.847472        0.530188
1.912                  -0.847316        0.530437
1.913                   -0.84716        0.530686
1.914                  -0.847004        0.530934
1.915                  -0.846848        0.531183
1.916                  -0.846692        0.531432
1.917                  -0.846535        0.531681
1.918                  -0.846379        0.531929
1.919                  -0.846223        0.532178
1.92                   -0.846066        0.532426
1.921                   -0.84591        0.532675
1.922                  -0.845753        0.532923
1.923                  -0.845596        0.533172
1.924                   -0.84544         0.53342
1.925                  -0.845283        0.533668
1.926                  -0.845126        0.533917
1.927                  -0.844969        0.534165
1.928                  -0.844811        0.534413
1.929                  -0.844655        0.534662
1.93                   -0.844497         0.53491
1.931                   -0.84434        0.535158
1.932                  -0.844183        0.535406
1.933                  -0.844025        0.535654
1.934                  -0.843868        0.535902
1.935                   -0.84371        0.536149
1.936                  -0.843552        0.536397
1.937                  -0.843395        0.536645
1.938                  -0.843237        0.536893
1.939                  -0.843079        0.537141
1.94                   -0.842921        0.537388
1.941                  -0.842763        0.537636
1.942                  -0.842605        0.537883
1.943                  -0.842447        0.538131
1.944                  -0.842288        0.538378
1.945                   -0.84213        0.538626
1.946                  -0.841972        0.538873
1.947                  -0.841813        0.539121
1.948                  -0.841655        0.539368
1.949                  -0.841496        0.539615
1.95                   -0.841337        0.539863
1.951                  -0.841179         0.54011
1.952                   -0.84102        0.540357
1.953                  -0.840861        0.540604
1.954                  -0.840702        0.540851
1.955                  -0.840543        0.541098
1.956                  -0.840383        0.541345
1.957                  -0.840224        0.541592
1.958                  -0.840065        0.541839
1.959                  -0.839906        0.542085
1.96                   -0.839746        0.542332
1.961                  -0.839587        0.542579
1.962                  -0.839427        0.542826
1.963                  -0.839268        0.543072
1.964                  -0.839108        0.543319
1.965                  -0.838948        0.543565
1.966                  -0.838788        0.543812
1.967                  -0.838628        0.544058
1.968                  -0.838468        0.544305
1.969                  -0.838308        0.544551
1.97                   -0.838148        0.544797
1.971                  -0.837988        0.545044
1.972                  -0.837827         0.54529
1.973                  -0.837667        0.545536
1.974                  -0.837506        0.545782
1.975                  -0.837346        0.546028
1.976                  -0.837185        0.546274
1.977                  -0.837025         0.54652
1.978                  -0.836864        0.546766
1.979                  -0.836703        0.547012
1.98                   -0.836542        0.547258
1.981                  -0.836381        0.547504
1.982                   -0.83622         0.54775
1.983                  -0.836059        0.547995
1.984                  -0.835897        0.548241
1.985                  -0.835736        0.548487
1.986                  -0.835575        0.548732
1.987                  -0.835414        0.548978
1.988                  -0.835252        0.549223
1.989                  -0.835091        0.549469
1.99                   -0.834929        0.549714
1.991                  -0.834767        0.549959
1.992                  -0.834605        0.550205
1.993                  -0.834443         0.55045
1.994                  -0.834281        0.550695
1.995                   -0.83412         0.55094
1.996                  -0.833957        0.551186
1.997                  -0.833795         0.55143
1.998                  -0.833633        0.551676
1.999                  -0.833471        0.551921
2                      -0.833308        0.552166
