! TOUCHSTONE file generated by CST MICROWAVE STUDIO
! Date and time: Tue Aug  4 15:55:24 2026
! Project name: Sonda-Coaxial_21mm_DisifixB_v2_Agua_Dest.cst
! Parameters = {h_recipiente=20; l_conector=5; r_arandela=35; r_ext=10.5; r_int=3; r_recipiente=50; z_recipiente=-5}
! Header version: 2018
! Port assignment regex: !\s*Touchstone port\s*([0-9]+)\s*=\s*(CST MWS port|CST DS port)\s*([0-9]+|Zmin|Zmax)\s*\(\"(.*)\"\)(\s*mode\s*([0-9]+))?.*
! Touchstone port assignment:
! Touchstone port 1 = CST MWS port 1 ("")
# GHz S RI R 50
0.001                   0.999967     -0.00812178
0.002                   0.999863       -0.016243
0.003                   0.999689      -0.0243629
0.004                   0.999447      -0.0324811
0.005                   0.999135      -0.0405968
0.006                   0.998753      -0.0487094
0.007                   0.998303      -0.0568183
0.008                   0.997784      -0.0649229
0.009                   0.997197      -0.0730225
0.01                     0.99654      -0.0811165
0.011                   0.995815      -0.0892042
0.012                   0.995022      -0.0972849
0.013                   0.994161       -0.105358
0.014                   0.993233       -0.113423
0.015                   0.992236       -0.121478
0.016                   0.991173       -0.129524
0.017                   0.990042       -0.137559
0.018                   0.988844       -0.145583
0.019                    0.98758       -0.153595
0.02                    0.986249       -0.161594
0.021                   0.984852       -0.169579
0.022                    0.98339        -0.17755
0.023                   0.981862       -0.185507
0.024                   0.980268       -0.193447
0.025                    0.97861       -0.201371
0.026                   0.976886       -0.209277
0.027                   0.975099       -0.217165
0.028                   0.973247       -0.225034
0.029                   0.971331       -0.232884
0.03                    0.969351       -0.240713
0.031                   0.967308       -0.248521
0.032                   0.965202       -0.256306
0.033                   0.963034       -0.264069
0.034                   0.960803       -0.271809
0.035                    0.95851       -0.279524
0.036                   0.956155       -0.287214
0.037                   0.953739       -0.294879
0.038                   0.951262       -0.302516
0.039                   0.948725       -0.310127
0.04                    0.946127       -0.317709
0.041                   0.943469       -0.325263
0.042                   0.940752       -0.332788
0.043                   0.937975       -0.340282
0.044                    0.93514       -0.347745
0.045                   0.932247       -0.355177
0.046                   0.929296       -0.362577
0.047                   0.926287       -0.369943
0.048                   0.923222       -0.377276
0.049                     0.9201       -0.384575
0.05                    0.916922       -0.391839
0.051                   0.913688       -0.399067
0.052                     0.9104       -0.406259
0.053                   0.907057       -0.413414
0.054                    0.90366       -0.420531
0.055                   0.900209       -0.427611
0.056                   0.896706       -0.434651
0.057                    0.89315       -0.441653
0.058                   0.889542       -0.448614
0.059                   0.885884       -0.455535
0.06                    0.882174       -0.462415
0.061                   0.878415       -0.469253
0.062                   0.874606        -0.47605
0.063                   0.870748       -0.482803
0.064                   0.866841       -0.489513
0.065                   0.862888        -0.49618
0.066                   0.858887       -0.502802
0.067                    0.85484        -0.50938
0.068                   0.850747       -0.515912
0.069                   0.846609       -0.522399
0.07                    0.842427       -0.528839
0.071                   0.838202       -0.535233
0.072                   0.833933       -0.541581
0.073                   0.829622        -0.54788
0.074                   0.825269       -0.554133
0.075                   0.820876       -0.560337
0.076                   0.816443       -0.566492
0.077                    0.81197       -0.572599
0.078                   0.807458       -0.578656
0.079                   0.802909       -0.584664
0.08                    0.798322       -0.590622
0.081                   0.793699       -0.596531
0.082                    0.78904       -0.602388
0.083                   0.784346       -0.608196
0.084                   0.779618       -0.613952
0.085                   0.774857       -0.619657
0.086                   0.770062       -0.625311
0.087                   0.765236       -0.630914
0.088                   0.760379       -0.636465
0.089                   0.755491       -0.641964
0.09                    0.750574       -0.647411
0.091                   0.745627       -0.652806
0.092                   0.740653       -0.658149
0.093                   0.735651        -0.66344
0.094                   0.730622       -0.668678
0.095                   0.725567       -0.673864
0.096                   0.720488       -0.678997
0.097                   0.715384       -0.684078
0.098                   0.710256       -0.689106
0.099                   0.705105       -0.694081
0.1                     0.699933       -0.699004
0.101                   0.694739       -0.703875
0.102                   0.689524       -0.708693
0.103                   0.684289       -0.713459
0.104                   0.679035       -0.718172
0.105                   0.673762       -0.722833
0.106                   0.668472       -0.727442
0.107                   0.663164       -0.731999
0.108                    0.65784       -0.736504
0.109                     0.6525       -0.740957
0.11                    0.647145       -0.745359
0.111                   0.641776       -0.749709
0.112                   0.636392       -0.754008
0.113                   0.630995       -0.758256
0.114                   0.625587       -0.762452
0.115                   0.620166       -0.766599
0.116                   0.614734       -0.770694
0.117                   0.609291       -0.774739
0.118                   0.603838       -0.778735
0.119                   0.598375       -0.782681
0.12                    0.592904       -0.786577
0.121                   0.587424       -0.790424
0.122                   0.581936       -0.794222
0.123                   0.576441       -0.797972
0.124                   0.570939       -0.801673
0.125                   0.565431       -0.805326
0.126                   0.559917       -0.808931
0.127                   0.554398       -0.812489
0.128                   0.548873          -0.816
0.129                   0.543345       -0.819465
0.13                    0.537812       -0.822882
0.131                   0.532276       -0.826254
0.132                   0.526736       -0.829579
0.133                   0.521195        -0.83286
0.134                    0.51565       -0.836095
0.135                   0.510104       -0.839285
0.136                   0.504556       -0.842431
0.137                   0.499007       -0.845533
0.138                   0.493457       -0.848592
0.139                   0.487906       -0.851606
0.14                    0.482355       -0.854578
0.141                   0.476804       -0.857507
0.142                   0.471254       -0.860394
0.143                   0.465704       -0.863239
0.144                   0.460154       -0.866042
0.145                   0.454606       -0.868804
0.146                   0.449059       -0.871525
0.147                   0.443514       -0.874205
0.148                   0.437971       -0.876845
0.149                   0.432429       -0.879445
0.15                     0.42689       -0.882005
0.151                   0.421353       -0.884526
0.152                   0.415818       -0.887008
0.153                   0.410287       -0.889451
0.154                   0.404758       -0.891855
0.155                   0.399232       -0.894221
0.156                   0.393709        -0.89655
0.157                    0.38819       -0.898841
0.158                   0.382674       -0.901095
0.159                   0.377161       -0.903311
0.16                    0.371652       -0.905491
0.161                   0.366147       -0.907634
0.162                   0.360645       -0.909741
0.163                   0.355148       -0.911811
0.164                   0.349654       -0.913846
0.165                   0.344165       -0.915846
0.166                    0.33868       -0.917809
0.167                   0.333199       -0.919738
0.168                   0.327722       -0.921632
0.169                   0.322249        -0.92349
0.17                    0.316781       -0.925314
0.171                   0.311318       -0.927104
0.172                   0.305859       -0.928859
0.173                   0.300405        -0.93058
0.174                   0.294955       -0.932267
0.175                    0.28951        -0.93392
0.176                    0.28407       -0.935539
0.177                   0.278635       -0.937125
0.178                   0.273205       -0.938677
0.179                   0.267779       -0.940195
0.18                    0.262359       -0.941681
0.181                   0.256944       -0.943133
0.182                   0.251534       -0.944551
0.183                   0.246129       -0.945937
0.184                   0.240729       -0.947289
0.185                   0.235335       -0.948609
0.186                   0.229946       -0.949896
0.187                   0.224563       -0.951149
0.188                   0.219186        -0.95237
0.189                   0.213814       -0.953558
0.19                    0.208448       -0.954713
0.191                   0.203088       -0.955836
0.192                   0.197734       -0.956926
0.193                   0.192387       -0.957983
0.194                   0.187045       -0.959007
0.195                    0.18171       -0.959998
0.196                   0.176382       -0.960957
0.197                   0.171061       -0.961884
0.198                   0.165746       -0.962777
0.199                   0.160438       -0.963638
0.2                     0.155138       -0.964467
0.201                   0.149845       -0.965262
0.202                   0.144559       -0.966025
0.203                   0.139281       -0.966755
0.204                   0.134011       -0.967453
0.205                    0.12875       -0.968118
0.206                   0.123496        -0.96875
0.207                   0.118252        -0.96935
0.208                   0.113016       -0.969917
0.209                   0.107789       -0.970452
0.21                    0.102571       -0.970953
0.211                  0.0973633       -0.971423
0.212                  0.0921651       -0.971859
0.213                  0.0869767       -0.972263
0.214                  0.0817988       -0.972635
0.215                  0.0766314       -0.972974
0.216                  0.0714751       -0.973281
0.217                  0.0663295       -0.973555
0.218                  0.0611956       -0.973797
0.219                  0.0560737       -0.974007
0.22                   0.0509634       -0.974184
0.221                  0.0458658        -0.97433
0.222                  0.0407808       -0.974443
0.223                  0.0357085       -0.974525
0.224                  0.0306496       -0.974574
0.225                  0.0256043       -0.974592
0.226                  0.0205733       -0.974579
0.227                  0.0155563       -0.974533
0.228                   0.010554       -0.974457
0.229                 0.00556656       -0.974349
0.23                 0.000594204        -0.97421
0.231                -0.00436217        -0.97404
0.232                -0.00930261        -0.97384
0.233                 -0.0142269       -0.973609
0.234                 -0.0191346       -0.973348
0.235                 -0.0240251       -0.973056
0.236                 -0.0288987       -0.972735
0.237                 -0.0337544       -0.972384
0.238                 -0.0385922       -0.972004
0.239                 -0.0434117       -0.971594
0.24                  -0.0482124       -0.971155
0.241                 -0.0529944       -0.970688
0.242                 -0.0577572       -0.970193
0.243                    -0.0625       -0.969669
0.244                 -0.0672232       -0.969118
0.245                 -0.0719264       -0.968539
0.246                 -0.0766089       -0.967933
0.247                 -0.0812705         -0.9673
0.248                 -0.0859111        -0.96664
0.249                 -0.0905306       -0.965955
0.25                  -0.0951283       -0.965244
0.251                 -0.0997042       -0.964507
0.252                  -0.104258       -0.963746
0.253                   -0.10879       -0.962959
0.254                  -0.113298       -0.962149
0.255                  -0.117784       -0.961315
0.256                  -0.122247       -0.960457
0.257                  -0.126687       -0.959576
0.258                  -0.131104       -0.958673
0.259                  -0.135496       -0.957747
0.26                   -0.139865         -0.9568
0.261                   -0.14421       -0.955832
0.262                  -0.148531       -0.954843
0.263                  -0.152828       -0.953833
0.264                    -0.1571       -0.952804
0.265                  -0.161348       -0.951755
0.266                  -0.165572       -0.950687
0.267                  -0.169771       -0.949601
0.268                  -0.173945       -0.948496
0.269                  -0.178095       -0.947374
0.27                    -0.18222       -0.946235
0.271                   -0.18632       -0.945079
0.272                  -0.190395       -0.943907
0.273                  -0.194446        -0.94272
0.274                  -0.198472       -0.941517
0.275                  -0.202473       -0.940299
0.276                   -0.20645       -0.939068
0.277                  -0.210402       -0.937822
0.278                  -0.214329       -0.936563
0.279                  -0.218233       -0.935291
0.28                   -0.222111       -0.934006
0.281                  -0.225966        -0.93271
0.282                  -0.229796       -0.931402
0.283                  -0.233603       -0.930082
0.284                  -0.237386       -0.928753
0.285                  -0.241145       -0.927412
0.286                  -0.244881       -0.926062
0.287                  -0.248594       -0.924703
0.288                  -0.252284       -0.923334
0.289                  -0.255951       -0.921956
0.29                   -0.259596        -0.92057
0.291                  -0.263218       -0.919177
0.292                  -0.266819       -0.917775
0.293                  -0.270398       -0.916366
0.294                  -0.273955        -0.91495
0.295                  -0.277491       -0.913528
0.296                  -0.281007       -0.912099
0.297                  -0.284501       -0.910664
0.298                  -0.287976       -0.909224
0.299                  -0.291431       -0.907778
0.3                    -0.294866       -0.906326
0.301                  -0.298282       -0.904869
0.302                  -0.301679       -0.903408
0.303                  -0.305057       -0.901942
0.304                  -0.308418       -0.900471
0.305                   -0.31176       -0.898996
0.306                  -0.315085       -0.897517
0.307                  -0.318393       -0.896034
0.308                  -0.321685       -0.894547
0.309                  -0.324959       -0.893056
0.31                   -0.328218       -0.891562
0.311                  -0.331462       -0.890064
0.312                   -0.33469       -0.888562
0.313                  -0.337903       -0.887057
0.314                  -0.341102       -0.885547
0.315                  -0.344286       -0.884035
0.316                  -0.347457       -0.882519
0.317                  -0.350614       -0.880999
0.318                  -0.353758       -0.879476
0.319                   -0.35689       -0.877949
0.32                   -0.360009       -0.876418
0.321                  -0.363116       -0.874883
0.322                  -0.366211       -0.873345
0.323                  -0.369295       -0.871802
0.324                  -0.372368       -0.870254
0.325                   -0.37543       -0.868703
0.326                  -0.378482       -0.867146
0.327                  -0.381523       -0.865585
0.328                  -0.384554       -0.864019
0.329                  -0.387575       -0.862447
0.33                   -0.390587       -0.860871
0.331                   -0.39359       -0.859288
0.332                  -0.396584       -0.857699
0.333                  -0.399569       -0.856104
0.334                  -0.402545       -0.854502
0.335                  -0.405513       -0.852894
0.336                  -0.408472       -0.851279
0.337                  -0.411424       -0.849656
0.338                  -0.414367       -0.848025
0.339                  -0.417302       -0.846386
0.34                    -0.42023       -0.844739
0.341                  -0.423149       -0.843083
0.342                  -0.426061       -0.841418
0.343                  -0.428965       -0.839744
0.344                  -0.431862       -0.838059
0.345                   -0.43475       -0.836365
0.346                  -0.437631        -0.83466
0.347                  -0.440505       -0.832944
0.348                   -0.44337       -0.831217
0.349                  -0.446228       -0.829478
0.35                   -0.449077       -0.827727
0.351                  -0.451918       -0.825964
0.352                  -0.454751       -0.824188
0.353                  -0.457576       -0.822399
0.354                  -0.460392       -0.820597
0.355                  -0.463199        -0.81878
0.356                  -0.465997        -0.81695
0.357                  -0.468785       -0.815105
0.358                  -0.471565       -0.813245
0.359                  -0.474334        -0.81137
0.36                   -0.477093        -0.80948
0.361                  -0.479841       -0.807574
0.362                  -0.482579       -0.805652
0.363                  -0.485306       -0.803713
0.364                  -0.488021       -0.801758
0.365                  -0.490724       -0.799786
0.366                  -0.493415       -0.797797
0.367                  -0.496093        -0.79579
0.368                  -0.498757       -0.793766
0.369                  -0.501408       -0.791724
0.37                   -0.504044       -0.789664
0.371                  -0.506667       -0.787585
0.372                  -0.509273       -0.785489
0.373                  -0.511864       -0.783373
0.374                  -0.514439        -0.78124
0.375                  -0.516997       -0.779087
0.376                  -0.519538       -0.776916
0.377                  -0.522061       -0.774726
0.378                  -0.524565       -0.772517
0.379                   -0.52705       -0.770289
0.38                   -0.529516       -0.768042
0.381                  -0.531961       -0.765776
0.382                  -0.534385       -0.763492
0.383                  -0.536788       -0.761189
0.384                  -0.539169       -0.758867
0.385                  -0.541527       -0.756526
0.386                  -0.543861       -0.754168
0.387                  -0.546171       -0.751791
0.388                  -0.548457       -0.749396
0.389                  -0.550717       -0.746983
0.39                   -0.552952       -0.744552
0.391                   -0.55516       -0.742105
0.392                   -0.55734        -0.73964
0.393                  -0.559493       -0.737159
0.394                  -0.561617       -0.734661
0.395                  -0.563712       -0.732147
0.396                  -0.565777       -0.729618
0.397                  -0.567813       -0.727074
0.398                  -0.569817       -0.724515
0.399                  -0.571789       -0.721942
0.4                    -0.573729       -0.719355
0.401                  -0.575637       -0.716755
0.402                  -0.577511       -0.714142
0.403                  -0.579352       -0.711517
0.404                  -0.581158       -0.708881
0.405                  -0.582929       -0.706234
0.406                  -0.584665       -0.703576
0.407                  -0.586365        -0.70091
0.408                  -0.588029       -0.698234
0.409                  -0.589655        -0.69555
0.41                   -0.591245       -0.692859
0.411                  -0.592797        -0.69016
0.412                   -0.59431       -0.687456
0.413                  -0.595785       -0.684747
0.414                  -0.597222       -0.682034
0.415                  -0.598619       -0.679317
0.416                  -0.599977       -0.676597
0.417                  -0.601294       -0.673876
0.418                  -0.602572       -0.671154
0.419                   -0.60381       -0.668431
0.42                   -0.605007        -0.66571
0.421                  -0.606164        -0.66299
0.422                  -0.607279       -0.660273
0.423                  -0.608354       -0.657559
0.424                  -0.609387       -0.654851
0.425                   -0.61038       -0.652147
0.426                  -0.611331       -0.649451
0.427                  -0.612241       -0.646761
0.428                   -0.61311        -0.64408
0.429                  -0.613937       -0.641409
0.43                   -0.614724       -0.638748
0.431                   -0.61547       -0.636099
0.432                  -0.616175       -0.633462
0.433                  -0.616839       -0.630838
0.434                  -0.617462       -0.628229
0.435                  -0.618046       -0.625635
0.436                  -0.618589       -0.623058
0.437                  -0.619093       -0.620498
0.438                  -0.619558       -0.617957
0.439                  -0.619983       -0.615435
0.44                    -0.62037       -0.612933
0.441                  -0.620719       -0.610453
0.442                   -0.62103       -0.607995
0.443                  -0.621303        -0.60556
0.444                   -0.62154        -0.60315
0.445                  -0.621741       -0.600765
0.446                  -0.621906       -0.598405
0.447                  -0.622036       -0.596073
0.448                  -0.622132       -0.593769
0.449                  -0.622194       -0.591493
0.45                   -0.622223       -0.589248
0.451                   -0.62222       -0.587032
0.452                  -0.622185       -0.584848
0.453                  -0.622119       -0.582696
0.454                  -0.622023       -0.580577
0.455                  -0.621899       -0.578491
0.456                  -0.621745        -0.57644
0.457                  -0.621565       -0.574424
0.458                  -0.621357       -0.572444
0.459                  -0.621125         -0.5705
0.46                   -0.620867       -0.568593
0.461                  -0.620586       -0.566724
0.462                  -0.620282       -0.564893
0.463                  -0.619957       -0.563102
0.464                   -0.61961       -0.561349
0.465                  -0.619244       -0.559637
0.466                   -0.61886       -0.557964
0.467                  -0.618458       -0.556333
0.468                   -0.61804       -0.554743
0.469                  -0.617606       -0.553195
0.47                   -0.617158       -0.551688
0.471                  -0.616697       -0.550224
0.472                  -0.616224       -0.548802
0.473                  -0.615741       -0.547423
0.474                  -0.615248       -0.546087
0.475                  -0.614746       -0.544794
0.476                  -0.614237       -0.543545
0.477                  -0.613723       -0.542339
0.478                  -0.613203       -0.541176
0.479                   -0.61268       -0.540057
0.48                   -0.612154       -0.538982
0.481                  -0.611627        -0.53795
0.482                  -0.611099       -0.536962
0.483                  -0.610573       -0.536016
0.484                  -0.610049       -0.535114
0.485                  -0.609529       -0.534255
0.486                  -0.609013       -0.533439
0.487                  -0.608503       -0.532666
0.488                     -0.608       -0.531934
0.489                  -0.607505       -0.531245
0.49                    -0.60702       -0.530597
0.491                  -0.606545       -0.529991
0.492                  -0.606081       -0.529425
0.493                   -0.60563         -0.5289
0.494                  -0.605193       -0.528414
0.495                   -0.60477       -0.527968
0.496                  -0.604364       -0.527561
0.497                  -0.603974       -0.527192
0.498                  -0.603602       -0.526861
0.499                  -0.603249       -0.526566
0.5                    -0.602917       -0.526308
0.501                  -0.602605       -0.526086
0.502                  -0.602315       -0.525898
0.503                  -0.602048       -0.525744
0.504                  -0.601805       -0.525624
0.505                  -0.601586       -0.525536
0.506                  -0.601392       -0.525481
0.507                  -0.601225       -0.525455
0.508                  -0.601085        -0.52546
0.509                  -0.600973       -0.525494
0.51                   -0.600889       -0.525556
0.511                  -0.600834       -0.525646
0.512                   -0.60081       -0.525761
0.513                  -0.600816       -0.525902
0.514                  -0.600853       -0.526067
0.515                  -0.600922       -0.526255
0.516                  -0.601024       -0.526466
0.517                  -0.601158       -0.526697
0.518                  -0.601326       -0.526949
0.519                  -0.601527        -0.52722
0.52                   -0.601763       -0.527508
0.521                  -0.602033       -0.527814
0.522                  -0.602338       -0.528135
0.523                  -0.602679       -0.528471
0.524                  -0.603055       -0.528821
0.525                  -0.603467       -0.529183
0.526                  -0.603915       -0.529556
0.527                  -0.604399        -0.52994
0.528                   -0.60492       -0.530332
0.529                  -0.605477       -0.530733
0.53                   -0.606071        -0.53114
0.531                  -0.606701       -0.531553
0.532                  -0.607368        -0.53197
0.533                  -0.608072       -0.532391
0.534                  -0.608812       -0.532815
0.535                  -0.609589       -0.533239
0.536                  -0.610402       -0.533664
0.537                  -0.611251       -0.534088
0.538                  -0.612136       -0.534509
0.539                  -0.613057       -0.534928
0.54                   -0.614014       -0.535342
0.541                  -0.615005       -0.535751
0.542                  -0.616032       -0.536154
0.543                  -0.617093        -0.53655
0.544                  -0.618189       -0.536937
0.545                  -0.619318       -0.537316
0.546                   -0.62048       -0.537683
0.547                  -0.621676        -0.53804
0.548                  -0.622904       -0.538385
0.549                  -0.624164       -0.538716
0.55                   -0.625455       -0.539034
0.551                  -0.626777       -0.539337
0.552                   -0.62813       -0.539624
0.553                  -0.629512       -0.539894
0.554                  -0.630923       -0.540148
0.555                  -0.632362       -0.540383
0.556                  -0.633829         -0.5406
0.557                  -0.635323       -0.540797
0.558                  -0.636843       -0.540973
0.559                  -0.638389       -0.541129
0.56                    -0.63996       -0.541263
0.561                  -0.641555       -0.541375
0.562                  -0.643173       -0.541464
0.563                  -0.644814        -0.54153
0.564                  -0.646476       -0.541571
0.565                  -0.648159       -0.541589
0.566                  -0.649863       -0.541581
0.567                  -0.651585       -0.541548
0.568                  -0.653326       -0.541488
0.569                  -0.655085       -0.541403
0.57                   -0.656861       -0.541291
0.571                  -0.658652       -0.541152
0.572                  -0.660458       -0.540985
0.573                  -0.662279       -0.540791
0.574                  -0.664112        -0.54057
0.575                  -0.665958       -0.540319
0.576                  -0.667816       -0.540041
0.577                  -0.669685       -0.539734
0.578                  -0.671563       -0.539399
0.579                   -0.67345       -0.539034
0.58                   -0.675345       -0.538641
0.581                  -0.677247       -0.538219
0.582                  -0.679156       -0.537768
0.583                   -0.68107       -0.537287
0.584                  -0.682989       -0.536778
0.585                  -0.684911        -0.53624
0.586                  -0.686837       -0.535673
0.587                  -0.688765       -0.535077
0.588                  -0.690694       -0.534453
0.589                  -0.692623         -0.5338
0.59                   -0.694553       -0.533118
0.591                  -0.696481       -0.532408
0.592                  -0.698407       -0.531671
0.593                  -0.700331       -0.530905
0.594                  -0.702252       -0.530112
0.595                  -0.704169       -0.529292
0.596                  -0.706081       -0.528445
0.597                  -0.707987       -0.527571
0.598                  -0.709887        -0.52667
0.599                  -0.711781       -0.525744
0.6                    -0.713667       -0.524792
0.601                  -0.715545       -0.523815
0.602                  -0.717415       -0.522813
0.603                  -0.719275       -0.521786
0.604                  -0.721126       -0.520736
0.605                  -0.722966       -0.519662
0.606                  -0.724795       -0.518564
0.607                  -0.726612       -0.517444
0.608                  -0.728418       -0.516302
0.609                  -0.730211       -0.515138
0.61                   -0.731992       -0.513953
0.611                  -0.733759       -0.512747
0.612                  -0.735512       -0.511521
0.613                  -0.737252       -0.510275
0.614                  -0.738976        -0.50901
0.615                  -0.740686       -0.507726
0.616                  -0.742381       -0.506425
0.617                   -0.74406       -0.505105
0.618                  -0.745723       -0.503769
0.619                   -0.74737       -0.502416
0.62                   -0.749001       -0.501048
0.621                  -0.750615       -0.499664
0.622                  -0.752213       -0.498265
0.623                  -0.753793       -0.496851
0.624                  -0.755357       -0.495425
0.625                  -0.756903       -0.493985
0.626                  -0.758431       -0.492532
0.627                  -0.759942       -0.491067
0.628                  -0.761435       -0.489591
0.629                  -0.762911       -0.488104
0.63                   -0.764368       -0.486606
0.631                  -0.765808       -0.485099
0.632                   -0.76723       -0.483582
0.633                  -0.768634       -0.482056
0.634                   -0.77002       -0.480522
0.635                  -0.771388       -0.478981
0.636                  -0.772739       -0.477431
0.637                  -0.774071       -0.475875
0.638                  -0.775386       -0.474313
0.639                  -0.776684       -0.472745
0.64                   -0.777963       -0.471171
0.641                  -0.779226       -0.469592
0.642                  -0.780471       -0.468009
0.643                  -0.781699       -0.466422
0.644                   -0.78291       -0.464831
0.645                  -0.784104       -0.463237
0.646                  -0.785281        -0.46164
0.647                  -0.786442        -0.46004
0.648                  -0.787586       -0.458439
0.649                  -0.788715       -0.456836
0.65                   -0.789827       -0.455231
0.651                  -0.790924       -0.453626
0.652                  -0.792006       -0.452019
0.653                  -0.793072       -0.450413
0.654                  -0.794124       -0.448806
0.655                   -0.79516         -0.4472
0.656                  -0.796182       -0.445594
0.657                   -0.79719       -0.443989
0.658                  -0.798184       -0.442385
0.659                  -0.799165       -0.440782
0.66                   -0.800132        -0.43918
0.661                  -0.801086       -0.437581
0.662                  -0.802027       -0.435983
0.663                  -0.802955       -0.434387
0.664                  -0.803871       -0.432794
0.665                  -0.804776       -0.431203
0.666                  -0.805668       -0.429614
0.667                  -0.806549       -0.428028
0.668                  -0.807419       -0.426445
0.669                  -0.808278       -0.424865
0.67                   -0.809127       -0.423288
0.671                  -0.809965       -0.421714
0.672                  -0.810793       -0.420144
0.673                  -0.811611       -0.418576
0.674                   -0.81242       -0.417012
0.675                  -0.813219       -0.415451
0.676                   -0.81401       -0.413894
0.677                  -0.814792       -0.412339
0.678                  -0.815566       -0.410789
0.679                  -0.816331       -0.409241
0.68                   -0.817088       -0.407697
0.681                  -0.817837       -0.406156
0.682                   -0.81858       -0.404619
0.683                  -0.819314       -0.403085
0.684                  -0.820042       -0.401554
0.685                  -0.820763       -0.400027
0.686                  -0.821478       -0.398502
0.687                  -0.822185       -0.396981
0.688                  -0.822887       -0.395462
0.689                  -0.823583       -0.393947
0.69                   -0.824272       -0.392434
0.691                  -0.824957       -0.390924
0.692                  -0.825635       -0.389416
0.693                  -0.826308       -0.387911
0.694                  -0.826976       -0.386409
0.695                  -0.827639       -0.384909
0.696                  -0.828297       -0.383411
0.697                  -0.828951       -0.381915
0.698                  -0.829599       -0.380421
0.699                  -0.830243       -0.378929
0.7                    -0.830882       -0.377438
0.701                  -0.831517       -0.375949
0.702                  -0.832148       -0.374461
0.703                  -0.832774       -0.372975
0.704                  -0.833396        -0.37149
0.705                  -0.834014       -0.370005
0.706                  -0.834628       -0.368522
0.707                  -0.835238        -0.36704
0.708                  -0.835844       -0.365558
0.709                  -0.836446       -0.364076
0.71                   -0.837044       -0.362595
0.711                  -0.837638       -0.361114
0.712                  -0.838228       -0.359633
0.713                  -0.838815       -0.358152
0.714                  -0.839397       -0.356671
0.715                  -0.839976       -0.355189
0.716                   -0.84055       -0.353707
0.717                   -0.84112       -0.352225
0.718                  -0.841687       -0.350742
0.719                  -0.842249       -0.349258
0.72                   -0.842807       -0.347773
0.721                  -0.843361       -0.346287
0.722                  -0.843911         -0.3448
0.723                  -0.844456       -0.343311
0.724                  -0.844997       -0.341822
0.725                  -0.845534       -0.340331
0.726                  -0.846066       -0.338838
0.727                  -0.846594       -0.337344
0.728                  -0.847117       -0.335848
0.729                  -0.847635       -0.334351
0.73                   -0.848148       -0.332851
0.731                  -0.848656        -0.33135
0.732                  -0.849159       -0.329847
0.733                  -0.849657       -0.328342
0.734                   -0.85015       -0.326835
0.735                  -0.850638       -0.325326
0.736                   -0.85112       -0.323814
0.737                  -0.851596       -0.322301
0.738                  -0.852067       -0.320785
0.739                  -0.852532       -0.319267
0.74                    -0.85299       -0.317747
0.741                  -0.853443       -0.316225
0.742                   -0.85389         -0.3147
0.743                   -0.85433       -0.313174
0.744                  -0.854764       -0.311645
0.745                  -0.855192       -0.310113
0.746                  -0.855612        -0.30858
0.747                  -0.856027       -0.307044
0.748                  -0.856434       -0.305506
0.749                  -0.856834       -0.303966
0.75                   -0.857227       -0.302424
0.751                  -0.857613        -0.30088
0.752                  -0.857991       -0.299334
0.753                  -0.858362       -0.297785
0.754                  -0.858726       -0.296235
0.755                  -0.859081       -0.294683
0.756                  -0.859429       -0.293129
0.757                  -0.859769       -0.291573
0.758                  -0.860101       -0.290016
0.759                  -0.860425       -0.288457
0.76                   -0.860741       -0.286896
0.761                  -0.861048       -0.285334
0.762                  -0.861347        -0.28377
0.763                  -0.861638       -0.282205
0.764                   -0.86192       -0.280639
0.765                  -0.862193       -0.279072
0.766                  -0.862457       -0.277503
0.767                  -0.862713       -0.275934
0.768                  -0.862959       -0.274364
0.769                  -0.863197       -0.272792
0.77                   -0.863425       -0.271221
0.771                  -0.863644       -0.269648
0.772                  -0.863854       -0.268075
0.773                  -0.864055       -0.266502
0.774                  -0.864246       -0.264929
0.775                  -0.864428       -0.263355
0.776                    -0.8646       -0.261782
0.777                  -0.864763       -0.260208
0.778                  -0.864916       -0.258634
0.779                  -0.865059       -0.257061
0.78                   -0.865193       -0.255489
0.781                  -0.865316       -0.253916
0.782                   -0.86543       -0.252345
0.783                  -0.865534       -0.250774
0.784                  -0.865629       -0.249204
0.785                  -0.865713       -0.247635
0.786                  -0.865787       -0.246067
0.787                  -0.865851       -0.244501
0.788                  -0.865905       -0.242936
0.789                  -0.865949       -0.241372
0.79                   -0.865983        -0.23981
0.791                  -0.866006        -0.23825
0.792                   -0.86602       -0.236692
0.793                  -0.866023       -0.235135
0.794                  -0.866017       -0.233581
0.795                  -0.865999       -0.232029
0.796                  -0.865972       -0.230479
0.797                  -0.865934       -0.228932
0.798                  -0.865886       -0.227387
0.799                  -0.865828       -0.225845
0.8                     -0.86576       -0.224306
0.801                  -0.865681        -0.22277
0.802                  -0.865592       -0.221237
0.803                  -0.865493       -0.219707
0.804                  -0.865383       -0.218181
0.805                  -0.865263       -0.216658
0.806                  -0.865132       -0.215138
0.807                  -0.864992       -0.213623
0.808                  -0.864841       -0.212111
0.809                  -0.864679       -0.210603
0.81                   -0.864508         -0.2091
0.811                  -0.864326         -0.2076
0.812                  -0.864133       -0.206105
0.813                  -0.863931       -0.204614
0.814                  -0.863718       -0.203128
0.815                  -0.863495       -0.201647
0.816                  -0.863261        -0.20017
0.817                  -0.863017       -0.198699
0.818                  -0.862763       -0.197233
0.819                  -0.862499       -0.195772
0.82                   -0.862225       -0.194316
0.821                   -0.86194       -0.192866
0.822                  -0.861645       -0.191421
0.823                   -0.86134       -0.189982
0.824                  -0.861024        -0.18855
0.825                  -0.860699       -0.187123
0.826                  -0.860363       -0.185702
0.827                  -0.860017       -0.184288
0.828                  -0.859662        -0.18288
0.829                  -0.859296        -0.18148
0.83                    -0.85892       -0.180085
0.831                  -0.858534       -0.178698
0.832                  -0.858138       -0.177317
0.833                  -0.857732       -0.175944
0.834                  -0.857316       -0.174578
0.835                   -0.85689        -0.17322
0.836                  -0.856454        -0.17187
0.837                  -0.856008       -0.170527
0.838                  -0.855553       -0.169192
0.839                  -0.855088       -0.167866
0.84                   -0.854613       -0.166548
0.841                  -0.854129       -0.165238
0.842                  -0.853634       -0.163937
0.843                  -0.853131       -0.162644
0.844                  -0.852618       -0.161361
0.845                  -0.852095       -0.160087
0.846                  -0.851563       -0.158822
0.847                  -0.851021       -0.157567
0.848                  -0.850471       -0.156321
0.849                  -0.849911       -0.155085
0.85                   -0.849342       -0.153859
0.851                  -0.848764       -0.152644
0.852                  -0.848177       -0.151439
0.853                  -0.847582       -0.150244
0.854                  -0.846977        -0.14906
0.855                  -0.846364       -0.147888
0.856                  -0.845742       -0.146726
0.857                  -0.845112       -0.145575
0.858                  -0.844473       -0.144437
0.859                  -0.843827       -0.143309
0.86                   -0.843172       -0.142194
0.861                  -0.842509       -0.141091
0.862                  -0.841838           -0.14
0.863                   -0.84116       -0.138922
0.864                  -0.840474       -0.137856
0.865                   -0.83978       -0.136803
0.866                   -0.83908       -0.135763
0.867                  -0.838372       -0.134737
0.868                  -0.837657       -0.133724
0.869                  -0.836935       -0.132724
0.87                   -0.836207       -0.131739
0.871                  -0.835473       -0.130767
0.872                  -0.834732        -0.12981
0.873                  -0.833985       -0.128867
0.874                  -0.833233       -0.127938
0.875                  -0.832475       -0.127024
0.876                  -0.831711       -0.126126
0.877                  -0.830943       -0.125242
0.878                  -0.830169       -0.124374
0.879                  -0.829391       -0.123521
0.88                   -0.828608       -0.122683
0.881                  -0.827822       -0.121862
0.882                  -0.827031       -0.121056
0.883                  -0.826236       -0.120267
0.884                  -0.825439       -0.119494
0.885                  -0.824638       -0.118737
0.886                  -0.823834       -0.117996
0.887                  -0.823028       -0.117273
0.888                  -0.822219       -0.116566
0.889                  -0.821409       -0.115876
0.89                   -0.820597       -0.115203
0.891                  -0.819784       -0.114548
0.892                   -0.81897        -0.11391
0.893                  -0.818155       -0.113289
0.894                   -0.81734       -0.112685
0.895                  -0.816525       -0.112099
0.896                   -0.81571       -0.111531
0.897                  -0.814896        -0.11098
0.898                  -0.814083       -0.110447
0.899                  -0.813271       -0.109932
0.9                    -0.812462       -0.109435
0.901                  -0.811654       -0.108956
0.902                  -0.810849       -0.108495
0.903                  -0.810047       -0.108052
0.904                  -0.809248       -0.107627
0.905                  -0.808454       -0.107219
0.906                  -0.807663        -0.10683
0.907                  -0.806876       -0.106459
0.908                  -0.806095       -0.106105
0.909                  -0.805319        -0.10577
0.91                   -0.804548       -0.105452
0.911                  -0.803784       -0.105152
0.912                  -0.803026        -0.10487
0.913                  -0.802275       -0.104605
0.914                  -0.801531       -0.104358
0.915                  -0.800795       -0.104129
0.916                  -0.800067       -0.103916
0.917                  -0.799347       -0.103721
0.918                  -0.798636       -0.103543
0.919                  -0.797935       -0.103382
0.92                   -0.797243       -0.103238
0.921                  -0.796562        -0.10311
0.922                  -0.795891       -0.102998
0.923                  -0.795231       -0.102903
0.924                  -0.794582       -0.102824
0.925                  -0.793945        -0.10276
0.926                   -0.79332       -0.102712
0.927                  -0.792707        -0.10268
0.928                  -0.792107       -0.102662
0.929                  -0.791521       -0.102659
0.93                   -0.790947       -0.102671
0.931                  -0.790388       -0.102697
0.932                  -0.789843       -0.102736
0.933                  -0.789313        -0.10279
0.934                  -0.788798       -0.102856
0.935                  -0.788298       -0.102936
0.936                  -0.787814       -0.103028
0.937                  -0.787345       -0.103133
0.938                  -0.786893       -0.103249
0.939                  -0.786458       -0.103377
0.94                   -0.786039       -0.103516
0.941                  -0.785638       -0.103666
0.942                  -0.785254       -0.103826
0.943                  -0.784887       -0.103996
0.944                  -0.784539       -0.104176
0.945                  -0.784209       -0.104365
0.946                  -0.783897       -0.104562
0.947                  -0.783604       -0.104768
0.948                   -0.78333       -0.104981
0.949                  -0.783075       -0.105202
0.95                   -0.782839        -0.10543
0.951                  -0.782622       -0.105664
0.952                  -0.782425       -0.105903
0.953                  -0.782248       -0.106149
0.954                  -0.782091       -0.106399
0.955                  -0.781953       -0.106654
0.956                  -0.781836       -0.106913
0.957                  -0.781739       -0.107175
0.958                  -0.781663        -0.10744
0.959                  -0.781606       -0.107708
0.96                    -0.78157       -0.107977
0.961                  -0.781555       -0.108248
0.962                   -0.78156       -0.108519
0.963                  -0.781586       -0.108792
0.964                  -0.781632       -0.109064
0.965                  -0.781698       -0.109335
0.966                  -0.781785       -0.109605
0.967                  -0.781893       -0.109874
0.968                   -0.78202        -0.11014
0.969                  -0.782169       -0.110404
0.97                   -0.782337       -0.110664
0.971                  -0.782525       -0.110921
0.972                  -0.782733       -0.111173
0.973                  -0.782961       -0.111421
0.974                  -0.783209       -0.111663
0.975                  -0.783477         -0.1119
0.976                  -0.783763        -0.11213
0.977                  -0.784069       -0.112354
0.978                  -0.784394        -0.11257
0.979                  -0.784738       -0.112779
0.98                     -0.7851       -0.112979
0.981                   -0.78548       -0.113171
0.982                  -0.785878       -0.113354
0.983                  -0.786295       -0.113527
0.984                  -0.786728        -0.11369
0.985                  -0.787179       -0.113843
0.986                  -0.787647       -0.113985
0.987                  -0.788131       -0.114116
0.988                  -0.788631       -0.114235
0.989                  -0.789148       -0.114342
0.99                    -0.78968       -0.114437
0.991                  -0.790227       -0.114519
0.992                  -0.790789       -0.114587
0.993                  -0.791365       -0.114642
0.994                  -0.791955       -0.114684
0.995                  -0.792559       -0.114711
0.996                  -0.793177       -0.114723
0.997                  -0.793807       -0.114721
0.998                  -0.794449       -0.114703
0.999                  -0.795104        -0.11467
1                       -0.79577       -0.114622
1.001                  -0.796447       -0.114557
1.002                  -0.797134       -0.114477
1.003                  -0.797832        -0.11438
1.004                   -0.79854       -0.114266
1.005                  -0.799257       -0.114136
1.006                  -0.799982       -0.113988
1.007                  -0.800716       -0.113824
1.008                  -0.801458       -0.113642
1.009                  -0.802207       -0.113443
1.01                   -0.802963       -0.113225
1.011                  -0.803726       -0.112991
1.012                  -0.804494       -0.112739
1.013                  -0.805268       -0.112468
1.014                  -0.806046        -0.11218
1.015                  -0.806829       -0.111874
1.016                  -0.807616       -0.111549
1.017                  -0.808407       -0.111207
1.018                    -0.8092       -0.110847
1.019                  -0.809996       -0.110468
1.02                   -0.810794       -0.110071
1.021                  -0.811594       -0.109656
1.022                  -0.812394       -0.109224
1.023                  -0.813195       -0.108773
1.024                  -0.813997       -0.108305
1.025                  -0.814798       -0.107818
1.026                  -0.815598       -0.107314
1.027                  -0.816397       -0.106793
1.028                  -0.817194       -0.106253
1.029                  -0.817989       -0.105697
1.03                   -0.818782       -0.105124
1.031                  -0.819571       -0.104533
1.032                  -0.820357       -0.103925
1.033                   -0.82114       -0.103301
1.034                  -0.821918       -0.102661
1.035                  -0.822691       -0.102003
1.036                  -0.823459        -0.10133
1.037                  -0.824222       -0.100641
1.038                   -0.82498       -0.099937
1.039                  -0.825731      -0.0992169
1.04                   -0.826475      -0.0984819
1.041                  -0.827213      -0.0977319
1.042                  -0.827943      -0.0969675
1.043                  -0.828667      -0.0961883
1.044                  -0.829382      -0.0953956
1.045                  -0.830089      -0.0945886
1.046                  -0.830788      -0.0937684
1.047                  -0.831478      -0.0929352
1.048                  -0.832159      -0.0920887
1.049                  -0.832831      -0.0912302
1.05                   -0.833494      -0.0903588
1.051                  -0.834147       -0.089476
1.052                   -0.83479      -0.0885815
1.053                  -0.835423      -0.0876756
1.054                  -0.836046       -0.086759
1.055                  -0.836658      -0.0858317
1.056                  -0.837259       -0.084894
1.057                   -0.83785      -0.0839466
1.058                   -0.83843      -0.0829897
1.059                  -0.838999      -0.0820232
1.06                   -0.839556      -0.0810481
1.061                  -0.840102      -0.0800646
1.062                  -0.840637      -0.0790726
1.063                   -0.84116      -0.0780729
1.064                  -0.841671      -0.0770656
1.065                  -0.842171      -0.0760514
1.066                  -0.842659      -0.0750302
1.067                  -0.843135      -0.0740024
1.068                  -0.843599      -0.0729684
1.069                  -0.844051       -0.071929
1.07                   -0.844492      -0.0708837
1.071                  -0.844921      -0.0698333
1.072                  -0.845337      -0.0687783
1.073                  -0.845742      -0.0677188
1.074                  -0.846135      -0.0666548
1.075                  -0.846516      -0.0655871
1.076                  -0.846885      -0.0645158
1.077                  -0.847243      -0.0634411
1.078                  -0.847588      -0.0623633
1.079                  -0.847922      -0.0612832
1.08                   -0.848245      -0.0602003
1.081                  -0.848556      -0.0591155
1.082                  -0.848856      -0.0580287
1.083                  -0.849144      -0.0569402
1.084                  -0.849421      -0.0558506
1.085                  -0.849688      -0.0547595
1.086                  -0.849943      -0.0536679
1.087                  -0.850187      -0.0525754
1.088                  -0.850421      -0.0514828
1.089                  -0.850644      -0.0503898
1.09                   -0.850856      -0.0492968
1.091                  -0.851058      -0.0482039
1.092                   -0.85125      -0.0471118
1.093                  -0.851432      -0.0460202
1.094                  -0.851604      -0.0449292
1.095                  -0.851767      -0.0438393
1.096                   -0.85192      -0.0427503
1.097                  -0.852063       -0.041663
1.098                  -0.852197      -0.0405767
1.099                  -0.852322      -0.0394923
1.1                    -0.852438      -0.0384095
1.101                  -0.852546      -0.0373284
1.102                  -0.852644      -0.0362492
1.103                  -0.852735      -0.0351722
1.104                  -0.852817      -0.0340975
1.105                  -0.852891      -0.0330247
1.106                  -0.852957      -0.0319544
1.107                  -0.853015      -0.0308865
1.108                  -0.853065      -0.0298211
1.109                  -0.853109      -0.0287582
1.11                   -0.853144      -0.0276976
1.111                  -0.853173      -0.0266402
1.112                  -0.853195       -0.025585
1.113                   -0.85321      -0.0245326
1.114                  -0.853218      -0.0234829
1.115                  -0.853219      -0.0224361
1.116                  -0.853215      -0.0213919
1.117                  -0.853203      -0.0203505
1.118                  -0.853186      -0.0193122
1.119                  -0.853163      -0.0182763
1.12                   -0.853134      -0.0172432
1.121                  -0.853099       -0.016213
1.122                  -0.853058      -0.0151858
1.123                  -0.853012      -0.0141611
1.124                  -0.852961      -0.0131391
1.125                  -0.852904      -0.0121198
1.126                  -0.852842       -0.011103
1.127                  -0.852774      -0.0100892
1.128                  -0.852702     -0.00907748
1.129                  -0.852625     -0.00806864
1.13                   -0.852542     -0.00706229
1.131                  -0.852455     -0.00605826
1.132                  -0.852363     -0.00505694
1.133                  -0.852267     -0.00405778
1.134                  -0.852166     -0.00306097
1.135                   -0.85206     -0.00206634
1.136                  -0.851949     -0.00107429
1.137                  -0.851834    -8.42436e-05
1.138                  -0.851715     0.000903783
1.139                   -0.85159      0.00188958
1.14                   -0.851462      0.00287334
1.141                  -0.851329      0.00385523
1.142                  -0.851191      0.00483506
1.143                   -0.85105        0.005813
1.144                  -0.850903      0.00678904
1.145                  -0.850752      0.00776336
1.146                  -0.850597      0.00873595
1.147                  -0.850437      0.00970661
1.148                  -0.850273       0.0106755
1.149                  -0.850104       0.0116426
1.15                    -0.84993       0.0126084
1.151                  -0.849752       0.0135725
1.152                  -0.849569       0.0145347
1.153                  -0.849381       0.0154956
1.154                  -0.849189       0.0164548
1.155                  -0.848992       0.0174124
1.156                   -0.84879       0.0183684
1.157                  -0.848584       0.0193226
1.158                  -0.848372       0.0202754
1.159                  -0.848155       0.0212266
1.16                   -0.847933       0.0221763
1.161                  -0.847706        0.023124
1.162                  -0.847474       0.0240704
1.163                  -0.847236        0.025015
1.164                  -0.846993       0.0259578
1.165                  -0.846745        0.026899
1.166                  -0.846491       0.0278381
1.167                  -0.846232       0.0287756
1.168                  -0.845967       0.0297109
1.169                  -0.845696       0.0306446
1.17                    -0.84542       0.0315757
1.171                  -0.845138        0.032505
1.172                   -0.84485        0.033432
1.173                  -0.844556       0.0343569
1.174                  -0.844255       0.0352792
1.175                  -0.843949       0.0361992
1.176                  -0.843637       0.0371163
1.177                  -0.843318       0.0380308
1.178                  -0.842994       0.0389427
1.179                  -0.842662       0.0398513
1.18                   -0.842325       0.0407573
1.181                  -0.841981       0.0416598
1.182                  -0.841631       0.0425591
1.183                  -0.841274        0.043455
1.184                  -0.840911       0.0443474
1.185                  -0.840541       0.0452357
1.186                  -0.840164       0.0461204
1.187                  -0.839781       0.0470012
1.188                  -0.839392       0.0478777
1.189                  -0.838995       0.0487499
1.19                   -0.838593       0.0496174
1.191                  -0.838183       0.0504804
1.192                  -0.837767       0.0513385
1.193                  -0.837345       0.0521916
1.194                  -0.836915       0.0530398
1.195                   -0.83648       0.0538822
1.196                  -0.836038       0.0547194
1.197                  -0.835589       0.0555508
1.198                  -0.835134       0.0563762
1.199                  -0.834672       0.0571957
1.2                    -0.834205       0.0580088
1.201                  -0.833731       0.0588156
1.202                  -0.833251       0.0596158
1.203                  -0.832765       0.0604091
1.204                  -0.832272       0.0611953
1.205                  -0.831774       0.0619745
1.206                  -0.831271       0.0627465
1.207                  -0.830761       0.0635109
1.208                  -0.830246       0.0642675
1.209                  -0.829726       0.0650162
1.21                     -0.8292       0.0657569
1.211                  -0.828669       0.0664895
1.212                  -0.828133       0.0672137
1.213                  -0.827592       0.0679291
1.214                  -0.827046        0.068636
1.215                  -0.826496       0.0693339
1.216                  -0.825941       0.0700229
1.217                  -0.825383       0.0707027
1.218                   -0.82482       0.0713732
1.219                  -0.824253       0.0720343
1.22                   -0.823683       0.0726857
1.221                  -0.823109       0.0733274
1.222                  -0.822532       0.0739591
1.223                  -0.821952        0.074581
1.224                   -0.82137       0.0751927
1.225                  -0.820784       0.0757945
1.226                  -0.820197       0.0763855
1.227                  -0.819607       0.0769664
1.228                  -0.819016       0.0775368
1.229                  -0.818422       0.0780966
1.23                   -0.817828       0.0786457
1.231                  -0.817232       0.0791842
1.232                  -0.816635       0.0797118
1.233                  -0.816038       0.0802286
1.234                  -0.815441       0.0807347
1.235                  -0.814843       0.0812299
1.236                  -0.814246       0.0817139
1.237                  -0.813648        0.082187
1.238                  -0.813052       0.0826493
1.239                  -0.812457       0.0831005
1.24                   -0.811863       0.0835408
1.241                   -0.81127       0.0839702
1.242                  -0.810679       0.0843885
1.243                   -0.81009       0.0847961
1.244                  -0.809504       0.0851926
1.245                   -0.80892       0.0855785
1.246                  -0.808339       0.0859536
1.247                  -0.807762       0.0863178
1.248                  -0.807187       0.0866717
1.249                  -0.806617       0.0870149
1.25                    -0.80605       0.0873475
1.251                  -0.805488       0.0876699
1.252                   -0.80493        0.087982
1.253                  -0.804377        0.088284
1.254                  -0.803829       0.0885761
1.255                  -0.803286       0.0888583
1.256                  -0.802749       0.0891307
1.257                  -0.802217       0.0893935
1.258                  -0.801692       0.0896469
1.259                  -0.801172       0.0898909
1.26                    -0.80066       0.0901259
1.261                  -0.800153        0.090352
1.262                  -0.799654       0.0905694
1.263                  -0.799162       0.0907781
1.264                  -0.798678       0.0909787
1.265                  -0.798201        0.091171
1.266                  -0.797731       0.0913555
1.267                   -0.79727       0.0915321
1.268                  -0.796817       0.0917014
1.269                  -0.796372       0.0918633
1.27                   -0.795935       0.0920181
1.271                  -0.795508       0.0921663
1.272                  -0.795089        0.092308
1.273                  -0.794679       0.0924432
1.274                  -0.794278       0.0925726
1.275                  -0.793886       0.0926963
1.276                  -0.793504       0.0928141
1.277                  -0.793131       0.0929269
1.278                  -0.792768       0.0930347
1.279                  -0.792414       0.0931381
1.28                   -0.792071       0.0932368
1.281                  -0.791737        0.093331
1.282                  -0.791413       0.0934218
1.283                  -0.791099       0.0935087
1.284                  -0.790795       0.0935925
1.285                  -0.790501       0.0936734
1.286                  -0.790218       0.0937513
1.287                  -0.789945       0.0938268
1.288                  -0.789681          0.0939
1.289                  -0.789428       0.0939715
1.29                   -0.789186       0.0940414
1.291                  -0.788953       0.0941098
1.292                  -0.788731       0.0941775
1.293                  -0.788519        0.094244
1.294                  -0.788317       0.0943102
1.295                  -0.788125       0.0943762
1.296                  -0.787943       0.0944423
1.297                  -0.787772       0.0945088
1.298                   -0.78761       0.0945757
1.299                  -0.787458       0.0946437
1.3                    -0.787316       0.0947126
1.301                  -0.787184       0.0947831
1.302                  -0.787061       0.0948552
1.303                  -0.786948       0.0949294
1.304                  -0.786845       0.0950054
1.305                   -0.78675        0.095084
1.306                  -0.786665       0.0951654
1.307                  -0.786589       0.0952495
1.308                  -0.786522       0.0953366
1.309                  -0.786464       0.0954272
1.31                   -0.786414       0.0955212
1.311                  -0.786373       0.0956192
1.312                   -0.78634       0.0957209
1.313                  -0.786315        0.095827
1.314                  -0.786299       0.0959374
1.315                   -0.78629       0.0960522
1.316                  -0.786289       0.0961718
1.317                  -0.786295       0.0962963
1.318                  -0.786309       0.0964259
1.319                   -0.78633       0.0965607
1.32                   -0.786357        0.096701
1.321                  -0.786392       0.0968468
1.322                  -0.786432       0.0969982
1.323                   -0.78648       0.0971554
1.324                  -0.786533       0.0973187
1.325                  -0.786592       0.0974879
1.326                  -0.786657       0.0976634
1.327                  -0.786727       0.0978451
1.328                  -0.786803       0.0980331
1.329                  -0.786884       0.0982277
1.33                   -0.786969       0.0984287
1.331                   -0.78706       0.0986363
1.332                  -0.787154       0.0988508
1.333                  -0.787253        0.099072
1.334                  -0.787356       0.0992998
1.335                  -0.787462       0.0995349
1.336                  -0.787573       0.0997765
1.337                  -0.787686        0.100025
1.338                  -0.787803        0.100281
1.339                  -0.787922        0.100543
1.34                   -0.788045        0.100813
1.341                   -0.78817        0.101089
1.342                  -0.788297        0.101373
1.343                  -0.788426        0.101664
1.344                  -0.788557        0.101962
1.345                   -0.78869        0.102266
1.346                  -0.788825        0.102578
1.347                  -0.788961        0.102896
1.348                  -0.789098        0.103222
1.349                  -0.789236        0.103554
1.35                   -0.789374        0.103893
1.351                  -0.789514        0.104239
1.352                  -0.789653        0.104592
1.353                  -0.789793        0.104951
1.354                  -0.789934        0.105317
1.355                  -0.790074        0.105689
1.356                  -0.790213        0.106069
1.357                  -0.790353        0.106454
1.358                  -0.790492        0.106846
1.359                   -0.79063        0.107244
1.36                   -0.790768        0.107648
1.361                  -0.790904        0.108058
1.362                   -0.79104        0.108475
1.363                  -0.791174        0.108897
1.364                  -0.791307        0.109325
1.365                  -0.791438        0.109759
1.366                  -0.791568        0.110199
1.367                  -0.791696        0.110644
1.368                  -0.791823        0.111095
1.369                  -0.791947         0.11155
1.37                    -0.79207        0.112012
1.371                  -0.792191        0.112478
1.372                  -0.792309         0.11295
1.373                  -0.792425        0.113427
1.374                  -0.792539        0.113908
1.375                  -0.792651        0.114394
1.376                   -0.79276        0.114885
1.377                  -0.792867        0.115381
1.378                  -0.792971        0.115881
1.379                  -0.793073        0.116385
1.38                   -0.793172        0.116894
1.381                  -0.793268        0.117407
1.382                  -0.793361        0.117924
1.383                  -0.793452        0.118445
1.384                  -0.793539         0.11897
1.385                  -0.793624        0.119499
1.386                  -0.793706        0.120031
1.387                  -0.793785        0.120568
1.388                  -0.793862        0.121108
1.389                  -0.793935        0.121651
1.39                   -0.794005        0.122198
1.391                  -0.794072        0.122748
1.392                  -0.794136        0.123301
1.393                  -0.794197        0.123858
1.394                  -0.794255        0.124418
1.395                   -0.79431        0.124981
1.396                  -0.794362        0.125547
1.397                  -0.794411        0.126115
1.398                  -0.794456        0.126687
1.399                  -0.794499        0.127262
1.4                    -0.794538        0.127839
1.401                  -0.794575        0.128419
1.402                  -0.794608        0.129002
1.403                  -0.794638        0.129587
1.404                  -0.794665        0.130175
1.405                  -0.794689        0.130765
1.406                   -0.79471        0.131358
1.407                  -0.794727        0.131953
1.408                  -0.794742        0.132551
1.409                  -0.794753        0.133151
1.41                   -0.794762        0.133754
1.411                  -0.794767        0.134358
1.412                  -0.794769        0.134965
1.413                  -0.794767        0.135575
1.414                  -0.794763        0.136186
1.415                  -0.794756          0.1368
1.416                  -0.794745        0.137416
1.417                  -0.794731        0.138035
1.418                  -0.794714        0.138655
1.419                  -0.794694        0.139277
1.42                    -0.79467        0.139902
1.421                  -0.794643        0.140529
1.422                  -0.794613        0.141158
1.423                   -0.79458        0.141789
1.424                  -0.794543        0.142422
1.425                  -0.794503        0.143057
1.426                   -0.79446        0.143694
1.427                  -0.794413        0.144333
1.428                  -0.794363        0.144975
1.429                  -0.794309        0.145618
1.43                   -0.794252        0.146263
1.431                  -0.794191        0.146911
1.432                  -0.794126         0.14756
1.433                  -0.794058        0.148211
1.434                  -0.793987        0.148865
1.435                  -0.793911         0.14952
1.436                  -0.793832        0.150177
1.437                  -0.793749        0.150836
1.438                  -0.793662        0.151497
1.439                  -0.793571         0.15216
1.44                   -0.793476        0.152825
1.441                  -0.793377        0.153491
1.442                  -0.793274         0.15416
1.443                  -0.793167         0.15483
1.444                  -0.793055        0.155502
1.445                  -0.792939        0.156175
1.446                  -0.792819        0.156851
1.447                  -0.792695        0.157528
1.448                  -0.792565        0.158206
1.449                  -0.792432        0.158886
1.45                   -0.792293        0.159568
1.451                   -0.79215        0.160251
1.452                  -0.792002        0.160936
1.453                  -0.791849        0.161622
1.454                  -0.791691        0.162309
1.455                  -0.791528        0.162997
1.456                   -0.79136        0.163687
1.457                  -0.791187        0.164377
1.458                  -0.791009        0.165069
1.459                  -0.790825        0.165761
1.46                   -0.790636        0.166455
1.461                  -0.790441        0.167149
1.462                  -0.790241        0.167844
1.463                  -0.790036         0.16854
1.464                  -0.789824        0.169236
1.465                  -0.789607        0.169932
1.466                  -0.789384        0.170629
1.467                  -0.789155        0.171326
1.468                  -0.788921        0.172023
1.469                   -0.78868         0.17272
1.47                   -0.788433        0.173417
1.471                   -0.78818        0.174114
1.472                  -0.787921         0.17481
1.473                  -0.787656        0.175506
1.474                  -0.787384        0.176202
1.475                  -0.787107        0.176896
1.476                  -0.786822         0.17759
1.477                  -0.786532        0.178283
1.478                  -0.786235        0.178974
1.479                  -0.785932        0.179664
1.48                   -0.785622        0.180353
1.481                  -0.785306         0.18104
1.482                  -0.784983        0.181725
1.483                  -0.784654        0.182409
1.484                  -0.784319        0.183091
1.485                  -0.783976         0.18377
1.486                  -0.783628        0.184447
1.487                  -0.783273        0.185121
1.488                  -0.782911        0.185793
1.489                  -0.782543        0.186462
1.49                   -0.782168        0.187128
1.491                  -0.781787        0.187791
1.492                    -0.7814        0.188451
1.493                  -0.781006        0.189107
1.494                  -0.780606         0.18976
1.495                    -0.7802        0.190408
1.496                  -0.779787        0.191053
1.497                  -0.779369        0.191694
1.498                  -0.778944         0.19233
1.499                  -0.778513        0.192962
1.5                    -0.778076         0.19359
1.501                  -0.777633        0.194212
1.502                  -0.777185         0.19483
1.503                  -0.776731        0.195443
1.504                  -0.776271         0.19605
1.505                  -0.775806        0.196652
1.506                  -0.775335        0.197249
1.507                  -0.774859         0.19784
1.508                  -0.774378        0.198425
1.509                  -0.773892        0.199004
1.51                     -0.7734        0.199577
1.511                  -0.772904        0.200144
1.512                  -0.772404        0.200705
1.513                  -0.771898        0.201259
1.514                  -0.771389        0.201807
1.515                  -0.770875        0.202348
1.516                  -0.770357        0.202882
1.517                  -0.769835        0.203409
1.518                  -0.769309        0.203929
1.519                  -0.768779        0.204443
1.52                   -0.768247        0.204948
1.521                   -0.76771        0.205447
1.522                  -0.767171        0.205938
1.523                  -0.766629        0.206422
1.524                  -0.766084        0.206898
1.525                  -0.765536        0.207367
1.526                  -0.764986        0.207827
1.527                  -0.764433        0.208281
1.528                  -0.763879        0.208726
1.529                  -0.763323        0.209163
1.53                   -0.762765        0.209593
1.531                  -0.762205        0.210015
1.532                  -0.761645        0.210428
1.533                  -0.761083        0.210834
1.534                   -0.76052        0.211232
1.535                  -0.759956        0.211622
1.536                  -0.759392        0.212004
1.537                  -0.758828        0.212377
1.538                  -0.758264        0.212743
1.539                  -0.757699        0.213101
1.54                   -0.757135        0.213451
1.541                  -0.756571        0.213793
1.542                  -0.756008        0.214127
1.543                  -0.755446        0.214453
1.544                  -0.754884        0.214771
1.545                  -0.754324        0.215082
1.546                  -0.753766        0.215384
1.547                  -0.753208         0.21568
1.548                  -0.752653        0.215967
1.549                  -0.752099        0.216247
1.55                   -0.751548         0.21652
1.551                  -0.750999        0.216785
1.552                  -0.750452        0.217043
1.553                  -0.749908        0.217294
1.554                  -0.749366        0.217537
1.555                  -0.748828        0.217774
1.556                  -0.748292        0.218004
1.557                   -0.74776        0.218227
1.558                  -0.747231        0.218443
1.559                  -0.746705        0.218652
1.56                   -0.746183        0.218856
1.561                  -0.745665        0.219053
1.562                  -0.745151        0.219243
1.563                   -0.74464        0.219428
1.564                  -0.744134        0.219607
1.565                  -0.743632         0.21978
1.566                  -0.743134        0.219948
1.567                  -0.742641         0.22011
1.568                  -0.742152        0.220267
1.569                  -0.741668        0.220418
1.57                   -0.741189        0.220565
1.571                  -0.740714        0.220706
1.572                  -0.740244        0.220843
1.573                  -0.739779        0.220975
1.574                  -0.739319        0.221103
1.575                  -0.738864        0.221227
1.576                  -0.738414        0.221346
1.577                   -0.73797        0.221462
1.578                   -0.73753        0.221573
1.579                  -0.737095        0.221681
1.58                   -0.736666        0.221786
1.581                  -0.736242        0.221887
1.582                  -0.735824        0.221985
1.583                   -0.73541         0.22208
1.584                  -0.735002        0.222172
1.585                  -0.734599        0.222261
1.586                  -0.734202        0.222348
1.587                  -0.733809        0.222432
1.588                  -0.733422        0.222514
1.589                   -0.73304        0.222594
1.59                   -0.732664        0.222671
1.591                  -0.732293        0.222747
1.592                  -0.731926        0.222821
1.593                  -0.731565        0.222894
1.594                  -0.731209        0.222965
1.595                  -0.730858        0.223035
1.596                  -0.730512        0.223103
1.597                  -0.730171         0.22317
1.598                  -0.729835        0.223236
1.599                  -0.729504        0.223302
1.6                    -0.729178        0.223367
1.601                  -0.728856         0.22343
1.602                  -0.728539        0.223494
1.603                  -0.728226        0.223556
1.604                  -0.727919        0.223619
1.605                  -0.727615        0.223681
1.606                  -0.727316        0.223742
1.607                  -0.727021        0.223804
1.608                  -0.726731        0.223865
1.609                  -0.726444        0.223927
1.61                   -0.726162        0.223988
1.611                  -0.725884         0.22405
1.612                   -0.72561        0.224112
1.613                  -0.725339        0.224174
1.614                  -0.725072        0.224236
1.615                  -0.724809        0.224299
1.616                   -0.72455        0.224361
1.617                  -0.724294        0.224425
1.618                  -0.724042        0.224488
1.619                  -0.723793        0.224552
1.62                   -0.723547        0.224617
1.621                  -0.723305        0.224682
1.622                  -0.723065        0.224747
1.623                  -0.722829        0.224813
1.624                  -0.722596        0.224879
1.625                  -0.722366        0.224946
1.626                  -0.722139        0.225014
1.627                  -0.721914        0.225082
1.628                  -0.721693         0.22515
1.629                  -0.721474        0.225219
1.63                   -0.721258        0.225288
1.631                  -0.721044        0.225358
1.632                  -0.720833        0.225428
1.633                  -0.720625        0.225499
1.634                  -0.720419         0.22557
1.635                  -0.720215        0.225642
1.636                  -0.720014        0.225714
1.637                  -0.719815        0.225786
1.638                  -0.719619        0.225858
1.639                  -0.719425        0.225931
1.64                   -0.719233        0.226004
1.641                  -0.719044        0.226078
1.642                  -0.718857        0.226151
1.643                  -0.718672        0.226225
1.644                   -0.71849        0.226299
1.645                  -0.718309        0.226372
1.646                  -0.718132        0.226446
1.647                  -0.717956         0.22652
1.648                  -0.717782        0.226594
1.649                  -0.717611        0.226669
1.65                   -0.717443        0.226743
1.651                  -0.717276        0.226817
1.652                  -0.717112        0.226891
1.653                  -0.716951        0.226965
1.654                  -0.716791        0.227038
1.655                  -0.716634        0.227112
1.656                   -0.71648        0.227185
1.657                  -0.716328        0.227258
1.658                  -0.716179        0.227332
1.659                  -0.716033        0.227405
1.66                   -0.715889        0.227477
1.661                  -0.715748         0.22755
1.662                  -0.715609        0.227623
1.663                  -0.715474        0.227695
1.664                  -0.715341        0.227767
1.665                  -0.715211        0.227839
1.666                  -0.715084        0.227911
1.667                   -0.71496        0.227983
1.668                   -0.71484        0.228055
1.669                  -0.714722        0.228127
1.67                   -0.714608        0.228199
1.671                  -0.714497        0.228271
1.672                  -0.714389        0.228343
1.673                  -0.714285        0.228415
1.674                  -0.714184        0.228487
1.675                  -0.714086         0.22856
1.676                  -0.713993        0.228632
1.677                  -0.713903        0.228706
1.678                  -0.713816        0.228779
1.679                  -0.713734        0.228854
1.68                   -0.713655        0.228928
1.681                   -0.71358        0.229004
1.682                  -0.713509         0.22908
1.683                  -0.713442        0.229157
1.684                  -0.713379        0.229235
1.685                   -0.71332        0.229314
1.686                  -0.713265        0.229394
1.687                  -0.713215        0.229476
1.688                  -0.713168        0.229559
1.689                  -0.713126        0.229643
1.69                   -0.713088         0.22973
1.691                  -0.713054        0.229817
1.692                  -0.713024        0.229907
1.693                  -0.712999        0.229999
1.694                  -0.712978        0.230092
1.695                  -0.712961        0.230188
1.696                  -0.712949        0.230287
1.697                  -0.712941        0.230388
1.698                  -0.712937        0.230491
1.699                  -0.712937        0.230598
1.7                    -0.712942        0.230707
1.701                  -0.712951         0.23082
1.702                  -0.712964        0.230935
1.703                  -0.712981        0.231055
1.704                  -0.713002        0.231178
1.705                  -0.713027        0.231304
1.706                  -0.713056        0.231434
1.707                  -0.713089        0.231568
1.708                  -0.713126        0.231707
1.709                  -0.713167         0.23185
1.71                   -0.713211        0.231997
1.711                  -0.713259        0.232148
1.712                  -0.713311        0.232305
1.713                  -0.713366        0.232466
1.714                  -0.713424        0.232633
1.715                  -0.713485        0.232804
1.716                  -0.713549        0.232981
1.717                  -0.713617        0.233163
1.718                  -0.713687         0.23335
1.719                  -0.713759        0.233544
1.72                   -0.713835        0.233743
1.721                  -0.713912        0.233948
1.722                  -0.713992        0.234159
1.723                  -0.714074        0.234377
1.724                  -0.714157          0.2346
1.725                  -0.714243         0.23483
1.726                  -0.714329        0.235066
1.727                  -0.714417        0.235309
1.728                  -0.714507        0.235558
1.729                  -0.714597        0.235814
1.73                   -0.714688        0.236077
1.731                   -0.71478        0.236347
1.732                  -0.714871        0.236624
1.733                  -0.714963        0.236907
1.734                  -0.715055        0.237197
1.735                  -0.715147        0.237495
1.736                  -0.715238        0.237799
1.737                  -0.715328         0.23811
1.738                  -0.715418        0.238429
1.739                  -0.715506        0.238755
1.74                   -0.715593        0.239087
1.741                  -0.715679        0.239427
1.742                  -0.715762        0.239774
1.743                  -0.715844        0.240128
1.744                  -0.715923        0.240488
1.745                     -0.716        0.240856
1.746                  -0.716074        0.241231
1.747                  -0.716144        0.241612
1.748                  -0.716212           0.242
1.749                  -0.716277        0.242395
1.75                   -0.716337        0.242796
1.751                  -0.716394        0.243204
1.752                  -0.716447        0.243619
1.753                  -0.716496        0.244039
1.754                   -0.71654        0.244466
1.755                  -0.716579        0.244899
1.756                  -0.716613        0.245338
1.757                  -0.716643        0.245783
1.758                  -0.716667        0.246233
1.759                  -0.716685        0.246689
1.76                   -0.716698         0.24715
1.761                  -0.716705        0.247616
1.762                  -0.716706        0.248087
1.763                    -0.7167        0.248564
1.764                  -0.716689        0.249044
1.765                  -0.716671        0.249529
1.766                  -0.716646        0.250018
1.767                  -0.716614        0.250512
1.768                  -0.716576        0.251009
1.769                   -0.71653        0.251509
1.77                   -0.716477        0.252013
1.771                  -0.716417         0.25252
1.772                  -0.716349         0.25303
1.773                  -0.716274        0.253543
1.774                  -0.716191        0.254058
1.775                  -0.716101        0.254575
1.776                  -0.716003        0.255094
1.777                  -0.715897        0.255615
1.778                  -0.715783        0.256137
1.779                  -0.715662         0.25666
1.78                   -0.715532        0.257184
1.781                  -0.715395        0.257709
1.782                  -0.715249        0.258234
1.783                  -0.715096         0.25876
1.784                  -0.714934        0.259285
1.785                  -0.714765         0.25981
1.786                  -0.714588        0.260334
1.787                  -0.714402        0.260857
1.788                  -0.714209        0.261379
1.789                  -0.714009          0.2619
1.79                     -0.7138        0.262419
1.791                  -0.713584        0.262936
1.792                   -0.71336        0.263452
1.793                  -0.713129        0.263964
1.794                   -0.71289        0.264474
1.795                  -0.712644        0.264982
1.796                  -0.712391        0.265486
1.797                  -0.712131        0.265986
1.798                  -0.711864        0.266484
1.799                   -0.71159        0.266977
1.8                     -0.71131        0.267467
1.801                  -0.711023        0.267952
1.802                   -0.71073        0.268433
1.803                  -0.710431         0.26891
1.804                  -0.710125        0.269382
1.805                  -0.709814        0.269849
1.806                  -0.709498        0.270311
1.807                  -0.709176        0.270768
1.808                  -0.708849        0.271219
1.809                  -0.708517        0.271665
1.81                    -0.70818        0.272105
1.811                  -0.707839        0.272539
1.812                  -0.707493        0.272968
1.813                  -0.707144        0.273391
1.814                   -0.70679        0.273807
1.815                  -0.706433        0.274217
1.816                  -0.706073        0.274621
1.817                  -0.705709        0.275019
1.818                  -0.705342        0.275411
1.819                  -0.704973        0.275796
1.82                   -0.704601        0.276174
1.821                  -0.704228        0.276547
1.822                  -0.703852        0.276912
1.823                  -0.703474        0.277271
1.824                  -0.703095        0.277624
1.825                  -0.702715         0.27797
1.826                  -0.702334         0.27831
1.827                  -0.701952        0.278643
1.828                   -0.70157        0.278969
1.829                  -0.701187         0.27929
1.83                   -0.700804        0.279604
1.831                  -0.700422        0.279912
1.832                   -0.70004        0.280214
1.833                  -0.699658         0.28051
1.834                  -0.699277          0.2808
1.835                  -0.698898        0.281083
1.836                  -0.698519        0.281362
1.837                  -0.698142        0.281634
1.838                  -0.697767        0.281902
1.839                  -0.697393        0.282163
1.84                   -0.697021         0.28242
1.841                  -0.696652        0.282672
1.842                  -0.696284        0.282918
1.843                  -0.695919        0.283161
1.844                  -0.695557        0.283398
1.845                  -0.695197        0.283631
1.846                  -0.694841         0.28386
1.847                  -0.694487        0.284085
1.848                  -0.694136        0.284306
1.849                  -0.693789        0.284524
1.85                   -0.693444        0.284738
1.851                  -0.693103        0.284949
1.852                  -0.692766        0.285156
1.853                  -0.692432        0.285362
1.854                  -0.692101        0.285564
1.855                  -0.691774        0.285764
1.856                   -0.69145        0.285962
1.857                   -0.69113        0.286158
1.858                  -0.690814        0.286352
1.859                  -0.690501        0.286545
1.86                   -0.690192        0.286737
1.861                  -0.689887        0.286927
1.862                  -0.689585        0.287116
1.863                  -0.689286        0.287305
1.864                  -0.688991        0.287493
1.865                    -0.6887        0.287681
1.866                  -0.688411        0.287869
1.867                  -0.688126        0.288057
1.868                  -0.687844        0.288245
1.869                  -0.687565        0.288434
1.87                   -0.687289        0.288624
1.871                  -0.687016        0.288814
1.872                  -0.686746        0.289005
1.873                  -0.686478        0.289197
1.874                  -0.686212        0.289391
1.875                  -0.685949        0.289586
1.876                  -0.685688        0.289782
1.877                  -0.685428        0.289981
1.878                  -0.685171        0.290181
1.879                  -0.684915        0.290383
1.88                    -0.68466        0.290587
1.881                  -0.684407        0.290793
1.882                  -0.684155        0.291002
1.883                  -0.683904        0.291213
1.884                  -0.683653        0.291426
1.885                  -0.683403        0.291642
1.886                  -0.683153         0.29186
1.887                  -0.682902         0.29208
1.888                  -0.682652        0.292303
1.889                  -0.682401        0.292529
1.89                    -0.68215        0.292757
1.891                  -0.681898        0.292987
1.892                  -0.681644        0.293221
1.893                   -0.68139        0.293456
1.894                  -0.681134        0.293694
1.895                  -0.680876        0.293934
1.896                  -0.680616        0.294177
1.897                  -0.680354        0.294422
1.898                   -0.68009        0.294669
1.899                  -0.679823        0.294918
1.9                    -0.679553        0.295169
1.901                  -0.679281        0.295422
1.902                  -0.679005        0.295676
1.903                  -0.678726        0.295932
1.904                  -0.678443        0.296189
1.905                  -0.678157        0.296448
1.906                  -0.677867        0.296707
1.907                  -0.677573        0.296968
1.908                  -0.677274        0.297229
1.909                  -0.676972        0.297491
1.91                   -0.676665        0.297753
1.911                  -0.676353        0.298015
1.912                  -0.676037        0.298277
1.913                  -0.675715        0.298538
1.914                  -0.675389        0.298799
1.915                  -0.675058        0.299059
1.916                  -0.674722        0.299318
1.917                  -0.674381        0.299575
1.918                  -0.674034        0.299831
1.919                  -0.673683        0.300085
1.92                   -0.673326        0.300337
1.921                  -0.672963        0.300586
1.922                  -0.672596        0.300833
1.923                  -0.672223        0.301077
1.924                  -0.671845        0.301318
1.925                  -0.671461        0.301555
1.926                  -0.671073        0.301788
1.927                  -0.670679        0.302017
1.928                  -0.670281        0.302242
1.929                  -0.669877        0.302462
1.93                   -0.669469        0.302677
1.931                  -0.669056        0.302887
1.932                  -0.668637        0.303092
1.933                  -0.668215        0.303291
1.934                  -0.667789        0.303484
1.935                  -0.667358         0.30367
1.936                  -0.666923        0.303851
1.937                  -0.666484        0.304024
1.938                  -0.666042        0.304191
1.939                  -0.665596         0.30435
1.94                   -0.665147        0.304502
1.941                  -0.664695        0.304646
1.942                   -0.66424        0.304782
1.943                  -0.663783        0.304911
1.944                  -0.663324        0.305031
1.945                  -0.662863        0.305142
1.946                    -0.6624        0.305245
1.947                  -0.661936        0.305339
1.948                  -0.661471        0.305425
1.949                  -0.661005        0.305501
1.95                   -0.660539        0.305568
1.951                  -0.660072        0.305626
1.952                  -0.659606        0.305674
1.953                  -0.659141        0.305713
1.954                  -0.658677        0.305743
1.955                  -0.658213        0.305763
1.956                  -0.657752        0.305773
1.957                  -0.657293        0.305773
1.958                  -0.656836        0.305764
1.959                  -0.656382        0.305746
1.96                   -0.655931        0.305717
1.961                  -0.655483        0.305679
1.962                   -0.65504        0.305632
1.963                    -0.6546        0.305575
1.964                  -0.654166        0.305508
1.965                  -0.653736        0.305433
1.966                  -0.653311        0.305348
1.967                  -0.652893        0.305254
1.968                   -0.65248        0.305152
1.969                  -0.652074         0.30504
1.97                   -0.651675         0.30492
1.971                  -0.651283        0.304791
1.972                  -0.650898        0.304655
1.973                  -0.650521         0.30451
1.974                  -0.650153        0.304358
1.975                  -0.649792        0.304198
1.976                  -0.649441        0.304032
1.977                  -0.649099        0.303858
1.978                  -0.648766        0.303678
1.979                  -0.648442        0.303491
1.98                   -0.648129        0.303298
1.981                  -0.647826          0.3031
1.982                  -0.647533        0.302897
1.983                   -0.64725        0.302689
1.984                  -0.646979        0.302476
1.985                  -0.646719        0.302259
1.986                   -0.64647        0.302038
1.987                  -0.646232        0.301813
1.988                  -0.646006        0.301586
1.989                  -0.645791        0.301356
1.99                   -0.645589        0.301124
1.991                  -0.645398        0.300891
1.992                  -0.645219        0.300656
1.993                  -0.645053         0.30042
1.994                  -0.644898        0.300184
1.995                  -0.644756        0.299948
1.996                  -0.644626        0.299712
1.997                  -0.644508        0.299477
1.998                  -0.644402        0.299244
1.999                  -0.644308        0.299013
2                      -0.644227        0.298783
