! TOUCHSTONE file generated by CST MICROWAVE STUDIO
! Date and time: Tue Aug  4 15:55:28 2026
! Project name: Sonda-Coaxial_21mm_DisifixB_v2_Agua_Dest.cst
! Parameters = {h_recipiente=20; l_conector=5; r_arandela=35; r_ext=10.5; r_int=3; r_recipiente=50; z_recipiente=-40}
! Header version: 2018
! Port assignment regex: !\s*Touchstone port\s*([0-9]+)\s*=\s*(CST MWS port|CST DS port)\s*([0-9]+|Zmin|Zmax)\s*\(\"(.*)\"\)(\s*mode\s*([0-9]+))?.*
! Touchstone port assignment:
! Touchstone port 1 = CST MWS port 1 ("")
# GHz S RI R 50
0.001                   0.999971     -0.00764473
0.002                   0.999816      -0.0152834
0.003                   0.999559      -0.0229101
0.004                   0.999202      -0.0305188
0.005                   0.998746      -0.0381041
0.006                   0.998194      -0.0456603
0.007                   0.997548      -0.0531826
0.008                   0.996814       -0.060666
0.009                   0.995994      -0.0681063
0.01                    0.995093      -0.0754996
0.011                   0.994116      -0.0828426
0.012                   0.993068      -0.0901323
0.013                   0.991954      -0.0973664
0.014                   0.990779       -0.104543
0.015                   0.989549       -0.111662
0.016                   0.988269       -0.118721
0.017                   0.986945       -0.125722
0.018                   0.985582       -0.132664
0.019                   0.984186       -0.139549
0.02                    0.982761       -0.146378
0.021                   0.981313       -0.153155
0.022                   0.979845        -0.15988
0.023                   0.978362       -0.166559
0.024                   0.976867       -0.173193
0.025                   0.975364       -0.179787
0.026                   0.973855       -0.186346
0.027                   0.972342       -0.192873
0.028                   0.970828       -0.199373
0.029                   0.969312       -0.205851
0.03                    0.967796       -0.212312
0.031                    0.96628        -0.21876
0.032                   0.964763         -0.2252
0.033                   0.963244       -0.231636
0.034                   0.961721       -0.238074
0.035                   0.960193       -0.244516
0.036                   0.958656       -0.250967
0.037                   0.957107        -0.25743
0.038                   0.955544       -0.263909
0.039                   0.953961       -0.270406
0.04                    0.952356       -0.276923
0.041                   0.950725       -0.283462
0.042                   0.949061       -0.290024
0.043                   0.947362       -0.296609
0.044                   0.945622       -0.303219
0.045                   0.943837       -0.309852
0.046                   0.942002       -0.316507
0.047                   0.940112       -0.323184
0.048                   0.938164        -0.32988
0.049                   0.936153       -0.336592
0.05                    0.934076       -0.343318
0.051                   0.931928       -0.350055
0.052                   0.929707       -0.356798
0.053                   0.927411       -0.363544
0.054                   0.925036       -0.370289
0.055                   0.922582       -0.377027
0.056                   0.920046       -0.383755
0.057                   0.917428       -0.390467
0.058                   0.914728       -0.397159
0.059                   0.911945       -0.403825
0.06                    0.909081       -0.410461
0.061                   0.906137       -0.417061
0.062                   0.903114       -0.423622
0.063                   0.900015       -0.430139
0.064                   0.896842       -0.436607
0.065                   0.893598       -0.443023
0.066                   0.890287       -0.449383
0.067                   0.886912       -0.455685
0.068                   0.883477       -0.461925
0.069                   0.879986         -0.4681
0.07                    0.876444        -0.47421
0.071                   0.872855       -0.480253
0.072                   0.869223       -0.486228
0.073                   0.865554       -0.492134
0.074                   0.861852       -0.497972
0.075                   0.858121       -0.503741
0.076                   0.854365       -0.509443
0.077                   0.850589        -0.51508
0.078                   0.846797       -0.520653
0.079                   0.842992       -0.526164
0.08                    0.839178       -0.531615
0.081                   0.835357        -0.53701
0.082                   0.831532       -0.542352
0.083                   0.827705       -0.547643
0.084                   0.823879       -0.552888
0.085                   0.820055       -0.558089
0.086                   0.816232        -0.56325
0.087                   0.812413       -0.568376
0.088                   0.808598       -0.573469
0.089                   0.804785       -0.578533
0.09                    0.800973       -0.583571
0.091                   0.797163       -0.588587
0.092                   0.793353       -0.593584
0.093                    0.78954       -0.598564
0.094                   0.785723        -0.60353
0.095                   0.781898       -0.608484
0.096                   0.778065       -0.613428
0.097                   0.774218       -0.618362
0.098                   0.770357        -0.62329
0.099                   0.766478        -0.62821
0.1                     0.762577       -0.633123
0.101                   0.758652        -0.63803
0.102                   0.754699       -0.642929
0.103                   0.750716       -0.647819
0.104                     0.7467       -0.652701
0.105                   0.742648        -0.65757
0.106                   0.738558       -0.662427
0.107                   0.734428       -0.667269
0.108                   0.730255       -0.672092
0.109                   0.726038       -0.676895
0.11                    0.721777       -0.681675
0.111                   0.717469       -0.686428
0.112                   0.713115       -0.691151
0.113                   0.708715       -0.695841
0.114                   0.704267       -0.700495
0.115                   0.699774        -0.70511
0.116                   0.695236       -0.709681
0.117                   0.690654       -0.714207
0.118                    0.68603       -0.718685
0.119                   0.681366       -0.723111
0.12                    0.676664       -0.727483
0.121                   0.671927       -0.731799
0.122                   0.667156       -0.736057
0.123                   0.662357       -0.740255
0.124                    0.65753       -0.744391
0.125                   0.652681       -0.748465
0.126                    0.64781       -0.752477
0.127                   0.642924       -0.756425
0.128                   0.638024       -0.760309
0.129                   0.633114       -0.764131
0.13                    0.628197        -0.76789
0.131                   0.623277       -0.771588
0.132                   0.618356       -0.775226
0.133                   0.613437       -0.778806
0.134                   0.608523       -0.782329
0.135                   0.603615       -0.785799
0.136                   0.598717       -0.789216
0.137                    0.59383       -0.792584
0.138                   0.588955       -0.795905
0.139                   0.584094       -0.799183
0.14                    0.579247       -0.802419
0.141                   0.574414       -0.805617
0.142                   0.569598        -0.80878
0.143                   0.564795        -0.81191
0.144                   0.560007        -0.81501
0.145                   0.555234       -0.818083
0.146                   0.550472       -0.821132
0.147                   0.545721       -0.824158
0.148                    0.54098       -0.827163
0.149                   0.536248       -0.830149
0.15                    0.531521       -0.833119
0.151                   0.526798       -0.836073
0.152                   0.522077       -0.839011
0.153                   0.517356       -0.841935
0.154                   0.512631       -0.844846
0.155                   0.507901       -0.847743
0.156                   0.503163       -0.850626
0.157                   0.498416       -0.853494
0.158                   0.493657       -0.856347
0.159                   0.488884       -0.859183
0.16                    0.484095       -0.862001
0.161                    0.47929         -0.8648
0.162                   0.474465       -0.867578
0.163                   0.469621       -0.870332
0.164                   0.464755       -0.873061
0.165                   0.459868       -0.875763
0.166                    0.45496       -0.878435
0.167                    0.45003       -0.881074
0.168                   0.445078        -0.88368
0.169                   0.440105       -0.886248
0.17                    0.435111       -0.888777
0.171                   0.430098       -0.891265
0.172                   0.425068       -0.893709
0.173                   0.420021       -0.896109
0.174                    0.41496       -0.898461
0.175                   0.409886       -0.900765
0.176                   0.404802       -0.903018
0.177                    0.39971       -0.905221
0.178                   0.394613       -0.907373
0.179                   0.389512       -0.909472
0.18                    0.384412       -0.911518
0.181                   0.379313       -0.913513
0.182                    0.37422       -0.915455
0.183                   0.369134       -0.917346
0.184                   0.364058       -0.919186
0.185                   0.358994       -0.920977
0.186                   0.353945        -0.92272
0.187                   0.348912       -0.924416
0.188                   0.343898       -0.926068
0.189                   0.338904       -0.927678
0.19                    0.333931       -0.929247
0.191                   0.328982       -0.930778
0.192                   0.324055       -0.932273
0.193                   0.319153       -0.933735
0.194                   0.314276       -0.935166
0.195                   0.309424       -0.936569
0.196                   0.304595       -0.937946
0.197                   0.299791         -0.9393
0.198                   0.295011       -0.940632
0.199                   0.290252       -0.941946
0.2                     0.285515       -0.943242
0.201                   0.280798       -0.944524
0.202                   0.276099       -0.945791
0.203                   0.271416       -0.947047
0.204                   0.266748       -0.948292
0.205                   0.262092       -0.949526
0.206                   0.257448       -0.950751
0.207                   0.252811       -0.951967
0.208                   0.248181       -0.953175
0.209                   0.243556       -0.954373
0.21                    0.238933       -0.955562
0.211                    0.23431       -0.956742
0.212                   0.229686        -0.95791
0.213                   0.225059       -0.959067
0.214                   0.220427        -0.96021
0.215                   0.215789       -0.961338
0.216                   0.211144        -0.96245
0.217                   0.206491       -0.963544
0.218                    0.20183       -0.964618
0.219                    0.19716       -0.965669
0.22                     0.19248       -0.966697
0.221                   0.187791       -0.967699
0.222                   0.183094       -0.968673
0.223                   0.178389       -0.969617
0.224                   0.173676       -0.970529
0.225                   0.168958       -0.971407
0.226                   0.164234        -0.97225
0.227                   0.159508       -0.973057
0.228                    0.15478       -0.973825
0.229                   0.150052       -0.974554
0.23                    0.145327       -0.975244
0.231                   0.140606       -0.975893
0.232                   0.135892       -0.976501
0.233                   0.131186       -0.977068
0.234                   0.126493       -0.977594
0.235                   0.121812       -0.978079
0.236                   0.117147       -0.978525
0.237                     0.1125       -0.978932
0.238                   0.107872       -0.979301
0.239                   0.103266       -0.979633
0.24                   0.0986834       -0.979931
0.241                  0.0941254       -0.980195
0.242                  0.0895939       -0.980428
0.243                  0.0850898       -0.980632
0.244                  0.0806137       -0.980809
0.245                  0.0761669       -0.980961
0.246                  0.0717488        -0.98109
0.247                  0.0673605         -0.9812
0.248                  0.0630012       -0.981291
0.249                  0.0586709       -0.981367
0.25                   0.0543689        -0.98143
0.251                  0.0500939       -0.981481
0.252                  0.0458455       -0.981523
0.253                  0.0416221       -0.981558
0.254                  0.0374218       -0.981587
0.255                  0.0332431       -0.981612
0.256                  0.0290847       -0.981633
0.257                  0.0249441       -0.981653
0.258                  0.0208193       -0.981671
0.259                  0.0167083       -0.981688
0.26                   0.0126088       -0.981705
0.261                 0.00851911       -0.981722
0.262                 0.00443667       -0.981737
0.263                0.000359498       -0.981751
0.264                -0.00371394       -0.981763
0.265                -0.00778611       -0.981772
0.266                 -0.0118583       -0.981777
0.267                 -0.0159321       -0.981776
0.268                 -0.0200086       -0.981768
0.269                 -0.0240891        -0.98175
0.27                  -0.0281747       -0.981722
0.271                 -0.0322656       -0.981681
0.272                 -0.0363623       -0.981625
0.273                 -0.0404652       -0.981552
0.274                 -0.0445737       -0.981459
0.275                 -0.0486875       -0.981346
0.276                 -0.0528062        -0.98121
0.277                 -0.0569285       -0.981049
0.278                 -0.0610535       -0.980861
0.279                 -0.0651796       -0.980644
0.28                  -0.0693053       -0.980398
0.281                 -0.0734291       -0.980121
0.282                 -0.0775485       -0.979812
0.283                 -0.0816618       -0.979471
0.284                 -0.0857671       -0.979095
0.285                 -0.0898614       -0.978687
0.286                 -0.0939431       -0.978244
0.287                 -0.0980098       -0.977768
0.288                  -0.102059        -0.97726
0.289                  -0.106089       -0.976719
0.29                   -0.110098       -0.976147
0.291                  -0.114083       -0.975546
0.292                  -0.118043       -0.974916
0.293                  -0.121976        -0.97426
0.294                   -0.12588        -0.97358
0.295                  -0.129755       -0.972877
0.296                  -0.133599       -0.972155
0.297                  -0.137413       -0.971414
0.298                  -0.141195       -0.970658
0.299                  -0.144945       -0.969889
0.3                    -0.148664        -0.96911
0.301                  -0.152351       -0.968323
0.302                  -0.156009       -0.967531
0.303                  -0.159636       -0.966735
0.304                  -0.163237       -0.965937
0.305                   -0.16681       -0.965141
0.306                  -0.170359       -0.964347
0.307                  -0.173884       -0.963558
0.308                  -0.177389       -0.962774
0.309                  -0.180876       -0.961998
0.31                   -0.184346       -0.961228
0.311                  -0.187803       -0.960467
0.312                  -0.191249       -0.959714
0.313                  -0.194687       -0.958969
0.314                  -0.198118       -0.958232
0.315                  -0.201546       -0.957503
0.316                  -0.204972        -0.95678
0.317                    -0.2084       -0.956061
0.318                  -0.211831       -0.955346
0.319                  -0.215267       -0.954633
0.32                   -0.218709        -0.95392
0.321                   -0.22216       -0.953204
0.322                   -0.22562       -0.952484
0.323                   -0.22909       -0.951756
0.324                  -0.232571       -0.951018
0.325                  -0.236062       -0.950268
0.326                  -0.239565       -0.949502
0.327                  -0.243077       -0.948719
0.328                  -0.246599       -0.947916
0.329                  -0.250129       -0.947089
0.33                   -0.253667       -0.946238
0.331                   -0.25721       -0.945359
0.332                  -0.260756       -0.944451
0.333                  -0.264304       -0.943511
0.334                   -0.26785       -0.942539
0.335                  -0.271393       -0.941534
0.336                  -0.274929       -0.940493
0.337                  -0.278456       -0.939418
0.338                  -0.281971       -0.938307
0.339                  -0.285471       -0.937162
0.34                   -0.288953       -0.935981
0.341                  -0.292414       -0.934768
0.342                  -0.295852       -0.933521
0.343                  -0.299264       -0.932244
0.344                  -0.302647       -0.930938
0.345                  -0.305999       -0.929606
0.346                   -0.30932       -0.928249
0.347                  -0.312606        -0.92687
0.348                  -0.315857       -0.925473
0.349                  -0.319072       -0.924061
0.35                    -0.32225       -0.922636
0.351                  -0.325391       -0.921202
0.352                  -0.328496       -0.919762
0.353                  -0.331566        -0.91832
0.354                    -0.3346       -0.916878
0.355                  -0.337602        -0.91544
0.356                  -0.340573       -0.914009
0.357                  -0.343516       -0.912587
0.358                  -0.346432       -0.911176
0.359                  -0.349326        -0.90978
0.36                     -0.3522       -0.908398
0.361                  -0.355058       -0.907034
0.362                  -0.357904       -0.905687
0.363                  -0.360742       -0.904358
0.364                  -0.363575       -0.903046
0.365                  -0.366409       -0.901752
0.366                  -0.369246       -0.900474
0.367                  -0.372091       -0.899211
0.368                  -0.374949       -0.897959
0.369                  -0.377822       -0.896718
0.37                   -0.380714       -0.895482
0.371                  -0.383628       -0.894249
0.372                  -0.386567       -0.893015
0.373                  -0.389534       -0.891775
0.374                  -0.392529       -0.890524
0.375                  -0.395555       -0.889257
0.376                  -0.398613       -0.887968
0.377                  -0.401701       -0.886652
0.378                  -0.404821       -0.885302
0.379                   -0.40797       -0.883914
0.38                   -0.411147        -0.88248
0.381                  -0.414349       -0.880995
0.382                  -0.417573       -0.879454
0.383                  -0.420816       -0.877851
0.384                  -0.424072        -0.87618
0.385                  -0.427336       -0.874437
0.386                  -0.430603       -0.872617
0.387                  -0.433866       -0.870717
0.388                  -0.437118       -0.868733
0.389                  -0.440351       -0.866663
0.39                   -0.443559       -0.864504
0.391                  -0.446731       -0.862255
0.392                  -0.449861       -0.859917
0.393                   -0.45294       -0.857489
0.394                  -0.455958       -0.854972
0.395                  -0.458907        -0.85237
0.396                  -0.461778       -0.849684
0.397                  -0.464562       -0.846919
0.398                  -0.467252        -0.84408
0.399                  -0.469839       -0.841171
0.4                    -0.472315       -0.838201
0.401                  -0.474674       -0.835176
0.402                  -0.476908       -0.832104
0.403                  -0.479013       -0.828994
0.404                  -0.480982       -0.825856
0.405                  -0.482812       -0.822699
0.406                    -0.4845       -0.819535
0.407                  -0.486042       -0.816373
0.408                  -0.487437       -0.813226
0.409                  -0.488685       -0.810105
0.41                   -0.489787       -0.807022
0.411                  -0.490744       -0.803988
0.412                  -0.491558       -0.801016
0.413                  -0.492234       -0.798116
0.414                  -0.492776       -0.795301
0.415                  -0.493191        -0.79258
0.416                  -0.493485       -0.789965
0.417                  -0.493666       -0.787466
0.418                  -0.493743       -0.785091
0.419                  -0.493726       -0.782849
0.42                   -0.493625       -0.780748
0.421                  -0.493451       -0.778794
0.422                  -0.493217       -0.776994
0.423                  -0.492933       -0.775352
0.424                  -0.492614       -0.773871
0.425                  -0.492273       -0.772555
0.426                  -0.491922       -0.771405
0.427                  -0.491575        -0.77042
0.428                  -0.491246         -0.7696
0.429                  -0.490948       -0.768943
0.43                   -0.490694       -0.768445
0.431                  -0.490498       -0.768101
0.432                   -0.49037       -0.767906
0.433                  -0.490324       -0.767854
0.434                  -0.490371       -0.767936
0.435                   -0.49052       -0.768144
0.436                  -0.490781       -0.768468
0.437                  -0.491164       -0.768898
0.438                  -0.491676       -0.769422
0.439                  -0.492324       -0.770029
0.44                   -0.493113       -0.770707
0.441                  -0.494047       -0.771442
0.442                  -0.495131       -0.772223
0.443                  -0.496365       -0.773036
0.444                  -0.497752       -0.773867
0.445                   -0.49929       -0.774704
0.446                  -0.500979       -0.775534
0.447                  -0.502815       -0.776343
0.448                  -0.504796        -0.77712
0.449                  -0.506915       -0.777854
0.45                   -0.509168       -0.778531
0.451                  -0.511548       -0.779143
0.452                  -0.514046       -0.779679
0.453                  -0.516656       -0.780131
0.454                  -0.519367       -0.780489
0.455                   -0.52217       -0.780748
0.456                  -0.525055       -0.780901
0.457                  -0.528011       -0.780943
0.458                  -0.531028       -0.780869
0.459                  -0.534095       -0.780678
0.46                   -0.537199       -0.780367
0.461                  -0.540332       -0.779935
0.462                  -0.543481       -0.779382
0.463                  -0.546635       -0.778711
0.464                  -0.549785       -0.777922
0.465                   -0.55292        -0.77702
0.466                  -0.556032       -0.776008
0.467                  -0.559111       -0.774892
0.468                   -0.56215       -0.773676
0.469                   -0.56514       -0.772367
0.47                   -0.568076       -0.770972
0.471                  -0.570951       -0.769499
0.472                  -0.573761       -0.767954
0.473                  -0.576501       -0.766346
0.474                  -0.579169       -0.764683
0.475                  -0.581761       -0.762974
0.476                  -0.584278       -0.761226
0.477                  -0.586718       -0.759449
0.478                  -0.589082       -0.757649
0.479                   -0.59137       -0.755835
0.48                   -0.593586       -0.754015
0.481                  -0.595731       -0.752195
0.482                  -0.597809       -0.750382
0.483                  -0.599824       -0.748582
0.484                  -0.601782       -0.746801
0.485                  -0.603686       -0.745043
0.486                  -0.605541       -0.743312
0.487                  -0.607355       -0.741612
0.488                  -0.609132       -0.739946
0.489                   -0.61088       -0.738314
0.49                   -0.612604       -0.736719
0.491                  -0.614309       -0.735162
0.492                  -0.616003        -0.73364
0.493                  -0.617691       -0.732155
0.494                  -0.619378       -0.730703
0.495                   -0.62107       -0.729283
0.496                  -0.622772       -0.727892
0.497                  -0.624488       -0.726527
0.498                  -0.626222       -0.725183
0.499                  -0.627977       -0.723857
0.5                    -0.629756       -0.722544
0.501                  -0.631561       -0.721239
0.502                  -0.633394       -0.719938
0.503                  -0.635256       -0.718634
0.504                  -0.637146       -0.717324
0.505                  -0.639065       -0.716001
0.506                  -0.641012       -0.714662
0.507                  -0.642984       -0.713302
0.508                   -0.64498       -0.711915
0.509                  -0.646998       -0.710498
0.51                   -0.649033       -0.709047
0.511                  -0.651083       -0.707559
0.512                  -0.653143       -0.706031
0.513                  -0.655209        -0.70446
0.514                  -0.657278       -0.702845
0.515                  -0.659343       -0.701184
0.516                  -0.661401       -0.699478
0.517                  -0.663446       -0.697724
0.518                  -0.665474       -0.695925
0.519                   -0.66748       -0.694082
0.52                    -0.66946       -0.692195
0.521                  -0.671409       -0.690267
0.522                  -0.673324         -0.6883
0.523                  -0.675201       -0.686299
0.524                  -0.677036       -0.684265
0.525                  -0.678827       -0.682204
0.526                  -0.680572       -0.680118
0.527                  -0.682268       -0.678013
0.528                  -0.683916       -0.675894
0.529                  -0.685513       -0.673764
0.53                   -0.687061       -0.671628
0.531                  -0.688559       -0.669492
0.532                  -0.690009       -0.667359
0.533                  -0.691413       -0.665234
0.534                  -0.692772       -0.663121
0.535                   -0.69409       -0.661024
0.536                  -0.695369       -0.658946
0.537                  -0.696614       -0.656891
0.538                  -0.697827        -0.65486
0.539                  -0.699014       -0.652857
0.54                   -0.700179       -0.650882
0.541                  -0.701327       -0.648936
0.542                  -0.702462       -0.647019
0.543                   -0.70359       -0.645132
0.544                  -0.704715       -0.643273
0.545                  -0.705842        -0.64144
0.546                  -0.706975       -0.639632
0.547                  -0.708119       -0.637844
0.548                  -0.709278       -0.636075
0.549                  -0.710456       -0.634319
0.55                   -0.711654       -0.632573
0.551                  -0.712877       -0.630831
0.552                  -0.714126       -0.629088
0.553                  -0.715402       -0.627339
0.554                  -0.716705       -0.625577
0.555                  -0.718037       -0.623796
0.556                  -0.719395       -0.621991
0.557                  -0.720779       -0.620154
0.558                  -0.722187        -0.61828
0.559                  -0.723614       -0.616363
0.56                   -0.725057       -0.614397
0.561                  -0.726511       -0.612376
0.562                  -0.727973       -0.610295
0.563                  -0.729434        -0.60815
0.564                  -0.730889       -0.605937
0.565                   -0.73233       -0.603653
0.566                   -0.73375       -0.601293
0.567                  -0.735141       -0.598858
0.568                  -0.736493       -0.596345
0.569                  -0.737799       -0.593755
0.57                   -0.739049       -0.591087
0.571                  -0.740235       -0.588344
0.572                  -0.741346       -0.585528
0.573                  -0.742375       -0.582643
0.574                  -0.743311       -0.579693
0.575                  -0.744147       -0.576682
0.576                  -0.744875       -0.573619
0.577                  -0.745486       -0.570509
0.578                  -0.745973       -0.567361
0.579                   -0.74633       -0.564184
0.58                    -0.74655       -0.560988
0.581                   -0.74663       -0.557781
0.582                  -0.746565       -0.554576
0.583                  -0.746351       -0.551385
0.584                  -0.745987       -0.548217
0.585                  -0.745471       -0.545087
0.586                  -0.744804       -0.542006
0.587                  -0.743986       -0.538987
0.588                  -0.743019       -0.536042
0.589                  -0.741908       -0.533185
0.59                   -0.740656       -0.530427
0.591                  -0.739269       -0.527781
0.592                  -0.737754       -0.525258
0.593                  -0.736118       -0.522869
0.594                  -0.734371       -0.520626
0.595                  -0.732523       -0.518537
0.596                  -0.730583       -0.516613
0.597                  -0.728564        -0.51486
0.598                  -0.726479       -0.513288
0.599                  -0.724339       -0.511901
0.6                    -0.722159       -0.510706
0.601                  -0.719953       -0.509705
0.602                  -0.717736       -0.508902
0.603                  -0.715521       -0.508299
0.604                  -0.713324       -0.507896
0.605                  -0.711161       -0.507691
0.606                  -0.709045       -0.507683
0.607                  -0.706992       -0.507869
0.608                  -0.705016       -0.508244
0.609                  -0.703131       -0.508801
0.61                   -0.701351       -0.509534
0.611                  -0.699688       -0.510435
0.612                  -0.698154       -0.511495
0.613                  -0.696762       -0.512702
0.614                  -0.695522       -0.514048
0.615                  -0.694442       -0.515518
0.616                  -0.693531       -0.517102
0.617                  -0.692797       -0.518785
0.618                  -0.692247       -0.520554
0.619                  -0.691884       -0.522394
0.62                   -0.691713       -0.524292
0.621                  -0.691736       -0.526232
0.622                  -0.691955         -0.5282
0.623                   -0.69237       -0.530181
0.624                   -0.69298        -0.53216
0.625                  -0.693782       -0.534123
0.626                  -0.694773       -0.536056
0.627                  -0.695949       -0.537945
0.628                  -0.697303       -0.539778
0.629                  -0.698829       -0.541542
0.63                   -0.700521       -0.543226
0.631                  -0.702368       -0.544818
0.632                  -0.704362       -0.546308
0.633                  -0.706492       -0.547688
0.634                   -0.70875        -0.54895
0.635                  -0.711123       -0.550086
0.636                  -0.713601       -0.551089
0.637                  -0.716171       -0.551956
0.638                  -0.718822       -0.552683
0.639                  -0.721541       -0.553265
0.64                   -0.724318       -0.553702
0.641                  -0.727139       -0.553992
0.642                  -0.729994       -0.554136
0.643                  -0.732871       -0.554135
0.644                  -0.735759       -0.553991
0.645                  -0.738647       -0.553706
0.646                  -0.741525       -0.553286
0.647                  -0.744383       -0.552733
0.648                  -0.747214       -0.552053
0.649                  -0.750007       -0.551253
0.65                   -0.752757       -0.550338
0.651                  -0.755455       -0.549316
0.652                  -0.758097       -0.548193
0.653                  -0.760676       -0.546976
0.654                  -0.763188       -0.545675
0.655                   -0.76563       -0.544296
0.656                  -0.767999       -0.542848
0.657                  -0.770293       -0.541338
0.658                   -0.77251       -0.539775
0.659                   -0.77465       -0.538166
0.66                   -0.776713       -0.536518
0.661                    -0.7787       -0.534839
0.662                  -0.780612       -0.533137
0.663                  -0.782451       -0.531416
0.664                   -0.78422       -0.529684
0.665                  -0.785922       -0.527946
0.666                  -0.787559       -0.526207
0.667                  -0.789137       -0.524472
0.668                  -0.790658       -0.522744
0.669                  -0.792127       -0.521028
0.67                   -0.793549       -0.519327
0.671                  -0.794927       -0.517642
0.672                  -0.796267       -0.515976
0.673                  -0.797573        -0.51433
0.674                  -0.798849       -0.512705
0.675                    -0.8001         -0.5111
0.676                   -0.80133       -0.509518
0.677                  -0.802543       -0.507955
0.678                  -0.803742       -0.506412
0.679                  -0.804931       -0.504887
0.68                   -0.806114       -0.503378
0.681                  -0.807292       -0.501884
0.682                  -0.808469       -0.500403
0.683                  -0.809646       -0.498931
0.684                  -0.810825       -0.497467
0.685                  -0.812008       -0.496008
0.686                  -0.813196       -0.494551
0.687                  -0.814388       -0.493093
0.688                  -0.815586       -0.491633
0.689                  -0.816789       -0.490167
0.69                   -0.817997       -0.488692
0.691                  -0.819209       -0.487208
0.692                  -0.820423       -0.485711
0.693                   -0.82164       -0.484199
0.694                  -0.822856       -0.482672
0.695                  -0.824071       -0.481126
0.696                  -0.825283       -0.479562
0.697                  -0.826489       -0.477978
0.698                  -0.827688       -0.476373
0.699                  -0.828878       -0.474748
0.7                    -0.830056       -0.473101
0.701                   -0.83122       -0.471434
0.702                  -0.832369       -0.469745
0.703                    -0.8335       -0.468037
0.704                  -0.834611        -0.46631
0.705                  -0.835701       -0.464564
0.706                  -0.836769       -0.462802
0.707                  -0.837812       -0.461024
0.708                  -0.838829       -0.459232
0.709                   -0.83982       -0.457429
0.71                   -0.840784       -0.455615
0.711                   -0.84172       -0.453792
0.712                  -0.842627       -0.451963
0.713                  -0.843505       -0.450128
0.714                  -0.844355       -0.448291
0.715                  -0.845176       -0.446453
0.716                   -0.84597       -0.444615
0.717                  -0.846736        -0.44278
0.718                  -0.847475       -0.440948
0.719                  -0.848189       -0.439122
0.72                   -0.848878       -0.437302
0.721                  -0.849544        -0.43549
0.722                  -0.850187       -0.433687
0.723                  -0.850809       -0.431893
0.724                  -0.851412       -0.430109
0.725                  -0.851996       -0.428336
0.726                  -0.852563       -0.426574
0.727                  -0.853115       -0.424823
0.728                  -0.853653       -0.423082
0.729                  -0.854177       -0.421352
0.73                    -0.85469       -0.419632
0.731                  -0.855191       -0.417922
0.732                  -0.855683       -0.416222
0.733                  -0.856165       -0.414529
0.734                  -0.856639       -0.412845
0.735                  -0.857105       -0.411167
0.736                  -0.857563       -0.409495
0.737                  -0.858013       -0.407828
0.738                  -0.858456       -0.406165
0.739                  -0.858891       -0.404506
0.74                   -0.859318       -0.402848
0.741                  -0.859737       -0.401193
0.742                  -0.860146       -0.399539
0.743                  -0.860546       -0.397885
0.744                  -0.860934       -0.396231
0.745                  -0.861312       -0.394577
0.746                  -0.861677       -0.392922
0.747                  -0.862028       -0.391268
0.748                  -0.862365       -0.389613
0.749                  -0.862687       -0.387958
0.75                   -0.862991       -0.386304
0.751                  -0.863278       -0.384651
0.752                  -0.863546          -0.383
0.753                  -0.863795       -0.381353
0.754                  -0.864023       -0.379711
0.755                   -0.86423       -0.378074
0.756                  -0.864415       -0.376444
0.757                  -0.864578       -0.374823
0.758                   -0.86472       -0.373213
0.759                  -0.864838       -0.371615
0.76                   -0.864935       -0.370031
0.761                   -0.86501       -0.368463
0.762                  -0.865064       -0.366913
0.763                  -0.865097       -0.365382
0.764                  -0.865111       -0.363873
0.765                  -0.865107       -0.362387
0.766                  -0.865086       -0.360926
0.767                  -0.865049       -0.359492
0.768                     -0.865       -0.358085
0.769                  -0.864939       -0.356707
0.77                   -0.864869        -0.35536
0.771                  -0.864792       -0.354044
0.772                   -0.86471        -0.35276
0.773                  -0.864627       -0.351508
0.774                  -0.864544       -0.350288
0.775                  -0.864464       -0.349101
0.776                   -0.86439       -0.347947
0.777                  -0.864325       -0.346825
0.778                  -0.864271       -0.345733
0.779                  -0.864231       -0.344671
0.78                   -0.864208       -0.343639
0.781                  -0.864203       -0.342633
0.782                   -0.86422       -0.341653
0.783                   -0.86426       -0.340696
0.784                  -0.864325        -0.33976
0.785                  -0.864417       -0.338844
0.786                  -0.864538       -0.337943
0.787                  -0.864689       -0.337056
0.788                  -0.864871        -0.33618
0.789                  -0.865085       -0.335311
0.79                   -0.865332       -0.334447
0.791                  -0.865611       -0.333585
0.792                  -0.865923       -0.332722
0.793                  -0.866268       -0.331854
0.794                  -0.866644       -0.330978
0.795                  -0.867052       -0.330091
0.796                  -0.867489       -0.329192
0.797                  -0.867955       -0.328276
0.798                  -0.868448       -0.327341
0.799                  -0.868966       -0.326385
0.8                    -0.869507       -0.325406
0.801                  -0.870069       -0.324401
0.802                   -0.87065       -0.323368
0.803                  -0.871247       -0.322306
0.804                  -0.871857       -0.321213
0.805                  -0.872477        -0.32009
0.806                  -0.873105       -0.318933
0.807                  -0.873738       -0.317744
0.808                  -0.874373       -0.316521
0.809                  -0.875007       -0.315264
0.81                   -0.875638       -0.313975
0.811                  -0.876262       -0.312653
0.812                  -0.876878       -0.311298
0.813                  -0.877482       -0.309913
0.814                  -0.878072       -0.308497
0.815                  -0.878646       -0.307053
0.816                  -0.879202       -0.305582
0.817                  -0.879739       -0.304085
0.818                  -0.880254       -0.302564
0.819                  -0.880745       -0.301021
0.82                   -0.881214       -0.299459
0.821                  -0.881657       -0.297878
0.822                  -0.882074       -0.296282
0.823                  -0.882465       -0.294671
0.824                  -0.882829       -0.293048
0.825                  -0.883167       -0.291415
0.826                  -0.883479       -0.289774
0.827                  -0.883765       -0.288126
0.828                  -0.884024       -0.286474
0.829                  -0.884259       -0.284818
0.83                    -0.88447       -0.283159
0.831                  -0.884658         -0.2815
0.832                  -0.884823       -0.279841
0.833                  -0.884967       -0.278181
0.834                  -0.885091       -0.276524
0.835                  -0.885197       -0.274867
0.836                  -0.885284       -0.273213
0.837                  -0.885355        -0.27156
0.838                   -0.88541       -0.269908
0.839                   -0.88545       -0.268257
0.84                   -0.885476       -0.266606
0.841                  -0.885489       -0.264955
0.842                   -0.88549       -0.263301
0.843                  -0.885477       -0.261646
0.844                  -0.885452       -0.259986
0.845                  -0.885415       -0.258322
0.846                  -0.885365        -0.25665
0.847                  -0.885302       -0.254971
0.848                  -0.885225       -0.253283
0.849                  -0.885132       -0.251584
0.85                   -0.885023       -0.249874
0.851                  -0.884896        -0.24815
0.852                  -0.884749       -0.246413
0.853                   -0.88458       -0.244661
0.854                  -0.884387       -0.242893
0.855                  -0.884168       -0.241108
0.856                  -0.883919       -0.239308
0.857                  -0.883639       -0.237491
0.858                  -0.883324       -0.235658
0.859                  -0.882971       -0.233809
0.86                   -0.882577       -0.231946
0.861                  -0.882139       -0.230069
0.862                  -0.881654        -0.22818
0.863                  -0.881118       -0.226281
0.864                  -0.880529       -0.224374
0.865                  -0.879883       -0.222462
0.866                  -0.879178       -0.220548
0.867                   -0.87841       -0.218634
0.868                  -0.877578       -0.216726
0.869                  -0.876679       -0.214826
0.87                   -0.875711       -0.212939
0.871                  -0.874672        -0.21107
0.872                  -0.873561       -0.209224
0.873                  -0.872377       -0.207405
0.874                  -0.871119       -0.205619
0.875                  -0.869788       -0.203871
0.876                  -0.868382       -0.202168
0.877                  -0.866904       -0.200513
0.878                  -0.865353       -0.198915
0.879                  -0.863733       -0.197378
0.88                   -0.862044       -0.195908
0.881                  -0.860289        -0.19451
0.882                  -0.858473       -0.193191
0.883                  -0.856597       -0.191956
0.884                  -0.854666        -0.19081
0.885                  -0.852685       -0.189759
0.886                  -0.850659       -0.188806
0.887                  -0.848593       -0.187956
0.888                  -0.846493       -0.187214
0.889                  -0.844365       -0.186583
0.89                   -0.842215       -0.186066
0.891                  -0.840051       -0.185667
0.892                  -0.837879       -0.185387
0.893                  -0.835707       -0.185229
0.894                  -0.833543       -0.185193
0.895                  -0.831393       -0.185281
0.896                  -0.829266       -0.185492
0.897                   -0.82717       -0.185826
0.898                  -0.825113       -0.186283
0.899                  -0.823102        -0.18686
0.9                    -0.821145       -0.187555
0.901                  -0.819249       -0.188366
0.902                  -0.817423       -0.189289
0.903                  -0.815673        -0.19032
0.904                  -0.814007       -0.191456
0.905                   -0.81243       -0.192691
0.906                  -0.810949        -0.19402
0.907                  -0.809571       -0.195436
0.908                  -0.808299       -0.196935
0.909                   -0.80714       -0.198509
0.91                   -0.806099       -0.200151
0.911                  -0.805177       -0.201854
0.912                  -0.804381        -0.20361
0.913                  -0.803711       -0.205412
0.914                  -0.803171       -0.207251
0.915                  -0.802763       -0.209121
0.916                  -0.802486       -0.211012
0.917                  -0.802343       -0.212916
0.918                  -0.802333       -0.214826
0.919                  -0.802455       -0.216733
0.92                   -0.802709        -0.21863
0.921                  -0.803092       -0.220507
0.922                  -0.803603       -0.222359
0.923                  -0.804238       -0.224178
0.924                  -0.804995       -0.225955
0.925                  -0.805869       -0.227685
0.926                  -0.806857       -0.229362
0.927                  -0.807954       -0.230978
0.928                  -0.809155       -0.232529
0.929                  -0.810455       -0.234009
0.93                   -0.811848       -0.235413
0.931                  -0.813329       -0.236737
0.932                  -0.814892       -0.237977
0.933                   -0.81653        -0.23913
0.934                  -0.818237       -0.240192
0.935                  -0.820007       -0.241162
0.936                  -0.821833       -0.242037
0.937                  -0.823709       -0.242816
0.938                  -0.825628       -0.243497
0.939                  -0.827585       -0.244081
0.94                   -0.829572       -0.244567
0.941                  -0.831584       -0.244956
0.942                  -0.833615       -0.245248
0.943                  -0.835658       -0.245445
0.944                  -0.837709       -0.245547
0.945                  -0.839762       -0.245558
0.946                  -0.841812       -0.245478
0.947                  -0.843854       -0.245312
0.948                  -0.845883        -0.24506
0.949                  -0.847897       -0.244727
0.95                    -0.84989       -0.244315
0.951                  -0.851859       -0.243828
0.952                  -0.853801        -0.24327
0.953                  -0.855713       -0.242644
0.954                  -0.857593       -0.241953
0.955                  -0.859438       -0.241201
0.956                  -0.861248       -0.240393
0.957                  -0.863019       -0.239531
0.958                  -0.864751        -0.23862
0.959                  -0.866443       -0.237663
0.96                   -0.868094       -0.236664
0.961                  -0.869705       -0.235626
0.962                  -0.871274       -0.234552
0.963                  -0.872803       -0.233447
0.964                  -0.874291       -0.232313
0.965                  -0.875738       -0.231152
0.966                  -0.877147       -0.229969
0.967                  -0.878517       -0.228764
0.968                   -0.87985       -0.227541
0.969                  -0.881147       -0.226302
0.97                   -0.882408       -0.225049
0.971                  -0.883636       -0.223783
0.972                  -0.884832       -0.222507
0.973                  -0.885996       -0.221222
0.974                  -0.887131       -0.219928
0.975                  -0.888239       -0.218627
0.976                  -0.889319       -0.217321
0.977                  -0.890374       -0.216009
0.978                  -0.891405       -0.214692
0.979                  -0.892414       -0.213371
0.98                   -0.893401       -0.212045
0.981                  -0.894368       -0.210716
0.982                  -0.895315       -0.209384
0.983                  -0.896245       -0.208047
0.984                  -0.897157       -0.206706
0.985                  -0.898053       -0.205361
0.986                  -0.898932       -0.204013
0.987                  -0.899796       -0.202659
0.988                  -0.900646       -0.201301
0.989                  -0.901481       -0.199937
0.99                   -0.902302       -0.198569
0.991                  -0.903109       -0.197194
0.992                  -0.903903       -0.195813
0.993                  -0.904683       -0.194426
0.994                  -0.905449       -0.193032
0.995                  -0.906201       -0.191631
0.996                  -0.906939       -0.190224
0.997                  -0.907664       -0.188809
0.998                  -0.908374       -0.187388
0.999                  -0.909069       -0.185959
1                      -0.909749       -0.184523
1.001                  -0.910415        -0.18308
1.002                  -0.911065        -0.18163
1.003                  -0.911699       -0.180173
1.004                  -0.912316        -0.17871
1.005                  -0.912918       -0.177241
1.006                  -0.913503       -0.175767
1.007                  -0.914071       -0.174287
1.008                  -0.914622       -0.172802
1.009                  -0.915156       -0.171313
1.01                   -0.915672        -0.16982
1.011                  -0.916171       -0.168324
1.012                  -0.916653       -0.166826
1.013                  -0.917117       -0.165325
1.014                  -0.917564       -0.163822
1.015                  -0.917994       -0.162319
1.016                  -0.918407       -0.160815
1.017                  -0.918803       -0.159312
1.018                  -0.919182       -0.157809
1.019                  -0.919546       -0.156307
1.02                   -0.919893       -0.154807
1.021                  -0.920226       -0.153309
1.022                  -0.920543       -0.151813
1.023                  -0.920845        -0.15032
1.024                  -0.921134       -0.148831
1.025                  -0.921409       -0.147344
1.026                  -0.921671       -0.145861
1.027                  -0.921921       -0.144383
1.028                  -0.922158       -0.142907
1.029                  -0.922384       -0.141436
1.03                     -0.9226       -0.139968
1.031                  -0.922804       -0.138505
1.032                  -0.922999       -0.137044
1.033                  -0.923184       -0.135588
1.034                   -0.92336       -0.134135
1.035                  -0.923528       -0.132685
1.036                  -0.923687       -0.131238
1.037                  -0.923838       -0.129793
1.038                  -0.923981       -0.128351
1.039                  -0.924117       -0.126911
1.04                   -0.924245       -0.125472
1.041                  -0.924366       -0.124034
1.042                  -0.924479       -0.122598
1.043                  -0.924586       -0.121161
1.044                  -0.924685       -0.119725
1.045                  -0.924777       -0.118288
1.046                  -0.924861       -0.116851
1.047                  -0.924938       -0.115413
1.048                  -0.925007       -0.113973
1.049                  -0.925068       -0.112532
1.05                   -0.925121       -0.111089
1.051                  -0.925165       -0.109644
1.052                  -0.925199       -0.108197
1.053                  -0.925225       -0.106748
1.054                  -0.925241       -0.105295
1.055                  -0.925246       -0.103841
1.056                  -0.925241       -0.102384
1.057                  -0.925225       -0.100924
1.058                  -0.925197      -0.0994619
1.059                  -0.925158      -0.0979975
1.06                   -0.925106      -0.0965308
1.061                  -0.925041      -0.0950624
1.062                  -0.924963       -0.093592
1.063                  -0.924872      -0.0921206
1.064                  -0.924766      -0.0906478
1.065                  -0.924647      -0.0891743
1.066                  -0.924513      -0.0877003
1.067                  -0.924364      -0.0862264
1.068                    -0.9242      -0.0847529
1.069                  -0.924021      -0.0832803
1.07                   -0.923827      -0.0818094
1.071                  -0.923617      -0.0803401
1.072                  -0.923391       -0.078873
1.073                   -0.92315      -0.0774087
1.074                  -0.922893      -0.0759476
1.075                   -0.92262      -0.0744903
1.076                  -0.922332      -0.0730371
1.077                  -0.922028      -0.0715886
1.078                  -0.921709      -0.0701451
1.079                  -0.921374      -0.0687073
1.08                   -0.921025       -0.067275
1.081                   -0.92066      -0.0658489
1.082                   -0.92028      -0.0644296
1.083                  -0.919886      -0.0630174
1.084                  -0.919477       -0.061612
1.085                  -0.919055      -0.0602142
1.086                  -0.918618      -0.0588239
1.087                  -0.918168      -0.0574415
1.088                  -0.917704      -0.0560673
1.089                  -0.917227      -0.0547012
1.09                   -0.916737      -0.0533434
1.091                  -0.916234      -0.0519939
1.092                  -0.915718      -0.0506533
1.093                   -0.91519      -0.0493211
1.094                  -0.914649      -0.0479974
1.095                  -0.914096      -0.0466826
1.096                  -0.913531      -0.0453764
1.097                  -0.912953      -0.0440791
1.098                  -0.912363      -0.0427905
1.099                  -0.911761      -0.0415107
1.1                    -0.911147      -0.0402398
1.101                  -0.910521      -0.0389779
1.102                  -0.909882       -0.037725
1.103                  -0.909231       -0.036481
1.104                  -0.908566      -0.0352464
1.105                  -0.907889      -0.0340209
1.106                    -0.9072      -0.0328054
1.107                  -0.906496      -0.0315993
1.108                   -0.90578      -0.0304033
1.109                  -0.905049      -0.0292178
1.11                   -0.904305      -0.0280428
1.111                  -0.903547      -0.0268788
1.112                  -0.902774      -0.0257261
1.113                  -0.901987      -0.0245856
1.114                  -0.901185      -0.0234572
1.115                  -0.900368      -0.0223421
1.116                  -0.899536      -0.0212405
1.117                  -0.898689       -0.020153
1.118                  -0.897827      -0.0190804
1.119                  -0.896949       -0.018024
1.12                   -0.896056      -0.0169835
1.121                  -0.895147      -0.0159608
1.122                  -0.894223      -0.0149558
1.123                  -0.893285      -0.0139701
1.124                  -0.892331      -0.0130042
1.125                  -0.891364       -0.012059
1.126                  -0.890381      -0.0111358
1.127                  -0.889386      -0.0102352
1.128                  -0.888377     -0.00935785
1.129                  -0.887355     -0.00850544
1.13                   -0.886322     -0.00767851
1.131                  -0.885277     -0.00687782
1.132                  -0.884222     -0.00610433
1.133                  -0.883157     -0.00535897
1.134                  -0.882084     -0.00464228
1.135                  -0.881003     -0.00395539
1.136                  -0.879915     -0.00329881
1.137                  -0.878823     -0.00267307
1.138                  -0.877726     -0.00207906
1.139                  -0.876627     -0.00151707
1.14                   -0.875526    -0.000987196
1.141                  -0.874425     -0.00049072
1.142                  -0.873325    -2.71198e-05
1.143                  -0.872228      0.00040333
1.144                  -0.871136     0.000800161
1.145                  -0.870049       0.0011639
1.146                  -0.868969      0.00149389
1.147                  -0.867899      0.00179125
1.148                  -0.866838      0.00205552
1.149                  -0.865789      0.00228782
1.15                   -0.864754      0.00248788
1.151                  -0.863733      0.00265702
1.152                  -0.862729      0.00279515
1.153                  -0.861741      0.00290378
1.154                  -0.860773      0.00298359
1.155                  -0.859825       0.0030351
1.156                  -0.858898      0.00306036
1.157                  -0.857994      0.00305946
1.158                  -0.857113      0.00303404
1.159                  -0.856257      0.00298556
1.16                   -0.855425      0.00291506
1.161                   -0.85462      0.00282395
1.162                  -0.853842      0.00271385
1.163                  -0.853091      0.00258597
1.164                  -0.852368      0.00244209
1.165                  -0.851673       0.0022834
1.166                  -0.851006      0.00211168
1.167                  -0.850368      0.00192828
1.168                  -0.849759      0.00173477
1.169                  -0.849178       0.0015327
1.17                   -0.848626      0.00132361
1.171                  -0.848102      0.00110865
1.172                  -0.847606     0.000889547
1.173                  -0.847137     0.000667446
1.174                  -0.846694     0.000443871
1.175                  -0.846278     0.000219767
1.176                  -0.845888    -3.72966e-06
1.177                  -0.845522      -0.0002251
1.178                  -0.845179    -0.000443788
1.179                   -0.84486    -0.000658662
1.18                   -0.844562    -0.000869164
1.181                  -0.844285     -0.00107416
1.182                  -0.844029     -0.00127348
1.183                  -0.843791     -0.00146618
1.184                   -0.84357     -0.00165208
1.185                  -0.843366     -0.00183063
1.186                  -0.843178     -0.00200202
1.187                  -0.843004     -0.00216589
1.188                  -0.842844     -0.00232205
1.189                  -0.842696     -0.00247109
1.19                   -0.842559     -0.00261244
1.191                  -0.842433     -0.00274707
1.192                  -0.842317     -0.00287498
1.193                  -0.842209     -0.00299674
1.194                  -0.842109     -0.00311237
1.195                  -0.842017     -0.00322321
1.196                  -0.841931     -0.00332926
1.197                  -0.841851     -0.00343148
1.198                  -0.841778     -0.00353045
1.199                  -0.841709     -0.00362693
1.2                    -0.841646     -0.00372189
1.201                  -0.841588      -0.0038159
1.202                  -0.841535     -0.00390972
1.203                  -0.841487     -0.00400433
1.204                  -0.841445     -0.00410048
1.205                  -0.841407     -0.00419876
1.206                  -0.841376     -0.00429993
1.207                   -0.84135     -0.00440496
1.208                  -0.841331     -0.00451404
1.209                   -0.84132     -0.00462832
1.21                   -0.841316     -0.00474782
1.211                  -0.841321     -0.00487331
1.212                  -0.841336     -0.00500518
1.213                  -0.841361     -0.00514343
1.214                  -0.841397     -0.00528867
1.215                  -0.841445     -0.00544089
1.216                  -0.841507     -0.00560011
1.217                  -0.841582     -0.00576635
1.218                  -0.841673     -0.00593925
1.219                   -0.84178     -0.00611882
1.22                   -0.841904      -0.0063047
1.221                  -0.842046     -0.00649614
1.222                  -0.842207     -0.00669298
1.223                  -0.842389     -0.00689409
1.224                  -0.842592      -0.0070993
1.225                  -0.842816     -0.00730749
1.226                  -0.843063     -0.00751734
1.227                  -0.843334     -0.00772869
1.228                   -0.84363     -0.00793982
1.229                   -0.84395     -0.00814981
1.23                   -0.844295     -0.00835732
1.231                  -0.844666     -0.00856104
1.232                  -0.845063     -0.00876001
1.233                  -0.845487     -0.00895233
1.234                  -0.845937     -0.00913704
1.235                  -0.846414      -0.0093126
1.236                  -0.846918     -0.00947728
1.237                  -0.847447      -0.0096301
1.238                  -0.848003     -0.00976932
1.239                  -0.848585     -0.00989356
1.24                   -0.849192      -0.0100012
1.241                  -0.849824      -0.0100914
1.242                   -0.85048      -0.0101622
1.243                  -0.851159      -0.0102126
1.244                  -0.851861      -0.0102412
1.245                  -0.852584      -0.0102469
1.246                  -0.853327      -0.0102285
1.247                   -0.85409       -0.010185
1.248                  -0.854871      -0.0101154
1.249                  -0.855669      -0.0100187
1.25                   -0.856482     -0.00989408
1.251                   -0.85731     -0.00974089
1.252                  -0.858151     -0.00955841
1.253                  -0.859003     -0.00934615
1.254                  -0.859865     -0.00910359
1.255                  -0.860735     -0.00883042
1.256                  -0.861613     -0.00852634
1.257                  -0.862496     -0.00819142
1.258                  -0.863384     -0.00782517
1.259                  -0.864274     -0.00742785
1.26                   -0.865165     -0.00699996
1.261                  -0.866056     -0.00654099
1.262                  -0.866945     -0.00605163
1.263                  -0.867831     -0.00553218
1.264                  -0.868714     -0.00498334
1.265                   -0.86959     -0.00440542
1.266                   -0.87046     -0.00379893
1.267                  -0.871323     -0.00316481
1.268                  -0.872176     -0.00250357
1.269                  -0.873019     -0.00181595
1.27                   -0.873852      -0.0011031
1.271                  -0.874673    -0.000365375
1.272                  -0.875482     0.000396072
1.273                  -0.876277      0.00118027
1.274                  -0.877058      0.00198644
1.275                  -0.877826       0.0028138
1.276                  -0.878578      0.00366097
1.277                  -0.879315      0.00452754
1.278                  -0.880036      0.00541212
1.279                  -0.880741      0.00631388
1.28                   -0.881429      0.00723224
1.281                  -0.882102      0.00816555
1.282                  -0.882758      0.00911375
1.283                  -0.883397       0.0100757
1.284                  -0.884019       0.0110506
1.285                  -0.884625       0.0120375
1.286                  -0.885215       0.0130358
1.287                  -0.885788       0.0140447
1.288                  -0.886344       0.0150637
1.289                  -0.886884       0.0160923
1.29                   -0.887409       0.0171293
1.291                  -0.887917       0.0181747
1.292                   -0.88841       0.0192278
1.293                  -0.888888       0.0202881
1.294                   -0.88935       0.0213554
1.295                  -0.889797        0.022429
1.296                   -0.89023       0.0235087
1.297                  -0.890648       0.0245941
1.298                  -0.891052        0.025685
1.299                  -0.891442       0.0267808
1.3                    -0.891818       0.0278819
1.301                   -0.89218       0.0289876
1.302                  -0.892529       0.0300977
1.303                  -0.892864       0.0312122
1.304                  -0.893186        0.032331
1.305                  -0.893495       0.0334536
1.306                  -0.893791       0.0345801
1.307                  -0.894074       0.0357104
1.308                  -0.894344       0.0368443
1.309                  -0.894602       0.0379816
1.31                   -0.894846       0.0391223
1.311                  -0.895078        0.040266
1.312                  -0.895297       0.0414131
1.313                  -0.895503       0.0425629
1.314                  -0.895697       0.0437154
1.315                  -0.895877       0.0448708
1.316                  -0.896045       0.0460286
1.317                    -0.8962       0.0471884
1.318                  -0.896342       0.0483505
1.319                  -0.896472       0.0495142
1.32                   -0.896588       0.0506797
1.321                  -0.896691       0.0518469
1.322                  -0.896781       0.0530151
1.323                  -0.896858       0.0541842
1.324                  -0.896922       0.0553543
1.325                  -0.896974       0.0565247
1.326                  -0.897012       0.0576955
1.327                  -0.897037       0.0588659
1.328                  -0.897049       0.0600364
1.329                  -0.897048       0.0612061
1.33                   -0.897035       0.0623753
1.331                  -0.897008       0.0635432
1.332                  -0.896969         0.06471
1.333                  -0.896917       0.0658749
1.334                  -0.896853       0.0670382
1.335                  -0.896776       0.0681993
1.336                  -0.896687       0.0693583
1.337                  -0.896586       0.0705147
1.338                  -0.896472       0.0716685
1.339                  -0.896347        0.072819
1.34                    -0.89621       0.0739668
1.341                  -0.896061       0.0751114
1.342                  -0.895901       0.0762523
1.343                   -0.89573       0.0773897
1.344                  -0.895547       0.0785234
1.345                  -0.895353       0.0796535
1.346                  -0.895149       0.0807794
1.347                  -0.894933       0.0819013
1.348                  -0.894707       0.0830191
1.349                   -0.89447       0.0841327
1.35                   -0.894223       0.0852421
1.351                  -0.893965       0.0863468
1.352                  -0.893698       0.0874477
1.353                  -0.893419       0.0885435
1.354                  -0.893131       0.0896351
1.355                  -0.892832        0.090722
1.356                  -0.892524       0.0918041
1.357                  -0.892205       0.0928818
1.358                  -0.891876       0.0939544
1.359                  -0.891537       0.0950221
1.36                   -0.891187       0.0960848
1.361                  -0.890828       0.0971424
1.362                  -0.890458       0.0981945
1.363                  -0.890077       0.0992416
1.364                  -0.889687        0.100283
1.365                  -0.889286        0.101319
1.366                  -0.888874        0.102348
1.367                  -0.888452        0.103372
1.368                  -0.888019        0.104389
1.369                  -0.887575        0.105399
1.37                    -0.88712        0.106403
1.371                  -0.886655          0.1074
1.372                  -0.886179        0.108388
1.373                  -0.885692        0.109369
1.374                  -0.885193        0.110342
1.375                  -0.884684        0.111306
1.376                  -0.884164        0.112261
1.377                  -0.883634        0.113207
1.378                  -0.883092        0.114143
1.379                   -0.88254        0.115069
1.38                   -0.881977        0.115984
1.381                  -0.881405        0.116888
1.382                  -0.880821         0.11778
1.383                  -0.880228         0.11866
1.384                  -0.879625        0.119527
1.385                  -0.879013        0.120382
1.386                  -0.878392        0.121223
1.387                  -0.877762         0.12205
1.388                  -0.877123        0.122863
1.389                  -0.876476         0.12366
1.39                   -0.875822        0.124443
1.391                  -0.875161         0.12521
1.392                  -0.874494        0.125961
1.393                   -0.87382        0.126695
1.394                  -0.873141        0.127413
1.395                  -0.872457        0.128114
1.396                  -0.871768        0.128797
1.397                  -0.871076        0.129463
1.398                  -0.870382        0.130111
1.399                  -0.869684        0.130741
1.4                    -0.868985        0.131354
1.401                  -0.868286        0.131947
1.402                  -0.867586        0.132522
1.403                  -0.866886        0.133079
1.404                  -0.866188        0.133618
1.405                  -0.865492        0.134138
1.406                  -0.864799         0.13464
1.407                  -0.864109        0.135124
1.408                  -0.863423         0.13559
1.409                  -0.862742        0.136038
1.41                   -0.862066        0.136468
1.411                  -0.861397        0.136881
1.412                  -0.860735        0.137277
1.413                   -0.86008        0.137656
1.414                  -0.859434        0.138019
1.415                  -0.858797        0.138365
1.416                   -0.85817        0.138696
1.417                  -0.857552        0.139012
1.418                  -0.856946        0.139314
1.419                   -0.85635        0.139601
1.42                   -0.855767        0.139875
1.421                  -0.855196        0.140135
1.422                  -0.854637        0.140383
1.423                  -0.854092         0.14062
1.424                  -0.853561        0.140845
1.425                  -0.853044        0.141059
1.426                  -0.852541        0.141264
1.427                  -0.852052         0.14146
1.428                  -0.851579        0.141646
1.429                  -0.851121        0.141825
1.43                   -0.850678        0.141997
1.431                  -0.850251        0.142163
1.432                   -0.84984        0.142322
1.433                  -0.849445        0.142477
1.434                  -0.849066        0.142627
1.435                  -0.848703        0.142774
1.436                  -0.848356        0.142918
1.437                  -0.848025         0.14306
1.438                   -0.84771          0.1432
1.439                  -0.847411         0.14334
1.44                   -0.847128         0.14348
1.441                  -0.846861        0.143621
1.442                  -0.846609        0.143763
1.443                  -0.846373        0.143907
1.444                  -0.846151        0.144054
1.445                  -0.845945        0.144205
1.446                  -0.845752         0.14436
1.447                  -0.845574        0.144519
1.448                   -0.84541        0.144684
1.449                   -0.84526        0.144856
1.45                   -0.845122        0.145033
1.451                  -0.844996        0.145218
1.452                  -0.844883        0.145411
1.453                  -0.844781        0.145612
1.454                  -0.844691        0.145822
1.455                  -0.844611        0.146041
1.456                   -0.84454        0.146269
1.457                  -0.844479        0.146507
1.458                  -0.844427        0.146756
1.459                  -0.844382        0.147016
1.46                   -0.844345        0.147286
1.461                  -0.844315        0.147568
1.462                  -0.844291        0.147862
1.463                  -0.844272        0.148167
1.464                  -0.844258        0.148484
1.465                  -0.844247        0.148813
1.466                   -0.84424        0.149154
1.467                  -0.844236        0.149507
1.468                  -0.844233        0.149872
1.469                  -0.844231         0.15025
1.47                    -0.84423        0.150639
1.471                  -0.844229         0.15104
1.472                  -0.844226        0.151453
1.473                  -0.844222        0.151877
1.474                  -0.844216        0.152313
1.475                  -0.844207         0.15276
1.476                  -0.844194        0.153217
1.477                  -0.844177        0.153685
1.478                  -0.844156        0.154163
1.479                  -0.844129         0.15465
1.48                   -0.844097        0.155147
1.481                  -0.844058        0.155653
1.482                  -0.844013        0.156166
1.483                   -0.84396        0.156688
1.484                    -0.8439        0.157217
1.485                  -0.843833        0.157752
1.486                  -0.843757        0.158294
1.487                  -0.843673        0.158841
1.488                   -0.84358        0.159394
1.489                  -0.843478         0.15995
1.49                   -0.843367        0.160511
1.491                  -0.843247        0.161075
1.492                  -0.843117        0.161642
1.493                  -0.842978        0.162211
1.494                   -0.84283        0.162781
1.495                  -0.842673        0.163353
1.496                  -0.842505        0.163925
1.497                  -0.842329        0.164497
1.498                  -0.842144        0.165068
1.499                  -0.841949        0.165638
1.5                    -0.841745        0.166206
1.501                  -0.841533        0.166772
1.502                  -0.841312        0.167336
1.503                  -0.841082        0.167896
1.504                  -0.840845        0.168453
1.505                    -0.8406        0.169005
1.506                  -0.840347        0.169554
1.507                  -0.840086        0.170097
1.508                  -0.839819        0.170636
1.509                  -0.839545        0.171169
1.51                   -0.839265        0.171696
1.511                  -0.838978        0.172218
1.512                  -0.838686        0.172733
1.513                  -0.838389        0.173241
1.514                  -0.838086        0.173743
1.515                  -0.837779        0.174238
1.516                  -0.837468        0.174726
1.517                  -0.837152        0.175206
1.518                  -0.836833        0.175679
1.519                  -0.836511        0.176144
1.52                   -0.836186        0.176601
1.521                  -0.835858         0.17705
1.522                  -0.835529        0.177491
1.523                  -0.835197        0.177925
1.524                  -0.834864         0.17835
1.525                   -0.83453        0.178766
1.526                  -0.834195        0.179175
1.527                  -0.833859        0.179575
1.528                  -0.833524        0.179967
1.529                  -0.833189         0.18035
1.53                   -0.832855        0.180725
1.531                  -0.832521        0.181091
1.532                  -0.832189        0.181449
1.533                  -0.831859        0.181799
1.534                  -0.831531         0.18214
1.535                  -0.831206        0.182473
1.536                  -0.830883        0.182797
1.537                  -0.830564        0.183114
1.538                  -0.830248        0.183422
1.539                  -0.829936        0.183722
1.54                   -0.829629        0.184015
1.541                  -0.829326          0.1843
1.542                  -0.829029        0.184576
1.543                  -0.828737        0.184846
1.544                  -0.828451        0.185108
1.545                  -0.828172        0.185364
1.546                  -0.827899        0.185612
1.547                  -0.827633        0.185854
1.548                  -0.827374         0.18609
1.549                  -0.827124        0.186319
1.55                   -0.826881        0.186543
1.551                  -0.826647        0.186762
1.552                  -0.826422        0.186975
1.553                  -0.826206        0.187184
1.554                  -0.825999        0.187389
1.555                  -0.825801        0.187591
1.556                  -0.825614        0.187788
1.557                  -0.825437        0.187983
1.558                   -0.82527        0.188176
1.559                  -0.825114        0.188367
1.56                   -0.824968        0.188557
1.561                  -0.824834        0.188746
1.562                   -0.82471        0.188934
1.563                  -0.824597        0.189123
1.564                  -0.824495        0.189313
1.565                  -0.824404        0.189504
1.566                  -0.824324        0.189698
1.567                  -0.824255        0.189894
1.568                  -0.824197        0.190093
1.569                  -0.824149        0.190296
1.57                   -0.824112        0.190503
1.571                  -0.824085        0.190716
1.572                  -0.824069        0.190933
1.573                  -0.824061        0.191157
1.574                  -0.824064        0.191387
1.575                  -0.824075        0.191624
1.576                  -0.824096        0.191868
1.577                  -0.824124         0.19212
1.578                  -0.824161        0.192381
1.579                  -0.824205         0.19265
1.58                   -0.824256        0.192928
1.581                  -0.824313        0.193216
1.582                  -0.824377        0.193513
1.583                  -0.824446         0.19382
1.584                   -0.82452        0.194137
1.585                  -0.824599        0.194465
1.586                  -0.824682        0.194803
1.587                  -0.824768        0.195152
1.588                  -0.824856        0.195512
1.589                  -0.824948        0.195882
1.59                   -0.825041        0.196263
1.591                  -0.825135        0.196655
1.592                   -0.82523        0.197058
1.593                  -0.825325        0.197472
1.594                   -0.82542        0.197897
1.595                  -0.825514        0.198332
1.596                  -0.825607        0.198777
1.597                  -0.825699        0.199233
1.598                  -0.825788          0.1997
1.599                  -0.825874        0.200176
1.6                    -0.825958        0.200662
1.601                  -0.826039        0.201157
1.602                  -0.826116        0.201662
1.603                  -0.826188        0.202176
1.604                  -0.826257        0.202698
1.605                  -0.826321         0.20323
1.606                   -0.82638        0.203769
1.607                  -0.826434        0.204317
1.608                  -0.826482        0.204873
1.609                  -0.826525        0.205436
1.61                   -0.826563        0.206006
1.611                  -0.826594        0.206583
1.612                  -0.826619        0.207168
1.613                  -0.826638        0.207759
1.614                   -0.82665        0.208355
1.615                  -0.826656        0.208958
1.616                  -0.826655        0.209567
1.617                  -0.826647        0.210182
1.618                  -0.826632        0.210802
1.619                   -0.82661        0.211427
1.62                    -0.82658        0.212057
1.621                  -0.826543        0.212692
1.622                  -0.826499        0.213331
1.623                  -0.826447        0.213974
1.624                  -0.826387        0.214622
1.625                   -0.82632        0.215274
1.626                  -0.826244        0.215929
1.627                   -0.82616        0.216587
1.628                  -0.826068        0.217249
1.629                  -0.825968        0.217915
1.63                   -0.825859        0.218583
1.631                  -0.825741        0.219253
1.632                  -0.825615        0.219926
1.633                   -0.82548        0.220601
1.634                  -0.825336        0.221278
1.635                  -0.825182        0.221956
1.636                   -0.82502        0.222636
1.637                  -0.824848        0.223316
1.638                  -0.824667        0.223998
1.639                  -0.824476         0.22468
1.64                   -0.824275        0.225362
1.641                  -0.824065        0.226044
1.642                  -0.823845        0.226725
1.643                  -0.823615        0.227405
1.644                  -0.823375        0.228084
1.645                  -0.823125        0.228762
1.646                  -0.822866        0.229437
1.647                  -0.822596         0.23011
1.648                  -0.822317         0.23078
1.649                  -0.822028        0.231447
1.65                   -0.821729         0.23211
1.651                  -0.821421         0.23277
1.652                  -0.821103        0.233425
1.653                  -0.820775        0.234075
1.654                  -0.820439         0.23472
1.655                  -0.820093         0.23536
1.656                  -0.819739        0.235994
1.657                  -0.819376        0.236622
1.658                  -0.819004        0.237243
1.659                  -0.818624        0.237857
1.66                   -0.818237        0.238464
1.661                  -0.817842        0.239064
1.662                  -0.817439        0.239655
1.663                   -0.81703        0.240239
1.664                  -0.816613        0.240814
1.665                  -0.816191        0.241381
1.666                  -0.815763        0.241939
1.667                  -0.815328        0.242488
1.668                  -0.814889        0.243028
1.669                  -0.814445        0.243559
1.67                   -0.813995         0.24408
1.671                  -0.813542        0.244592
1.672                  -0.813085        0.245094
1.673                  -0.812625        0.245586
1.674                  -0.812161        0.246069
1.675                  -0.811694        0.246541
1.676                  -0.811225        0.247004
1.677                  -0.810753        0.247456
1.678                   -0.81028        0.247899
1.679                  -0.809806        0.248332
1.68                    -0.80933        0.248755
1.681                  -0.808853        0.249168
1.682                  -0.808375         0.24957
1.683                  -0.807898        0.249963
1.684                   -0.80742        0.250347
1.685                  -0.806942         0.25072
1.686                  -0.806465        0.251083
1.687                  -0.805989        0.251437
1.688                  -0.805514        0.251781
1.689                   -0.80504        0.252116
1.69                   -0.804568         0.25244
1.691                  -0.804097        0.252755
1.692                  -0.803629        0.253061
1.693                  -0.803162        0.253357
1.694                  -0.802699        0.253644
1.695                  -0.802238        0.253921
1.696                   -0.80178        0.254188
1.697                  -0.801326        0.254446
1.698                  -0.800875        0.254695
1.699                  -0.800428        0.254935
1.7                    -0.799985        0.255166
1.701                  -0.799547        0.255387
1.702                  -0.799113        0.255599
1.703                  -0.798685        0.255802
1.704                  -0.798261        0.255996
1.705                  -0.797844        0.256182
1.706                  -0.797432        0.256358
1.707                  -0.797028        0.256526
1.708                  -0.796629        0.256686
1.709                  -0.796238        0.256837
1.71                   -0.795854         0.25698
1.711                  -0.795478        0.257115
1.712                   -0.79511        0.257243
1.713                  -0.794751        0.257362
1.714                    -0.7944        0.257475
1.715                  -0.794059         0.25758
1.716                  -0.793727        0.257679
1.717                  -0.793405        0.257772
1.718                  -0.793093        0.257858
1.719                  -0.792791        0.257939
1.72                   -0.792501        0.258015
1.721                  -0.792221        0.258086
1.722                  -0.791953        0.258153
1.723                  -0.791697        0.258215
1.724                  -0.791452        0.258275
1.725                  -0.791219        0.258331
1.726                  -0.790998        0.258385
1.727                   -0.79079        0.258437
1.728                  -0.790594        0.258488
1.729                   -0.79041        0.258538
1.73                   -0.790239        0.258588
1.731                  -0.790081        0.258638
1.732                  -0.789935        0.258689
1.733                  -0.789801        0.258742
1.734                   -0.78968        0.258796
1.735                  -0.789571        0.258853
1.736                  -0.789474        0.258914
1.737                  -0.789389        0.258977
1.738                  -0.789316        0.259046
1.739                  -0.789254        0.259118
1.74                   -0.789203        0.259196
1.741                  -0.789163         0.25928
1.742                  -0.789134         0.25937
1.743                  -0.789115        0.259466
1.744                  -0.789106        0.259569
1.745                  -0.789106        0.259679
1.746                  -0.789115        0.259797
1.747                  -0.789133        0.259923
1.748                   -0.78916        0.260058
1.749                  -0.789194          0.2602
1.75                   -0.789235        0.260352
1.751                  -0.789284        0.260512
1.752                  -0.789339        0.260681
1.753                    -0.7894        0.260861
1.754                  -0.789466        0.261049
1.755                  -0.789538        0.261246
1.756                  -0.789614        0.261453
1.757                  -0.789695         0.26167
1.758                   -0.78978        0.261897
1.759                  -0.789868        0.262133
1.76                    -0.78996        0.262379
1.761                  -0.790054        0.262634
1.762                  -0.790151          0.2629
1.763                   -0.79025        0.263174
1.764                   -0.79035        0.263458
1.765                  -0.790452        0.263752
1.766                  -0.790555        0.264055
1.767                  -0.790659        0.264367
1.768                  -0.790764        0.264689
1.769                  -0.790868        0.265019
1.77                   -0.790973        0.265359
1.771                  -0.791078        0.265708
1.772                  -0.791182        0.266065
1.773                  -0.791285        0.266431
1.774                  -0.791388        0.266807
1.775                  -0.791489         0.26719
1.776                  -0.791589        0.267582
1.777                  -0.791688        0.267983
1.778                  -0.791785        0.268392
1.779                  -0.791879        0.268809
1.78                   -0.791972        0.269235
1.781                  -0.792063        0.269669
1.782                   -0.79215        0.270111
1.783                  -0.792235        0.270561
1.784                  -0.792317        0.271019
1.785                  -0.792396        0.271485
1.786                  -0.792471        0.271959
1.787                  -0.792542         0.27244
1.788                   -0.79261        0.272929
1.789                  -0.792673        0.273426
1.79                   -0.792732         0.27393
1.791                  -0.792786        0.274442
1.792                  -0.792835        0.274961
1.793                  -0.792879        0.275487
1.794                  -0.792917        0.276019
1.795                   -0.79295        0.276559
1.796                  -0.792977        0.277105
1.797                  -0.792997        0.277657
1.798                  -0.793011        0.278215
1.799                  -0.793018         0.27878
1.8                    -0.793018        0.279349
1.801                  -0.793011        0.279924
1.802                  -0.792996        0.280505
1.803                  -0.792974        0.281089
1.804                  -0.792944        0.281679
1.805                  -0.792906        0.282272
1.806                   -0.79286        0.282869
1.807                  -0.792806        0.283469
1.808                  -0.792744        0.284073
1.809                  -0.792673        0.284679
1.81                   -0.792594        0.285287
1.811                  -0.792506        0.285897
1.812                   -0.79241        0.286509
1.813                  -0.792305        0.287122
1.814                  -0.792193        0.287735
1.815                  -0.792071         0.28835
1.816                  -0.791942        0.288964
1.817                  -0.791804        0.289578
1.818                  -0.791659        0.290191
1.819                  -0.791505        0.290803
1.82                   -0.791344        0.291414
1.821                  -0.791176        0.292024
1.822                     -0.791        0.292631
1.823                  -0.790817        0.293237
1.824                  -0.790628        0.293841
1.825                  -0.790431        0.294442
1.826                  -0.790229         0.29504
1.827                   -0.79002        0.295636
1.828                  -0.789806        0.296228
1.829                  -0.789586        0.296818
1.83                   -0.789361        0.297405
1.831                   -0.78913        0.297988
1.832                  -0.788895        0.298568
1.833                  -0.788655        0.299145
1.834                  -0.788411        0.299719
1.835                  -0.788163        0.300289
1.836                   -0.78791        0.300856
1.837                  -0.787654         0.30142
1.838                  -0.787394        0.301981
1.839                  -0.787131        0.302539
1.84                   -0.786865        0.303093
1.841                  -0.786595        0.303645
1.842                  -0.786322        0.304194
1.843                  -0.786046         0.30474
1.844                  -0.785767        0.305283
1.845                  -0.785485        0.305824
1.846                    -0.7852        0.306362
1.847                  -0.784913        0.306897
1.848                  -0.784622         0.30743
1.849                  -0.784329         0.30796
1.85                   -0.784032        0.308488
1.851                  -0.783733        0.309014
1.852                  -0.783431        0.309537
1.853                  -0.783126        0.310057
1.854                  -0.782818        0.310575
1.855                  -0.782507         0.31109
1.856                  -0.782193        0.311603
1.857                  -0.781876        0.312113
1.858                  -0.781556        0.312621
1.859                  -0.781232        0.313125
1.86                   -0.780906        0.313627
1.861                  -0.780577        0.314125
1.862                  -0.780244         0.31462
1.863                  -0.779909        0.315112
1.864                  -0.779571        0.315601
1.865                   -0.77923        0.316085
1.866                  -0.778886        0.316567
1.867                  -0.778539        0.317044
1.868                   -0.77819        0.317517
1.869                  -0.777839        0.317986
1.87                   -0.777485        0.318451
1.871                  -0.777129        0.318911
1.872                  -0.776772        0.319367
1.873                  -0.776413        0.319819
1.874                  -0.776052        0.320266
1.875                   -0.77569        0.320708
1.876                  -0.775327        0.321146
1.877                  -0.774963        0.321578
1.878                  -0.774598        0.322007
1.879                  -0.774233        0.322431
1.88                   -0.773868         0.32285
1.881                  -0.773503        0.323264
1.882                  -0.773139        0.323675
1.883                  -0.772775         0.32408
1.884                  -0.772411        0.324482
1.885                  -0.772049         0.32488
1.886                  -0.771687        0.325274
1.887                  -0.771327        0.325664
1.888                  -0.770968        0.326051
1.889                  -0.770611        0.326435
1.89                   -0.770255        0.326815
1.891                  -0.769901        0.327193
1.892                  -0.769548        0.327568
1.893                  -0.769198        0.327941
1.894                  -0.768849        0.328311
1.895                  -0.768501         0.32868
1.896                  -0.768155        0.329047
1.897                  -0.767811        0.329413
1.898                  -0.767469        0.329777
1.899                  -0.767128         0.33014
1.9                    -0.766788        0.330502
1.901                  -0.766449        0.330863
1.902                  -0.766111        0.331223
1.903                  -0.765774        0.331584
1.904                  -0.765438        0.331943
1.905                  -0.765102        0.332302
1.906                  -0.764767        0.332661
1.907                  -0.764432        0.333019
1.908                  -0.764096        0.333377
1.909                   -0.76376        0.333735
1.91                   -0.763424        0.334093
1.911                  -0.763087        0.334449
1.912                   -0.76275        0.334806
1.913                  -0.762411        0.335161
1.914                  -0.762072        0.335516
1.915                  -0.761732         0.33587
1.916                   -0.76139        0.336223
1.917                  -0.761046        0.336574
1.918                  -0.760702        0.336924
1.919                  -0.760356        0.337273
1.92                   -0.760009        0.337619
1.921                   -0.75966        0.337964
1.922                   -0.75931        0.338307
1.923                  -0.758959        0.338647
1.924                  -0.758607        0.338985
1.925                  -0.758253         0.33932
1.926                  -0.757899        0.339652
1.927                  -0.757544        0.339982
1.928                  -0.757188        0.340308
1.929                  -0.756832        0.340631
1.93                   -0.756475        0.340951
1.931                  -0.756118        0.341268
1.932                  -0.755761        0.341582
1.933                  -0.755405        0.341892
1.934                  -0.755049        0.342199
1.935                  -0.754694        0.342503
1.936                   -0.75434        0.342803
1.937                  -0.753986        0.343101
1.938                  -0.753634        0.343396
1.939                  -0.753284        0.343687
1.94                   -0.752935        0.343977
1.941                  -0.752588        0.344263
1.942                  -0.752242        0.344547
1.943                  -0.751899        0.344829
1.944                  -0.751557        0.345109
1.945                  -0.751217        0.345387
1.946                   -0.75088        0.345664
1.947                  -0.750544        0.345939
1.948                   -0.75021        0.346214
1.949                  -0.749879        0.346487
1.95                   -0.749549         0.34676
1.951                  -0.749221        0.347032
1.952                  -0.748895        0.347303
1.953                   -0.74857        0.347575
1.954                  -0.748246        0.347846
1.955                  -0.747924        0.348117
1.956                  -0.747603        0.348389
1.957                  -0.747282        0.348661
1.958                  -0.746962        0.348932
1.959                  -0.746642        0.349205
1.96                   -0.746323        0.349477
1.961                  -0.746003        0.349749
1.962                  -0.745683        0.350022
1.963                  -0.745363        0.350295
1.964                  -0.745042        0.350568
1.965                   -0.74472        0.350841
1.966                  -0.744397        0.351113
1.967                  -0.744073        0.351385
1.968                  -0.743747        0.351656
1.969                   -0.74342        0.351927
1.97                   -0.743092        0.352196
1.971                  -0.742762        0.352464
1.972                   -0.74243         0.35273
1.973                  -0.742097        0.352995
1.974                  -0.741762        0.353257
1.975                  -0.741426        0.353517
1.976                  -0.741088        0.353775
1.977                  -0.740749         0.35403
1.978                  -0.740409        0.354282
1.979                  -0.740068         0.35453
1.98                   -0.739726        0.354775
1.981                  -0.739383        0.355017
1.982                   -0.73904        0.355255
1.983                  -0.738697        0.355489
1.984                  -0.738353        0.355719
1.985                   -0.73801        0.355945
1.986                  -0.737668        0.356167
1.987                  -0.737326        0.356385
1.988                  -0.736986        0.356598
1.989                  -0.736647        0.356808
1.99                    -0.73631        0.357014
1.991                  -0.735974        0.357216
1.992                  -0.735641        0.357414
1.993                   -0.73531        0.357609
1.994                  -0.734981          0.3578
1.995                  -0.734656        0.357988
1.996                  -0.734333        0.358172
1.997                  -0.734013        0.358355
1.998                  -0.733697        0.358534
1.999                  -0.733383        0.358711
2                      -0.733073        0.358886
