! TOUCHSTONE file generated by CST MICROWAVE STUDIO
! Date and time: Tue Aug  4 15:55:27 2026
! Project name: Sonda-Coaxial_21mm_DisifixB_v2_Agua_Dest.cst
! Parameters = {h_recipiente=20; l_conector=5; r_arandela=35; r_ext=10.5; r_int=3; r_recipiente=50; z_recipiente=-30}
! Header version: 2018
! Port assignment regex: !\s*Touchstone port\s*([0-9]+)\s*=\s*(CST MWS port|CST DS port)\s*([0-9]+|Zmin|Zmax)\s*\(\"(.*)\"\)(\s*mode\s*([0-9]+))?.*
! Touchstone port assignment:
! Touchstone port 1 = CST MWS port 1 ("")
# GHz S RI R 50
0.001                   0.999972      -0.0074803
0.002                   0.999849      -0.0149573
0.003                   0.999644      -0.0224276
0.004                   0.999359      -0.0298879
0.005                   0.998993      -0.0373352
0.006                   0.998549      -0.0447663
0.007                   0.998027      -0.0521782
0.008                    0.99743      -0.0595681
0.009                   0.996759      -0.0669334
0.01                    0.996016      -0.0742717
0.011                   0.995204      -0.0815806
0.012                   0.994326      -0.0888581
0.013                   0.993383      -0.0961025
0.014                   0.992378       -0.103312
0.015                   0.991314       -0.110486
0.016                   0.990195       -0.117623
0.017                   0.989022       -0.124721
0.018                   0.987799       -0.131782
0.019                   0.986529       -0.138804
0.02                    0.985214       -0.145787
0.021                   0.983858       -0.152733
0.022                   0.982462        -0.15964
0.023                    0.98103       -0.166511
0.024                   0.979564       -0.173345
0.025                   0.978067       -0.180145
0.026                    0.97654       -0.186912
0.027                   0.974985       -0.193647
0.028                   0.973404       -0.200352
0.029                   0.971799       -0.207029
0.03                    0.970171        -0.21368
0.031                   0.968521       -0.220306
0.032                    0.96685       -0.226911
0.033                   0.965158       -0.233496
0.034                   0.963445       -0.240063
0.035                   0.961712       -0.246615
0.036                   0.959959       -0.253154
0.037                   0.958184       -0.259682
0.038                   0.956388         -0.2662
0.039                   0.954569       -0.272711
0.04                    0.952727       -0.279217
0.041                   0.950859       -0.285719
0.042                   0.948965       -0.292218
0.043                   0.947043       -0.298717
0.044                   0.945091       -0.305215
0.045                   0.943106       -0.311714
0.046                   0.941088       -0.318215
0.047                   0.939034       -0.324717
0.048                   0.936942       -0.331222
0.049                   0.934809       -0.337728
0.05                    0.932634       -0.344237
0.051                   0.930413       -0.350746
0.052                   0.928146       -0.357256
0.053                    0.92583       -0.363765
0.054                   0.923463       -0.370273
0.055                   0.921043       -0.376777
0.056                   0.918568       -0.383276
0.057                   0.916037       -0.389768
0.058                   0.913448       -0.396252
0.059                     0.9108       -0.402725
0.06                    0.908093       -0.409184
0.061                   0.905324       -0.415628
0.062                   0.902494       -0.422054
0.063                   0.899602       -0.428458
0.064                   0.896647        -0.43484
0.065                   0.893631       -0.441195
0.066                   0.890553       -0.447522
0.067                   0.887413       -0.453817
0.068                   0.884214       -0.460079
0.069                   0.880955       -0.466304
0.07                    0.877637        -0.47249
0.071                   0.874263       -0.478635
0.072                   0.870833       -0.484737
0.073                    0.86735       -0.490793
0.074                   0.863815       -0.496801
0.075                   0.860231       -0.502761
0.076                     0.8566       -0.508669
0.077                   0.852925       -0.514526
0.078                   0.849207        -0.52033
0.079                   0.845449        -0.52608
0.08                    0.841654       -0.531775
0.081                   0.837824       -0.537415
0.082                   0.833962       -0.542999
0.083                   0.830071       -0.548528
0.084                   0.826152       -0.554003
0.085                    0.82221       -0.559422
0.086                   0.818245       -0.564788
0.087                    0.81426         -0.5701
0.088                   0.810258        -0.57536
0.089                    0.80624        -0.58057
0.09                    0.802209        -0.58573
0.091                   0.798165       -0.590841
0.092                   0.794111       -0.595907
0.093                   0.790048       -0.600927
0.094                   0.785977       -0.605905
0.095                   0.781898       -0.610842
0.096                   0.777814       -0.615739
0.097                   0.773723         -0.6206
0.098                   0.769627       -0.625425
0.099                   0.765526       -0.630216
0.1                     0.761419       -0.634977
0.101                   0.757306       -0.639707
0.102                   0.753187        -0.64441
0.103                   0.749061       -0.649086
0.104                   0.744927       -0.653737
0.105                   0.740785       -0.658365
0.106                   0.736632       -0.662971
0.107                   0.732469       -0.667555
0.108                   0.728293       -0.672119
0.109                   0.724103       -0.676663
0.11                    0.719897       -0.681189
0.111                   0.715675       -0.685695
0.112                   0.711435       -0.690183
0.113                   0.707174       -0.694651
0.114                   0.702891       -0.699101
0.115                   0.698586       -0.703532
0.116                   0.694256       -0.707942
0.117                   0.689901       -0.712331
0.118                   0.685517       -0.716699
0.119                   0.681106       -0.721043
0.12                    0.676665       -0.725363
0.121                   0.672194       -0.729657
0.122                   0.667692       -0.733923
0.123                   0.663158       -0.738161
0.124                   0.658592       -0.742368
0.125                   0.653994       -0.746542
0.126                   0.649363       -0.750682
0.127                     0.6447       -0.754786
0.128                   0.640005       -0.758851
0.129                   0.635279       -0.762877
0.13                    0.630522       -0.766861
0.131                   0.625735       -0.770801
0.132                    0.62092       -0.774696
0.133                   0.616077       -0.778544
0.134                   0.611209       -0.782344
0.135                   0.606316       -0.786094
0.136                     0.6014       -0.789793
0.137                   0.596463       -0.793439
0.138                   0.591508       -0.797033
0.139                   0.586535       -0.800573
0.14                    0.581547       -0.804058
0.141                   0.576547       -0.807489
0.142                   0.571536       -0.810865
0.143                   0.566517       -0.814185
0.144                   0.561491       -0.817451
0.145                   0.556462       -0.820662
0.146                    0.55143       -0.823819
0.147                   0.546398       -0.826924
0.148                   0.541369       -0.829975
0.149                   0.536343       -0.832976
0.15                    0.531323       -0.835927
0.151                   0.526311       -0.838829
0.152                   0.521307       -0.841684
0.153                   0.516313       -0.844494
0.154                    0.51133        -0.84726
0.155                    0.50636       -0.849984
0.156                   0.501403       -0.852668
0.157                    0.49646       -0.855314
0.158                    0.49153       -0.857923
0.159                   0.486615       -0.860498
0.16                    0.481715       -0.863041
0.161                   0.476828       -0.865554
0.162                   0.471956       -0.868037
0.163                   0.467097       -0.870495
0.164                   0.462251       -0.872926
0.165                   0.457417       -0.875334
0.166                   0.452595        -0.87772
0.167                   0.447782       -0.880085
0.168                   0.442978       -0.882431
0.169                   0.438182       -0.884758
0.17                    0.433391       -0.887067
0.171                   0.428606        -0.88936
0.172                   0.423823       -0.891636
0.173                   0.419042       -0.893895
0.174                   0.414261       -0.896139
0.175                   0.409479       -0.898367
0.176                   0.404693       -0.900578
0.177                   0.399903       -0.902773
0.178                   0.395108        -0.90495
0.179                   0.390305        -0.90711
0.18                    0.385493       -0.909251
0.181                   0.380672       -0.911372
0.182                    0.37584       -0.913472
0.183                   0.370997        -0.91555
0.184                   0.366141       -0.917604
0.185                   0.361273       -0.919634
0.186                   0.356391       -0.921636
0.187                   0.351496       -0.923611
0.188                   0.346588       -0.925555
0.189                   0.341667       -0.927468
0.19                    0.336733       -0.929348
0.191                   0.331786       -0.931193
0.192                   0.326828       -0.933002
0.193                   0.321858       -0.934774
0.194                    0.31688       -0.936506
0.195                   0.311892       -0.938197
0.196                   0.306897       -0.939847
0.197                   0.301897       -0.941454
0.198                   0.296892       -0.943017
0.199                   0.291885       -0.944536
0.2                     0.286878       -0.946009
0.201                   0.281871       -0.947437
0.202                   0.276867       -0.948819
0.203                   0.271869       -0.950155
0.204                   0.266878       -0.951444
0.205                   0.261896       -0.952688
0.206                   0.256924       -0.953887
0.207                   0.251966       -0.955041
0.208                   0.247023       -0.956152
0.209                   0.242096       -0.957219
0.21                    0.237187       -0.958245
0.211                   0.232299       -0.959231
0.212                   0.227431       -0.960178
0.213                   0.222587       -0.961088
0.214                   0.217765       -0.961962
0.215                   0.212969       -0.962802
0.216                   0.208199        -0.96361
0.217                   0.203455       -0.964389
0.218                   0.198737        -0.96514
0.219                   0.194046       -0.965865
0.22                    0.189383       -0.966566
0.221                   0.184746       -0.967245
0.222                   0.180137       -0.967905
0.223                   0.175553       -0.968547
0.224                   0.170994       -0.969172
0.225                   0.166461       -0.969784
0.226                   0.161951       -0.970383
0.227                   0.157463       -0.970972
0.228                   0.152997       -0.971551
0.229                    0.14855       -0.972121
0.23                    0.144121       -0.972685
0.231                   0.139709       -0.973242
0.232                   0.135311       -0.973794
0.233                   0.130927       -0.974342
0.234                   0.126553       -0.974885
0.235                   0.122189       -0.975424
0.236                   0.117833       -0.975958
0.237                   0.113482       -0.976488
0.238                   0.109135       -0.977013
0.239                    0.10479       -0.977533
0.24                    0.100445       -0.978047
0.241                  0.0961002       -0.978553
0.242                  0.0917527       -0.979052
0.243                  0.0874016       -0.979541
0.244                  0.0830456       -0.980019
0.245                  0.0786837       -0.980484
0.246                  0.0743157       -0.980936
0.247                  0.0699402       -0.981372
0.248                  0.0655575        -0.98179
0.249                   0.061167       -0.982189
0.25                   0.0567684       -0.982567
0.251                  0.0523624       -0.982923
0.252                  0.0479492       -0.983253
0.253                  0.0435295       -0.983557
0.254                  0.0391036       -0.983833
0.255                  0.0346729       -0.984079
0.256                  0.0302385       -0.984294
0.257                  0.0258018       -0.984476
0.258                  0.0213642       -0.984623
0.259                  0.0169272       -0.984736
0.26                   0.0124923       -0.984812
0.261                 0.00806212       -0.984852
0.262                 0.00363806       -0.984853
0.263               -0.000777908       -0.984817
0.264                -0.00518356       -0.984743
0.265                -0.00957669        -0.98463
0.266                 -0.0139551        -0.98448
0.267                 -0.0183171       -0.984292
0.268                 -0.0226604       -0.984066
0.269                  -0.026983       -0.983805
0.27                  -0.0312828       -0.983509
0.271                 -0.0355581        -0.98318
0.272                 -0.0398072       -0.982818
0.273                 -0.0440285       -0.982425
0.274                 -0.0482208       -0.982003
0.275                 -0.0523825       -0.981554
0.276                 -0.0565128        -0.98108
0.277                 -0.0606106       -0.980584
0.278                 -0.0646751       -0.980067
0.279                 -0.0687063       -0.979531
0.28                  -0.0727037       -0.978979
0.281                 -0.0766674       -0.978414
0.282                 -0.0805976       -0.977837
0.283                 -0.0844946       -0.977251
0.284                 -0.0883592       -0.976659
0.285                 -0.0921924       -0.976061
0.286                 -0.0959954       -0.975462
0.287                 -0.0997693       -0.974862
0.288                  -0.103516       -0.974263
0.289                  -0.107236       -0.973667
0.29                   -0.110933       -0.973075
0.291                  -0.114607        -0.97249
0.292                  -0.118262       -0.971911
0.293                  -0.121899       -0.971341
0.294                  -0.125521       -0.970778
0.295                   -0.12913       -0.970225
0.296                  -0.132728       -0.969681
0.297                  -0.136318       -0.969146
0.298                  -0.139903        -0.96862
0.299                  -0.143483       -0.968102
0.3                    -0.147063       -0.967591
0.301                  -0.150644       -0.967087
0.302                  -0.154228       -0.966588
0.303                  -0.157817       -0.966092
0.304                  -0.161413       -0.965599
0.305                  -0.165018       -0.965106
0.306                  -0.168633       -0.964611
0.307                  -0.172259       -0.964111
0.308                  -0.175896       -0.963606
0.309                  -0.179547       -0.963092
0.31                   -0.183211       -0.962567
0.311                  -0.186888       -0.962028
0.312                  -0.190579       -0.961473
0.313                  -0.194284       -0.960899
0.314                  -0.198001       -0.960303
0.315                  -0.201729       -0.959684
0.316                  -0.205469       -0.959039
0.317                  -0.209217       -0.958366
0.318                  -0.212973       -0.957662
0.319                  -0.216736       -0.956926
0.32                   -0.220502       -0.956156
0.321                   -0.22427        -0.95535
0.322                  -0.228037       -0.954507
0.323                  -0.231801       -0.953626
0.324                  -0.235559       -0.952705
0.325                  -0.239309       -0.951746
0.326                  -0.243047       -0.950746
0.327                  -0.246771       -0.949706
0.328                  -0.250478       -0.948627
0.329                  -0.254165       -0.947509
0.33                   -0.257829       -0.946353
0.331                  -0.261468        -0.94516
0.332                  -0.265079       -0.943931
0.333                  -0.268659       -0.942669
0.334                  -0.272207       -0.941375
0.335                   -0.27572       -0.940052
0.336                  -0.279196       -0.938701
0.337                  -0.282634       -0.937327
0.338                  -0.286033        -0.93593
0.339                   -0.28939       -0.934515
0.34                   -0.292706       -0.933085
0.341                  -0.295981       -0.931642
0.342                  -0.299214        -0.93019
0.343                  -0.302404       -0.928733
0.344                  -0.305554       -0.927272
0.345                  -0.308664       -0.925813
0.346                  -0.311734       -0.924358
0.347                  -0.314767       -0.922909
0.348                  -0.317765        -0.92147
0.349                   -0.32073       -0.920044
0.35                   -0.323664       -0.918632
0.351                   -0.32657       -0.917238
0.352                  -0.329451       -0.915863
0.353                  -0.332312       -0.914509
0.354                  -0.335154       -0.913177
0.355                  -0.337982       -0.911868
0.356                  -0.340799       -0.910583
0.357                   -0.34361       -0.909322
0.358                  -0.346418       -0.908084
0.359                  -0.349229       -0.906869
0.36                   -0.352044       -0.905677
0.361                  -0.354869       -0.904505
0.362                  -0.357708       -0.903352
0.363                  -0.360564       -0.902215
0.364                   -0.36344       -0.901092
0.365                   -0.36634       -0.899979
0.366                  -0.369267       -0.898874
0.367                  -0.372224       -0.897771
0.368                  -0.375213       -0.896667
0.369                  -0.378237       -0.895558
0.37                   -0.381296       -0.894439
0.371                  -0.384392       -0.893304
0.372                  -0.387526       -0.892148
0.373                  -0.390698       -0.890967
0.374                  -0.393908       -0.889754
0.375                  -0.397155       -0.888504
0.376                  -0.400437       -0.887211
0.377                  -0.403753        -0.88587
0.378                  -0.407101       -0.884475
0.379                  -0.410477       -0.883021
0.38                   -0.413878       -0.881503
0.381                  -0.417299       -0.879916
0.382                  -0.420738       -0.878254
0.383                  -0.424187       -0.876515
0.384                  -0.427642       -0.874693
0.385                  -0.431097       -0.872785
0.386                  -0.434546       -0.870788
0.387                  -0.437981       -0.868699
0.388                  -0.441396       -0.866517
0.389                  -0.444783       -0.864239
0.39                   -0.448136       -0.861865
0.391                  -0.451445       -0.859395
0.392                  -0.454703       -0.856829
0.393                  -0.457902       -0.854168
0.394                  -0.461035       -0.851413
0.395                  -0.464093       -0.848567
0.396                  -0.467068       -0.845634
0.397                  -0.469952       -0.842616
0.398                  -0.472739       -0.839518
0.399                   -0.47542       -0.836346
0.4                    -0.477988       -0.833105
0.401                  -0.480439       -0.829802
0.402                  -0.482764       -0.826442
0.403                  -0.484958       -0.823035
0.404                  -0.487017       -0.819588
0.405                  -0.488936       -0.816109
0.406                   -0.49071       -0.812607
0.407                  -0.492337       -0.809092
0.408                  -0.493814       -0.805574
0.409                   -0.49514       -0.802061
0.41                   -0.496313       -0.798566
0.411                  -0.497332       -0.795097
0.412                  -0.498199       -0.791665
0.413                  -0.498915       -0.788281
0.414                  -0.499482       -0.784955
0.415                  -0.499903       -0.781697
0.416                  -0.500181       -0.778518
0.417                  -0.500322       -0.775427
0.418                   -0.50033       -0.772434
0.419                  -0.500211       -0.769549
0.42                   -0.499973        -0.76678
0.421                  -0.499622       -0.764135
0.422                  -0.499167       -0.761623
0.423                  -0.498617        -0.75925
0.424                  -0.497981       -0.757023
0.425                  -0.497269       -0.754948
0.426                  -0.496491       -0.753031
0.427                  -0.495657       -0.751275
0.428                   -0.49478       -0.749685
0.429                   -0.49387       -0.748263
0.43                   -0.492938        -0.74701
0.431                  -0.491997       -0.745929
0.432                  -0.491058       -0.745019
0.433                  -0.490133       -0.744279
0.434                  -0.489233       -0.743709
0.435                  -0.488371       -0.743305
0.436                  -0.487558       -0.743064
0.437                  -0.486803       -0.742982
0.438                   -0.48612       -0.743055
0.439                  -0.485517       -0.743276
0.44                   -0.485004       -0.743638
0.441                  -0.484592       -0.744136
0.442                  -0.484288        -0.74476
0.443                    -0.4841       -0.745503
0.444                  -0.484037       -0.746354
0.445                  -0.484105       -0.747306
0.446                   -0.48431       -0.748346
0.447                  -0.484657       -0.749467
0.448                   -0.48515       -0.750655
0.449                  -0.485793       -0.751901
0.45                   -0.486589       -0.753194
0.451                  -0.487538       -0.754521
0.452                  -0.488643       -0.755872
0.453                  -0.489904       -0.757236
0.454                  -0.491319       -0.758601
0.455                  -0.492887       -0.759956
0.456                  -0.494606       -0.761291
0.457                  -0.496471       -0.762594
0.458                   -0.49848       -0.763857
0.459                  -0.500627       -0.765069
0.46                   -0.502908        -0.76622
0.461                  -0.505316       -0.767303
0.462                  -0.507844        -0.76831
0.463                  -0.510485       -0.769231
0.464                  -0.513231       -0.770061
0.465                  -0.516076       -0.770794
0.466                  -0.519009       -0.771424
0.467                  -0.522023       -0.771946
0.468                  -0.525108       -0.772356
0.469                  -0.528256       -0.772651
0.47                   -0.531456       -0.772828
0.471                    -0.5347       -0.772886
0.472                  -0.537979       -0.772823
0.473                  -0.541282        -0.77264
0.474                  -0.544602       -0.772337
0.475                  -0.547928       -0.771914
0.476                  -0.551254       -0.771375
0.477                  -0.554569        -0.77072
0.478                  -0.557866       -0.769954
0.479                  -0.561138        -0.76908
0.48                   -0.564378       -0.768103
0.481                  -0.567578       -0.767026
0.482                  -0.570733       -0.765855
0.483                  -0.573837       -0.764596
0.484                  -0.576884       -0.763254
0.485                  -0.579871       -0.761836
0.486                  -0.582794       -0.760348
0.487                  -0.585648       -0.758796
0.488                  -0.588432       -0.757187
0.489                  -0.591144       -0.755529
0.49                   -0.593781       -0.753826
0.491                  -0.596343       -0.752088
0.492                  -0.598831        -0.75032
0.493                  -0.601242       -0.748528
0.494                  -0.603581       -0.746719
0.495                  -0.605845       -0.744899
0.496                   -0.60804       -0.743074
0.497                  -0.610165        -0.74125
0.498                  -0.612224       -0.739431
0.499                   -0.61422       -0.737623
0.5                    -0.616157        -0.73583
0.501                  -0.618037       -0.734056
0.502                  -0.619867       -0.732304
0.503                  -0.621648       -0.730579
0.504                  -0.623386       -0.728882
0.505                  -0.625086       -0.727215
0.506                  -0.626752       -0.725581
0.507                  -0.628388       -0.723981
0.508                  -0.629998       -0.722416
0.509                   -0.63159       -0.720885
0.51                   -0.633165        -0.71939
0.511                  -0.634729       -0.717928
0.512                  -0.636287         -0.7165
0.513                  -0.637841       -0.715105
0.514                  -0.639395        -0.71374
0.515                  -0.640954       -0.712403
0.516                  -0.642521       -0.711093
0.517                  -0.644098       -0.709806
0.518                  -0.645688       -0.708541
0.519                  -0.647294       -0.707293
0.52                   -0.648917       -0.706061
0.521                  -0.650558       -0.704839
0.522                   -0.65222       -0.703627
0.523                  -0.653903       -0.702419
0.524                  -0.655607       -0.701212
0.525                  -0.657333       -0.700004
0.526                  -0.659079        -0.69879
0.527                  -0.660847       -0.697568
0.528                  -0.662633       -0.696335
0.529                  -0.664439       -0.695087
0.53                   -0.666261       -0.693822
0.531                  -0.668099       -0.692537
0.532                  -0.669949        -0.69123
0.533                  -0.671811       -0.689899
0.534                  -0.673681       -0.688542
0.535                  -0.675557       -0.687157
0.536                  -0.677436       -0.685743
0.537                  -0.679315         -0.6843
0.538                  -0.681192       -0.682826
0.539                  -0.683064       -0.681322
0.54                   -0.684927       -0.679787
0.541                   -0.68678       -0.678222
0.542                  -0.688618       -0.676626
0.543                   -0.69044       -0.675002
0.544                  -0.692243        -0.67335
0.545                  -0.694024       -0.671671
0.546                  -0.695781       -0.669967
0.547                  -0.697512       -0.668241
0.548                  -0.699216       -0.666493
0.549                   -0.70089       -0.664727
0.55                   -0.702533       -0.662944
0.551                  -0.704144       -0.661147
0.552                  -0.705722       -0.659338
0.553                  -0.707267       -0.657521
0.554                  -0.708777       -0.655698
0.555                  -0.710253       -0.653871
0.556                  -0.711695       -0.652043
0.557                  -0.713104       -0.650217
0.558                  -0.714481       -0.648396
0.559                  -0.715825       -0.646581
0.56                   -0.717139       -0.644776
0.561                  -0.718423       -0.642982
0.562                   -0.71968       -0.641202
0.563                  -0.720911       -0.639437
0.564                  -0.722119       -0.637688
0.565                  -0.723304       -0.635959
0.566                  -0.724471       -0.634249
0.567                   -0.72562       -0.632559
0.568                  -0.726755       -0.630891
0.569                  -0.727878       -0.629245
0.57                   -0.728991       -0.627621
0.571                  -0.730097       -0.626019
0.572                  -0.731198       -0.624439
0.573                  -0.732297        -0.62288
0.574                  -0.733396       -0.621342
0.575                  -0.734498       -0.619823
0.576                  -0.735604       -0.618323
0.577                  -0.736717        -0.61684
0.578                  -0.737839       -0.615372
0.579                   -0.73897       -0.613918
0.58                   -0.740113       -0.612475
0.581                   -0.74127       -0.611041
0.582                  -0.742439       -0.609616
0.583                  -0.743624       -0.608195
0.584                  -0.744824       -0.606778
0.585                   -0.74604        -0.60536
0.586                  -0.747271       -0.603941
0.587                  -0.748519       -0.602518
0.588                  -0.749781       -0.601088
0.589                  -0.751058       -0.599649
0.59                    -0.75235       -0.598199
0.591                  -0.753654       -0.596736
0.592                  -0.754969       -0.595258
0.593                  -0.756295       -0.593762
0.594                  -0.757629       -0.592248
0.595                   -0.75897       -0.590714
0.596                  -0.760317       -0.589158
0.597                  -0.761666       -0.587579
0.598                  -0.763015       -0.585977
0.599                  -0.764364        -0.58435
0.6                    -0.765708       -0.582699
0.601                  -0.767047       -0.581023
0.602                  -0.768378       -0.579321
0.603                  -0.769697       -0.577595
0.604                  -0.771004       -0.575844
0.605                  -0.772297       -0.574069
0.606                  -0.773572       -0.572272
0.607                  -0.774829       -0.570453
0.608                  -0.776064       -0.568613
0.609                  -0.777277       -0.566754
0.61                   -0.778466       -0.564877
0.611                   -0.77963       -0.562985
0.612                  -0.780767       -0.561079
0.613                  -0.781877       -0.559161
0.614                  -0.782958       -0.557233
0.615                   -0.78401       -0.555297
0.616                  -0.785033       -0.553355
0.617                  -0.786027        -0.55141
0.618                  -0.786992       -0.549463
0.619                  -0.787928       -0.547518
0.62                   -0.788835       -0.545574
0.621                  -0.789715       -0.543636
0.622                  -0.790569       -0.541704
0.623                  -0.791397        -0.53978
0.624                  -0.792202       -0.537866
0.625                  -0.792984       -0.535964
0.626                  -0.793745       -0.534074
0.627                  -0.794488       -0.532198
0.628                  -0.795213       -0.530336
0.629                  -0.795923        -0.52849
0.63                   -0.796621       -0.526658
0.631                  -0.797307       -0.524843
0.632                  -0.797984       -0.523043
0.633                  -0.798655       -0.521259
0.634                  -0.799322       -0.519489
0.635                  -0.799986       -0.517734
0.636                  -0.800649       -0.515991
0.637                  -0.801313        -0.51426
0.638                  -0.801981       -0.512539
0.639                  -0.802652       -0.510827
0.64                    -0.80333       -0.509121
0.641                  -0.804014        -0.50742
0.642                  -0.804706       -0.505722
0.643                  -0.805407       -0.504023
0.644                  -0.806117       -0.502323
0.645                  -0.806836       -0.500617
0.646                  -0.807564       -0.498904
0.647                  -0.808302       -0.497181
0.648                  -0.809047       -0.495446
0.649                    -0.8098       -0.493695
0.65                   -0.810559       -0.491926
0.651                  -0.811322       -0.490137
0.652                  -0.812088       -0.488325
0.653                  -0.812855       -0.486487
0.654                   -0.81362       -0.484623
0.655                  -0.814381        -0.48273
0.656                  -0.815136       -0.480806
0.657                   -0.81588        -0.47885
0.658                  -0.816611        -0.47686
0.659                  -0.817326       -0.474836
0.66                    -0.81802       -0.472776
0.661                   -0.81869       -0.470682
0.662                  -0.819333       -0.468551
0.663                  -0.819944       -0.466386
0.664                  -0.820519       -0.464186
0.665                  -0.821055       -0.461953
0.666                  -0.821548       -0.459688
0.667                  -0.821993       -0.457393
0.668                  -0.822387        -0.45507
0.669                  -0.822727       -0.452721
0.67                   -0.823008       -0.450349
0.671                  -0.823228       -0.447958
0.672                  -0.823383        -0.44555
0.673                   -0.82347       -0.443131
0.674                  -0.823487       -0.440703
0.675                  -0.823432       -0.438271
0.676                  -0.823301        -0.43584
0.677                  -0.823095       -0.433415
0.678                   -0.82281       -0.431001
0.679                  -0.822447       -0.428602
0.68                   -0.822005       -0.426225
0.681                  -0.821483       -0.423875
0.682                  -0.820883       -0.421557
0.683                  -0.820204       -0.419277
0.684                  -0.819447       -0.417041
0.685                  -0.818615       -0.414854
0.686                   -0.81771       -0.412721
0.687                  -0.816734       -0.410648
0.688                  -0.815689       -0.408641
0.689                   -0.81458       -0.406704
0.69                   -0.813409       -0.404842
0.691                  -0.812182        -0.40306
0.692                  -0.810901       -0.401363
0.693                  -0.809574       -0.399753
0.694                  -0.808204       -0.398235
0.695                  -0.806796       -0.396813
0.696                  -0.805358       -0.395489
0.697                  -0.803894       -0.394266
0.698                  -0.802412       -0.393145
0.699                  -0.800917        -0.39213
0.7                    -0.799415        -0.39122
0.701                  -0.797915       -0.390417
0.702                  -0.796422        -0.38972
0.703                  -0.794942        -0.38913
0.704                  -0.793484       -0.388646
0.705                  -0.792053       -0.388267
0.706                  -0.790656        -0.38799
0.707                  -0.789301       -0.387815
0.708                  -0.787992       -0.387737
0.709                  -0.786736       -0.387754
0.71                    -0.78554       -0.387863
0.711                  -0.784408       -0.388059
0.712                  -0.783347       -0.388339
0.713                  -0.782361       -0.388696
0.714                  -0.781455       -0.389127
0.715                  -0.780633       -0.389625
0.716                  -0.779899       -0.390186
0.717                  -0.779257       -0.390802
0.718                   -0.77871       -0.391468
0.719                   -0.77826       -0.392178
0.72                   -0.777909       -0.392924
0.721                   -0.77766       -0.393701
0.722                  -0.777512       -0.394501
0.723                  -0.777467       -0.395317
0.724                  -0.777525       -0.396143
0.725                  -0.777686       -0.396972
0.726                  -0.777948       -0.397798
0.727                  -0.778311       -0.398613
0.728                  -0.778773       -0.399411
0.729                   -0.77933       -0.400186
0.73                   -0.779982       -0.400933
0.731                  -0.780724       -0.401644
0.732                  -0.781554       -0.402315
0.733                  -0.782467       -0.402941
0.734                  -0.783459       -0.403516
0.735                  -0.784526       -0.404036
0.736                  -0.785663       -0.404497
0.737                  -0.786865       -0.404895
0.738                  -0.788127       -0.405227
0.739                  -0.789443       -0.405489
0.74                   -0.790809        -0.40568
0.741                  -0.792217       -0.405797
0.742                  -0.793663       -0.405838
0.743                  -0.795141       -0.405804
0.744                  -0.796644       -0.405691
0.745                  -0.798168       -0.405501
0.746                  -0.799706       -0.405234
0.747                  -0.801253       -0.404889
0.748                  -0.802803       -0.404469
0.749                  -0.804351       -0.403973
0.75                   -0.805893       -0.403405
0.751                  -0.807422       -0.402766
0.752                  -0.808934       -0.402058
0.753                  -0.810425       -0.401285
0.754                  -0.811891       -0.400449
0.755                  -0.813327       -0.399553
0.756                  -0.814731       -0.398601
0.757                  -0.816099       -0.397597
0.758                  -0.817428       -0.396545
0.759                  -0.818715       -0.395448
0.76                   -0.819959       -0.394312
0.761                  -0.821157       -0.393139
0.762                  -0.822308       -0.391935
0.763                  -0.823412       -0.390704
0.764                  -0.824466        -0.38945
0.765                  -0.825472       -0.388178
0.766                  -0.826428       -0.386892
0.767                  -0.827335       -0.385595
0.768                  -0.828195       -0.384293
0.769                  -0.829007       -0.382989
0.77                   -0.829773       -0.381687
0.771                  -0.830494        -0.38039
0.772                  -0.831173       -0.379103
0.773                  -0.831811       -0.377828
0.774                  -0.832411       -0.376568
0.775                  -0.832974       -0.375327
0.776                  -0.833504       -0.374106
0.777                  -0.834004       -0.372908
0.778                  -0.834477       -0.371735
0.779                  -0.834924       -0.370588
0.78                    -0.83535        -0.36947
0.781                  -0.835758        -0.36838
0.782                   -0.83615       -0.367321
0.783                  -0.836531       -0.366292
0.784                  -0.836903       -0.365295
0.785                  -0.837269       -0.364328
0.786                  -0.837632       -0.363392
0.787                  -0.837996       -0.362485
0.788                  -0.838364       -0.361609
0.789                  -0.838737       -0.360761
0.79                    -0.83912        -0.35994
0.791                  -0.839514       -0.359145
0.792                  -0.839922       -0.358374
0.793                  -0.840345       -0.357626
0.794                  -0.840787       -0.356899
0.795                  -0.841248        -0.35619
0.796                   -0.84173       -0.355497
0.797                  -0.842235       -0.354819
0.798                  -0.842764       -0.354153
0.799                  -0.843318       -0.353497
0.8                    -0.843897       -0.352847
0.801                  -0.844503       -0.352202
0.802                  -0.845134        -0.35156
0.803                  -0.845792       -0.350917
0.804                  -0.846476       -0.350271
0.805                  -0.847186       -0.349621
0.806                  -0.847922       -0.348964
0.807                  -0.848683       -0.348297
0.808                  -0.849467       -0.347619
0.809                  -0.850274       -0.346927
0.81                   -0.851103        -0.34622
0.811                  -0.851953       -0.345496
0.812                  -0.852822       -0.344753
0.813                  -0.853708       -0.343991
0.814                  -0.854609       -0.343207
0.815                  -0.855526         -0.3424
0.816                  -0.856454        -0.34157
0.817                  -0.857394       -0.340716
0.818                  -0.858342       -0.339837
0.819                  -0.859297       -0.338932
0.82                   -0.860257       -0.338001
0.821                  -0.861221       -0.337045
0.822                  -0.862186       -0.336063
0.823                   -0.86315       -0.335054
0.824                  -0.864113       -0.334021
0.825                  -0.865072       -0.332962
0.826                  -0.866026       -0.331878
0.827                  -0.866973       -0.330771
0.828                  -0.867912        -0.32964
0.829                  -0.868841       -0.328488
0.83                    -0.86976       -0.327313
0.831                  -0.870666       -0.326118
0.832                   -0.87156       -0.324904
0.833                   -0.87244       -0.323672
0.834                  -0.873306       -0.322423
0.835                  -0.874156       -0.321158
0.836                  -0.874991       -0.319878
0.837                   -0.87581       -0.318585
0.838                  -0.876612       -0.317281
0.839                  -0.877398       -0.315965
0.84                   -0.878167       -0.314639
0.841                   -0.87892       -0.313305
0.842                  -0.879656       -0.311964
0.843                  -0.880376       -0.310616
0.844                   -0.88108       -0.309263
0.845                  -0.881769       -0.307905
0.846                  -0.882442       -0.306544
0.847                  -0.883102       -0.305179
0.848                  -0.883747       -0.303813
0.849                  -0.884379       -0.302446
0.85                   -0.884998       -0.301077
0.851                  -0.885605       -0.299708
0.852                  -0.886201       -0.298339
0.853                  -0.886787        -0.29697
0.854                  -0.887363       -0.295601
0.855                  -0.887929       -0.294233
0.856                  -0.888488       -0.292865
0.857                  -0.889038       -0.291498
0.858                  -0.889582       -0.290131
0.859                  -0.890119       -0.288764
0.86                   -0.890649       -0.287397
0.861                  -0.891175       -0.286029
0.862                  -0.891695        -0.28466
0.863                  -0.892211        -0.28329
0.864                  -0.892723       -0.281919
0.865                   -0.89323       -0.280545
0.866                  -0.893734       -0.279168
0.867                  -0.894234       -0.277788
0.868                   -0.89473       -0.276403
0.869                  -0.895222       -0.275015
0.87                   -0.895711       -0.273621
0.871                  -0.896195       -0.272221
0.872                  -0.896675       -0.270816
0.873                  -0.897151       -0.269404
0.874                  -0.897622       -0.267985
0.875                  -0.898088       -0.266559
0.876                  -0.898548       -0.265124
0.877                  -0.899001       -0.263681
0.878                  -0.899448        -0.26223
0.879                  -0.899888        -0.26077
0.88                    -0.90032       -0.259301
0.881                  -0.900743       -0.257823
0.882                  -0.901156       -0.256336
0.883                   -0.90156        -0.25484
0.884                  -0.901954       -0.253335
0.885                  -0.902336        -0.25182
0.886                  -0.902706       -0.250298
0.887                  -0.903064       -0.248766
0.888                  -0.903409       -0.247226
0.889                   -0.90374       -0.245679
0.89                   -0.904057       -0.244123
0.891                  -0.904359       -0.242561
0.892                  -0.904646       -0.240993
0.893                  -0.904917       -0.239418
0.894                  -0.905173       -0.237838
0.895                  -0.905412       -0.236253
0.896                  -0.905634       -0.234663
0.897                   -0.90584        -0.23307
0.898                  -0.906028       -0.231474
0.899                  -0.906199       -0.229875
0.9                    -0.906353       -0.228275
0.901                  -0.906491       -0.226673
0.902                   -0.90661       -0.225071
0.903                  -0.906713       -0.223468
0.904                  -0.906799       -0.221867
0.905                  -0.906868       -0.220266
0.906                  -0.906921       -0.218666
0.907                  -0.906958       -0.217069
0.908                  -0.906979       -0.215473
0.909                  -0.906984       -0.213881
0.91                   -0.906974       -0.212291
0.911                  -0.906949       -0.210704
0.912                   -0.90691       -0.209121
0.913                  -0.906856       -0.207541
0.914                  -0.906789       -0.205964
0.915                  -0.906708       -0.204391
0.916                  -0.906614       -0.202821
0.917                  -0.906507       -0.201255
0.918                  -0.906388       -0.199691
0.919                  -0.906256       -0.198131
0.92                   -0.906112       -0.196573
0.921                  -0.905956       -0.195017
0.922                  -0.905788       -0.193464
0.923                  -0.905608       -0.191912
0.924                  -0.905415       -0.190362
0.925                  -0.905211       -0.188812
0.926                  -0.904994       -0.187263
0.927                  -0.904764       -0.185714
0.928                  -0.904521       -0.184165
0.929                  -0.904265       -0.182615
0.93                   -0.903994       -0.181064
0.931                  -0.903709       -0.179512
0.932                  -0.903409       -0.177958
0.933                  -0.903092       -0.176402
0.934                  -0.902758       -0.174845
0.935                  -0.902407       -0.173285
0.936                  -0.902037       -0.171723
0.937                  -0.901646       -0.170159
0.938                  -0.901235       -0.168593
0.939                  -0.900802       -0.167025
0.94                   -0.900346       -0.165456
0.941                  -0.899865       -0.163886
0.942                  -0.899359       -0.162316
0.943                  -0.898826       -0.160746
0.944                  -0.898265       -0.159177
0.945                  -0.897675        -0.15761
0.946                  -0.897054       -0.156047
0.947                  -0.896402       -0.154488
0.948                  -0.895717       -0.152934
0.949                  -0.894998       -0.151388
0.95                   -0.894245        -0.14985
0.951                  -0.893456       -0.148323
0.952                   -0.89263       -0.146807
0.953                  -0.891768       -0.145306
0.954                  -0.890867       -0.143821
0.955                  -0.889928       -0.142354
0.956                   -0.88895       -0.140908
0.957                  -0.887934       -0.139485
0.958                  -0.886878       -0.138086
0.959                  -0.885784       -0.136716
0.96                    -0.88465       -0.135376
0.961                  -0.883479       -0.134068
0.962                  -0.882269       -0.132795
0.963                  -0.881023       -0.131561
0.964                  -0.879741       -0.130367
0.965                  -0.878424       -0.129217
0.966                  -0.877074       -0.128111
0.967                  -0.875692       -0.127054
0.968                  -0.874279       -0.126048
0.969                  -0.872838       -0.125095
0.97                   -0.871371       -0.124198
0.971                   -0.86988       -0.123358
0.972                  -0.868368       -0.122578
0.973                  -0.866836        -0.12186
0.974                  -0.865289       -0.121205
0.975                  -0.863729       -0.120616
0.976                  -0.862159       -0.120094
0.977                  -0.860582       -0.119641
0.978                  -0.859001       -0.119256
0.979                  -0.857421       -0.118943
0.98                   -0.855845         -0.1187
0.981                  -0.854275        -0.11853
0.982                  -0.852717       -0.118431
0.983                  -0.851174       -0.118405
0.984                   -0.84965       -0.118451
0.985                  -0.848148       -0.118568
0.986                  -0.846672       -0.118757
0.987                  -0.845227       -0.119017
0.988                  -0.843815       -0.119345
0.989                  -0.842442       -0.119741
0.99                    -0.84111       -0.120204
0.991                  -0.839823       -0.120731
0.992                  -0.838585        -0.12132
0.993                  -0.837399        -0.12197
0.994                  -0.836268       -0.122677
0.995                  -0.835196        -0.12344
0.996                  -0.834185       -0.124254
0.997                  -0.833239       -0.125117
0.998                   -0.83236       -0.126026
0.999                   -0.83155       -0.126977
1                      -0.830811       -0.127967
1.001                  -0.830147       -0.128992
1.002                  -0.829557       -0.130048
1.003                  -0.829045       -0.131131
1.004                  -0.828611       -0.132237
1.005                  -0.828256       -0.133362
1.006                  -0.827981       -0.134502
1.007                  -0.827787       -0.135652
1.008                  -0.827673       -0.136809
1.009                  -0.827641       -0.137968
1.01                   -0.827689       -0.139125
1.011                  -0.827817       -0.140276
1.012                  -0.828025       -0.141417
1.013                  -0.828311       -0.142543
1.014                  -0.828675        -0.14365
1.015                  -0.829114       -0.144736
1.016                  -0.829627       -0.145796
1.017                  -0.830213       -0.146826
1.018                  -0.830868       -0.147823
1.019                  -0.831592       -0.148783
1.02                    -0.83238       -0.149704
1.021                  -0.833232       -0.150582
1.022                  -0.834143       -0.151416
1.023                  -0.835111         -0.1522
1.024                  -0.836133       -0.152935
1.025                  -0.837206       -0.153617
1.026                  -0.838326       -0.154245
1.027                   -0.83949       -0.154817
1.028                  -0.840695        -0.15533
1.029                  -0.841937       -0.155785
1.03                   -0.843213       -0.156179
1.031                   -0.84452       -0.156513
1.032                  -0.845853       -0.156785
1.033                  -0.847209       -0.156995
1.034                  -0.848586       -0.157142
1.035                  -0.849979       -0.157227
1.036                  -0.851385       -0.157251
1.037                  -0.852801       -0.157212
1.038                  -0.854223       -0.157113
1.039                  -0.855649       -0.156953
1.04                   -0.857076       -0.156734
1.041                    -0.8585       -0.156456
1.042                   -0.85992       -0.156122
1.043                  -0.861331       -0.155732
1.044                  -0.862733       -0.155288
1.045                  -0.864122        -0.15479
1.046                  -0.865496       -0.154243
1.047                  -0.866854       -0.153646
1.048                  -0.868193       -0.153002
1.049                  -0.869511       -0.152313
1.05                   -0.870808       -0.151581
1.051                  -0.872081       -0.150807
1.052                  -0.873329       -0.149995
1.053                  -0.874551       -0.149145
1.054                  -0.875747        -0.14826
1.055                  -0.876915       -0.147343
1.056                  -0.878055       -0.146394
1.057                  -0.879166       -0.145417
1.058                  -0.880248       -0.144413
1.059                  -0.881301       -0.143384
1.06                   -0.882324       -0.142333
1.061                  -0.883317        -0.14126
1.062                   -0.88428       -0.140168
1.063                  -0.885214       -0.139059
1.064                  -0.886119       -0.137933
1.065                  -0.886995       -0.136794
1.066                  -0.887842       -0.135642
1.067                  -0.888662       -0.134478
1.068                  -0.889454       -0.133304
1.069                  -0.890219       -0.132122
1.07                   -0.890957       -0.130932
1.071                   -0.89167       -0.129735
1.072                  -0.892358       -0.128533
1.073                  -0.893022       -0.127327
1.074                  -0.893662       -0.126116
1.075                  -0.894279       -0.124903
1.076                  -0.894873       -0.123687
1.077                  -0.895447        -0.12247
1.078                  -0.895999       -0.121251
1.079                  -0.896532       -0.120032
1.08                   -0.897044       -0.118813
1.081                  -0.897538       -0.117594
1.082                  -0.898014       -0.116375
1.083                  -0.898472       -0.115158
1.084                  -0.898913       -0.113941
1.085                  -0.899337       -0.112725
1.086                  -0.899745       -0.111512
1.087                  -0.900137       -0.110299
1.088                  -0.900513       -0.109089
1.089                  -0.900875        -0.10788
1.09                   -0.901222       -0.106674
1.091                  -0.901555        -0.10547
1.092                  -0.901874       -0.104268
1.093                  -0.902179       -0.103068
1.094                  -0.902471       -0.101872
1.095                   -0.90275       -0.100678
1.096                  -0.903015      -0.0994866
1.097                  -0.903268      -0.0982982
1.098                  -0.903508      -0.0971134
1.099                  -0.903735      -0.0959321
1.1                     -0.90395      -0.0947543
1.101                  -0.904153      -0.0935799
1.102                  -0.904344        -0.09241
1.103                  -0.904523      -0.0912443
1.104                  -0.904691       -0.090083
1.105                  -0.904847      -0.0889266
1.106                  -0.904992      -0.0877751
1.107                  -0.905127      -0.0866293
1.108                   -0.90525      -0.0854889
1.109                  -0.905364      -0.0843546
1.11                   -0.905467      -0.0832264
1.111                   -0.90556      -0.0821048
1.112                  -0.905644      -0.0809896
1.113                  -0.905719      -0.0798821
1.114                  -0.905786      -0.0787817
1.115                  -0.905844      -0.0776886
1.116                  -0.905895      -0.0766035
1.117                  -0.905938      -0.0755266
1.118                  -0.905974      -0.0744576
1.119                  -0.906004      -0.0733969
1.12                   -0.906028       -0.072345
1.121                  -0.906048      -0.0713016
1.122                  -0.906062      -0.0702664
1.123                  -0.906072      -0.0692403
1.124                  -0.906079      -0.0682225
1.125                  -0.906083      -0.0672136
1.126                  -0.906085       -0.066213
1.127                  -0.906085       -0.065221
1.128                  -0.906083      -0.0642369
1.129                  -0.906081      -0.0632608
1.13                   -0.906079      -0.0622925
1.131                  -0.906077      -0.0613317
1.132                  -0.906077      -0.0603777
1.133                  -0.906078      -0.0594306
1.134                   -0.90608      -0.0584897
1.135                  -0.906085      -0.0575545
1.136                  -0.906093       -0.056625
1.137                  -0.906104      -0.0557002
1.138                  -0.906119      -0.0547795
1.139                  -0.906137      -0.0538628
1.14                   -0.906159       -0.052949
1.141                  -0.906186       -0.052038
1.142                  -0.906216      -0.0511289
1.143                  -0.906252       -0.050221
1.144                  -0.906291      -0.0493138
1.145                  -0.906336      -0.0484068
1.146                  -0.906384      -0.0474995
1.147                  -0.906437      -0.0465908
1.148                  -0.906495      -0.0456801
1.149                  -0.906556      -0.0447674
1.15                   -0.906622      -0.0438516
1.151                  -0.906691      -0.0429321
1.152                  -0.906763      -0.0420088
1.153                  -0.906839      -0.0410806
1.154                  -0.906916      -0.0401475
1.155                  -0.906996      -0.0392091
1.156                  -0.907078      -0.0382644
1.157                  -0.907161      -0.0373137
1.158                  -0.907245      -0.0363558
1.159                  -0.907329      -0.0353915
1.16                   -0.907413      -0.0344199
1.161                  -0.907496      -0.0334406
1.162                  -0.907577       -0.032454
1.163                  -0.907656      -0.0314597
1.164                  -0.907733      -0.0304572
1.165                  -0.907807      -0.0294472
1.166                  -0.907877      -0.0284289
1.167                  -0.907943      -0.0274032
1.168                  -0.908004      -0.0263697
1.169                  -0.908059      -0.0253282
1.17                   -0.908109      -0.0242797
1.171                  -0.908152      -0.0232235
1.172                  -0.908188      -0.0221603
1.173                  -0.908218      -0.0210907
1.174                  -0.908239      -0.0200139
1.175                  -0.908252      -0.0189313
1.176                  -0.908257      -0.0178426
1.177                  -0.908253      -0.0167484
1.178                  -0.908239      -0.0156489
1.179                  -0.908216      -0.0145445
1.18                   -0.908184      -0.0134356
1.181                  -0.908141      -0.0123227
1.182                  -0.908089      -0.0112059
1.183                  -0.908026      -0.0100857
1.184                  -0.907952     -0.00896263
1.185                  -0.907868     -0.00783679
1.186                  -0.907774     -0.00670883
1.187                  -0.907669       -0.005579
1.188                  -0.907553     -0.00444795
1.189                  -0.907427      -0.0033153
1.19                    -0.90729     -0.00218191
1.191                  -0.907142     -0.00104784
1.192                  -0.906984     8.64822e-05
1.193                  -0.906815      0.00122101
1.194                  -0.906636       0.0023553
1.195                  -0.906446       0.0034891
1.196                  -0.906246      0.00462239
1.197                  -0.906036      0.00575492
1.198                  -0.905816      0.00688644
1.199                  -0.905586      0.00801694
1.2                    -0.905346      0.00914637
1.201                  -0.905096       0.0102743
1.202                  -0.904836       0.0114011
1.203                  -0.904566       0.0125263
1.204                  -0.904286       0.0136501
1.205                  -0.903997       0.0147723
1.206                  -0.903698       0.0158929
1.207                  -0.903389       0.0170122
1.208                  -0.903071       0.0181296
1.209                  -0.902742       0.0192455
1.21                   -0.902404       0.0203598
1.211                  -0.902056       0.0214724
1.212                  -0.901697       0.0225834
1.213                  -0.901328       0.0236925
1.214                  -0.900949       0.0247998
1.215                  -0.900559       0.0259055
1.216                  -0.900159       0.0270092
1.217                  -0.899747       0.0281111
1.218                  -0.899324       0.0292109
1.219                  -0.898889       0.0303085
1.22                   -0.898443       0.0314038
1.221                  -0.897985       0.0324964
1.222                  -0.897514       0.0335865
1.223                  -0.897031       0.0346739
1.224                  -0.896535       0.0357577
1.225                  -0.896026       0.0368383
1.226                  -0.895504       0.0379152
1.227                  -0.894968        0.038988
1.228                  -0.894418       0.0400565
1.229                  -0.893853       0.0411201
1.23                   -0.893274       0.0421785
1.231                  -0.892681        0.043231
1.232                  -0.892072       0.0442776
1.233                  -0.891449       0.0453176
1.234                  -0.890809       0.0463499
1.235                  -0.890155       0.0473749
1.236                  -0.889484       0.0483915
1.237                  -0.888798       0.0493989
1.238                  -0.888096       0.0503965
1.239                  -0.887378       0.0513841
1.24                   -0.886644       0.0523608
1.241                  -0.885894       0.0533257
1.242                  -0.885128       0.0542785
1.243                  -0.884346       0.0552178
1.244                  -0.883549       0.0561438
1.245                  -0.882735        0.057055
1.246                  -0.881907       0.0579512
1.247                  -0.881063        0.058831
1.248                  -0.880204       0.0596943
1.249                   -0.87933         0.06054
1.25                   -0.878442       0.0613675
1.251                  -0.877541        0.062176
1.252                  -0.876625       0.0629649
1.253                  -0.875697       0.0637332
1.254                  -0.874756       0.0644806
1.255                  -0.873803        0.065206
1.256                  -0.872839       0.0659088
1.257                  -0.871864       0.0665889
1.258                  -0.870878       0.0672448
1.259                  -0.869883       0.0678762
1.26                    -0.86888        0.068483
1.261                  -0.867868       0.0690639
1.262                  -0.866849       0.0696188
1.263                  -0.865824       0.0701469
1.264                  -0.864793       0.0706482
1.265                  -0.863757       0.0711215
1.266                  -0.862717       0.0715671
1.267                  -0.861674       0.0719843
1.268                   -0.86063       0.0723727
1.269                  -0.859584       0.0727319
1.27                   -0.858538       0.0730619
1.271                  -0.857493        0.073362
1.272                   -0.85645       0.0736325
1.273                   -0.85541       0.0738731
1.274                  -0.854374       0.0740833
1.275                  -0.853343       0.0742637
1.276                  -0.852318       0.0744134
1.277                  -0.851301        0.074533
1.278                  -0.850292       0.0746225
1.279                  -0.849292       0.0746817
1.28                   -0.848303       0.0747108
1.281                  -0.847326       0.0747102
1.282                  -0.846361         0.07468
1.283                  -0.845411       0.0746203
1.284                  -0.844475       0.0745315
1.285                  -0.843556       0.0744141
1.286                  -0.842654       0.0742683
1.287                   -0.84177       0.0740948
1.288                  -0.840906       0.0738938
1.289                  -0.840062       0.0736662
1.29                    -0.83924       0.0734123
1.291                  -0.838441       0.0731329
1.292                  -0.837665       0.0728287
1.293                  -0.836915       0.0725004
1.294                   -0.83619       0.0721487
1.295                  -0.835491       0.0717746
1.296                  -0.834821       0.0713791
1.297                  -0.834178       0.0709629
1.298                  -0.833566       0.0705272
1.299                  -0.832983       0.0700727
1.3                    -0.832432        0.069601
1.301                  -0.831912       0.0691128
1.302                  -0.831425       0.0686094
1.303                  -0.830971        0.068092
1.304                  -0.830551       0.0675617
1.305                  -0.830165       0.0670201
1.306                  -0.829814        0.066468
1.307                  -0.829498       0.0659073
1.308                  -0.829218       0.0653391
1.309                  -0.828974       0.0647647
1.31                   -0.828767       0.0641859
1.311                  -0.828595       0.0636036
1.312                   -0.82846       0.0630194
1.313                  -0.828362       0.0624348
1.314                  -0.828301       0.0618516
1.315                  -0.828276       0.0612706
1.316                  -0.828287       0.0606937
1.317                  -0.828334       0.0601224
1.318                  -0.828418       0.0595578
1.319                  -0.828536       0.0590016
1.32                    -0.82869       0.0584552
1.321                  -0.828879       0.0579196
1.322                  -0.829101       0.0573968
1.323                  -0.829356       0.0568878
1.324                  -0.829645        0.056394
1.325                  -0.829965       0.0559163
1.326                  -0.830315       0.0554561
1.327                  -0.830696       0.0550149
1.328                  -0.831106       0.0545934
1.329                  -0.831545       0.0541927
1.33                    -0.83201       0.0538142
1.331                  -0.832501       0.0534583
1.332                  -0.833017       0.0531261
1.333                  -0.833556       0.0528186
1.334                  -0.834118       0.0525363
1.335                  -0.834701       0.0522797
1.336                  -0.835305       0.0520499
1.337                  -0.835926       0.0518469
1.338                  -0.836565       0.0516716
1.339                   -0.83722       0.0515241
1.34                    -0.83789       0.0514048
1.341                  -0.838573       0.0513137
1.342                  -0.839268       0.0512515
1.343                  -0.839974       0.0512178
1.344                  -0.840689       0.0512128
1.345                  -0.841413       0.0512362
1.346                  -0.842143       0.0512884
1.347                  -0.842879       0.0513687
1.348                   -0.84362        0.051477
1.349                  -0.844365       0.0516131
1.35                   -0.845111       0.0517766
1.351                   -0.84586        0.051967
1.352                  -0.846608       0.0521838
1.353                  -0.847355       0.0524267
1.354                  -0.848102       0.0526949
1.355                  -0.848845       0.0529879
1.356                  -0.849585       0.0533054
1.357                  -0.850322       0.0536463
1.358                  -0.851053       0.0540102
1.359                   -0.85178       0.0543964
1.36                     -0.8525        0.054804
1.361                  -0.853214       0.0552324
1.362                  -0.853921        0.055681
1.363                   -0.85462       0.0561489
1.364                  -0.855312       0.0566356
1.365                  -0.855996       0.0571404
1.366                  -0.856672       0.0576622
1.367                  -0.857339       0.0582009
1.368                  -0.857997       0.0587555
1.369                  -0.858647       0.0593255
1.37                   -0.859288       0.0599102
1.371                   -0.85992        0.060509
1.372                  -0.860544       0.0611214
1.373                  -0.861158        0.061747
1.374                  -0.861763       0.0623853
1.375                   -0.86236       0.0630356
1.376                  -0.862948       0.0636977
1.377                  -0.863528       0.0643712
1.378                  -0.864099       0.0650555
1.379                  -0.864662       0.0657505
1.38                   -0.865216       0.0664562
1.381                  -0.865763        0.067172
1.382                  -0.866301       0.0678975
1.383                  -0.866832       0.0686329
1.384                  -0.867355       0.0693782
1.385                   -0.86787       0.0701327
1.386                  -0.868378       0.0708965
1.387                  -0.868878       0.0716698
1.388                  -0.869371       0.0724524
1.389                  -0.869857       0.0732441
1.39                   -0.870335       0.0740451
1.391                  -0.870806       0.0748554
1.392                  -0.871269       0.0756748
1.393                  -0.871725       0.0765034
1.394                  -0.872173       0.0773412
1.395                  -0.872613       0.0781881
1.396                  -0.873046       0.0790442
1.397                  -0.873471       0.0799098
1.398                  -0.873888       0.0807843
1.399                  -0.874296       0.0816682
1.4                    -0.874696        0.082561
1.401                  -0.875087        0.083463
1.402                  -0.875468       0.0843741
1.403                  -0.875841       0.0852939
1.404                  -0.876204       0.0862228
1.405                  -0.876557       0.0871601
1.406                    -0.8769       0.0881061
1.407                  -0.877233       0.0890605
1.408                  -0.877555        0.090023
1.409                  -0.877866       0.0909933
1.41                   -0.878166       0.0919714
1.411                  -0.878454       0.0929568
1.412                  -0.878731       0.0939491
1.413                  -0.878995       0.0949484
1.414                  -0.879248       0.0959539
1.415                  -0.879487       0.0969655
1.416                  -0.879715       0.0979828
1.417                  -0.879929        0.099005
1.418                   -0.88013        0.100032
1.419                  -0.880318        0.101064
1.42                   -0.880493        0.102099
1.421                  -0.880655        0.103138
1.422                  -0.880803         0.10418
1.423                  -0.880938        0.105225
1.424                   -0.88106        0.106271
1.425                  -0.881168        0.107319
1.426                  -0.881264        0.108369
1.427                  -0.881346        0.109419
1.428                  -0.881415        0.110469
1.429                  -0.881472        0.111519
1.43                   -0.881515        0.112568
1.431                  -0.881547        0.113617
1.432                  -0.881566        0.114664
1.433                  -0.881574        0.115709
1.434                   -0.88157        0.116753
1.435                  -0.881554        0.117794
1.436                  -0.881528        0.118832
1.437                  -0.881491        0.119868
1.438                  -0.881443          0.1209
1.439                  -0.881386        0.121929
1.44                   -0.881318        0.122955
1.441                  -0.881242        0.123977
1.442                  -0.881156        0.124996
1.443                  -0.881062         0.12601
1.444                   -0.88096        0.127021
1.445                  -0.880849        0.128028
1.446                  -0.880731        0.129031
1.447                  -0.880605         0.13003
1.448                  -0.880473        0.131025
1.449                  -0.880333        0.132017
1.45                   -0.880187        0.133005
1.451                  -0.880034        0.133989
1.452                  -0.879876         0.13497
1.453                  -0.879711        0.135947
1.454                  -0.879541        0.136922
1.455                  -0.879365        0.137893
1.456                  -0.879183        0.138861
1.457                  -0.878996        0.139827
1.458                  -0.878803         0.14079
1.459                  -0.878606        0.141751
1.46                   -0.878403        0.142709
1.461                  -0.878194        0.143665
1.462                   -0.87798         0.14462
1.463                  -0.877761        0.145572
1.464                  -0.877537        0.146522
1.465                  -0.877307        0.147471
1.466                  -0.877071        0.148418
1.467                   -0.87683        0.149364
1.468                  -0.876583        0.150308
1.469                   -0.87633         0.15125
1.47                   -0.876071        0.152191
1.471                  -0.875806        0.153131
1.472                  -0.875535        0.154069
1.473                  -0.875257        0.155005
1.474                  -0.874973         0.15594
1.475                  -0.874682        0.156873
1.476                  -0.874384        0.157804
1.477                  -0.874079        0.158733
1.478                  -0.873768         0.15966
1.479                  -0.873449        0.160584
1.48                   -0.873124        0.161506
1.481                  -0.872791        0.162426
1.482                  -0.872451        0.163343
1.483                  -0.872103        0.164256
1.484                  -0.871749        0.165167
1.485                  -0.871387        0.166074
1.486                  -0.871018        0.166977
1.487                  -0.870642        0.167876
1.488                  -0.870259        0.168772
1.489                  -0.869869        0.169663
1.49                   -0.869473         0.17055
1.491                  -0.869069        0.171431
1.492                  -0.868659        0.172309
1.493                  -0.868243        0.173181
1.494                   -0.86782        0.174048
1.495                  -0.867391         0.17491
1.496                  -0.866956        0.175767
1.497                  -0.866516        0.176618
1.498                   -0.86607        0.177464
1.499                  -0.865619        0.178304
1.5                    -0.865163        0.179138
1.501                  -0.864701        0.179967
1.502                  -0.864236        0.180791
1.503                  -0.863765        0.181608
1.504                  -0.863291        0.182421
1.505                  -0.862812        0.183227
1.506                  -0.862329        0.184029
1.507                  -0.861843        0.184825
1.508                  -0.861353        0.185616
1.509                  -0.860859        0.186401
1.51                   -0.860362        0.187182
1.511                  -0.859861        0.187958
1.512                  -0.859358         0.18873
1.513                  -0.858851        0.189497
1.514                  -0.858341        0.190259
1.515                  -0.857827        0.191018
1.516                   -0.85731        0.191772
1.517                   -0.85679        0.192523
1.518                  -0.856267         0.19327
1.519                  -0.855739        0.194013
1.52                   -0.855209        0.194753
1.521                  -0.854674         0.19549
1.522                  -0.854136        0.196223
1.523                  -0.853593        0.196953
1.524                  -0.853047         0.19768
1.525                  -0.852495        0.198404
1.526                  -0.851939        0.199125
1.527                  -0.851378        0.199843
1.528                  -0.850812        0.200558
1.529                   -0.85024        0.201269
1.53                   -0.849662        0.201977
1.531                  -0.849079        0.202682
1.532                  -0.848489        0.203384
1.533                  -0.847893        0.204082
1.534                   -0.84729        0.204775
1.535                   -0.84668        0.205465
1.536                  -0.846062         0.20615
1.537                  -0.845438         0.20683
1.538                  -0.844806        0.207506
1.539                  -0.844166        0.208176
1.54                   -0.843519         0.20884
1.541                  -0.842863        0.209498
1.542                    -0.8422         0.21015
1.543                  -0.841528        0.210795
1.544                  -0.840848        0.211432
1.545                   -0.84016        0.212061
1.546                  -0.839463        0.212683
1.547                  -0.838759        0.213295
1.548                  -0.838047        0.213899
1.549                  -0.837327        0.214493
1.55                   -0.836599        0.215076
1.551                  -0.835863         0.21565
1.552                   -0.83512        0.216212
1.553                   -0.83437        0.216763
1.554                  -0.833614        0.217302
1.555                   -0.83285        0.217829
1.556                  -0.832081        0.218343
1.557                  -0.831306        0.218844
1.558                  -0.830525        0.219332
1.559                  -0.829739        0.219806
1.56                   -0.828949        0.220267
1.561                  -0.828155        0.220713
1.562                  -0.827357        0.221145
1.563                  -0.826555        0.221562
1.564                  -0.825751        0.221964
1.565                  -0.824944        0.222351
1.566                  -0.824136        0.222723
1.567                  -0.823326        0.223079
1.568                  -0.822515        0.223421
1.569                  -0.821704        0.223746
1.57                   -0.820893        0.224057
1.571                  -0.820083        0.224351
1.572                  -0.819274        0.224631
1.573                  -0.818466        0.224894
1.574                   -0.81766        0.225143
1.575                  -0.816857        0.225376
1.576                  -0.816056        0.225594
1.577                  -0.815259        0.225797
1.578                  -0.814465        0.225985
1.579                  -0.813675        0.226157
1.58                    -0.81289        0.226315
1.581                  -0.812109        0.226459
1.582                  -0.811333        0.226588
1.583                  -0.810563        0.226703
1.584                  -0.809799        0.226804
1.585                   -0.80904        0.226891
1.586                  -0.808288        0.226964
1.587                  -0.807542        0.227023
1.588                  -0.806803        0.227069
1.589                  -0.806071        0.227101
1.59                   -0.805346        0.227121
1.591                  -0.804628        0.227127
1.592                  -0.803919         0.22712
1.593                  -0.803217          0.2271
1.594                  -0.802524        0.227068
1.595                  -0.801838        0.227023
1.596                  -0.801162        0.226965
1.597                  -0.800495        0.226895
1.598                  -0.799837        0.226812
1.599                  -0.799188        0.226717
1.6                    -0.798549         0.22661
1.601                   -0.79792        0.226491
1.602                  -0.797302        0.226359
1.603                  -0.796694        0.226216
1.604                  -0.796097         0.22606
1.605                  -0.795511        0.225893
1.606                  -0.794937        0.225714
1.607                  -0.794375        0.225523
1.608                  -0.793826        0.225321
1.609                   -0.79329        0.225108
1.61                   -0.792767        0.224883
1.611                  -0.792257        0.224648
1.612                  -0.791762        0.224401
1.613                  -0.791282        0.224145
1.614                  -0.790817        0.223877
1.615                  -0.790367          0.2236
1.616                  -0.789933        0.223313
1.617                  -0.789516        0.223017
1.618                  -0.789116        0.222712
1.619                  -0.788734        0.222398
1.62                   -0.788369        0.222076
1.621                  -0.788023        0.221747
1.622                  -0.787696        0.221411
1.623                  -0.787388        0.221068
1.624                    -0.7871        0.220719
1.625                  -0.786832        0.220365
1.626                  -0.786585        0.220006
1.627                  -0.786358        0.219643
1.628                  -0.786152        0.219278
1.629                  -0.785968        0.218909
1.63                   -0.785805        0.218539
1.631                  -0.785664        0.218169
1.632                  -0.785545        0.217798
1.633                  -0.785448        0.217428
1.634                  -0.785373        0.217059
1.635                   -0.78532        0.216693
1.636                   -0.78529        0.216331
1.637                  -0.785281        0.215972
1.638                  -0.785294        0.215619
1.639                  -0.785328        0.215272
1.64                   -0.785384        0.214931
1.641                  -0.785461        0.214599
1.642                  -0.785559        0.214275
1.643                  -0.785677         0.21396
1.644                  -0.785816        0.213655
1.645                  -0.785973        0.213361
1.646                   -0.78615        0.213079
1.647                  -0.786344        0.212809
1.648                  -0.786557        0.212552
1.649                  -0.786787        0.212309
1.65                   -0.787033         0.21208
1.651                  -0.787294        0.211865
1.652                  -0.787571        0.211666
1.653                  -0.787862        0.211483
1.654                  -0.788167        0.211315
1.655                  -0.788484        0.211164
1.656                  -0.788814        0.211029
1.657                  -0.789154        0.210912
1.658                  -0.789505        0.210811
1.659                  -0.789866        0.210728
1.66                   -0.790235        0.210662
1.661                  -0.790612        0.210613
1.662                  -0.790997        0.210582
1.663                  -0.791388        0.210569
1.664                  -0.791785        0.210572
1.665                  -0.792188        0.210593
1.666                  -0.792595         0.21063
1.667                  -0.793005        0.210685
1.668                  -0.793419        0.210756
1.669                  -0.793835        0.210843
1.67                   -0.794254        0.210946
1.671                  -0.794674        0.211065
1.672                  -0.795096          0.2112
1.673                  -0.795518        0.211349
1.674                  -0.795941        0.211514
1.675                  -0.796364        0.211692
1.676                  -0.796786        0.211885
1.677                  -0.797208        0.212092
1.678                  -0.797629        0.212312
1.679                  -0.798049        0.212544
1.68                   -0.798468         0.21279
1.681                  -0.798885        0.213048
1.682                  -0.799302        0.213319
1.683                  -0.799716        0.213601
1.684                  -0.800129        0.213895
1.685                   -0.80054          0.2142
1.686                   -0.80095        0.214516
1.687                  -0.801357        0.214843
1.688                  -0.801763        0.215181
1.689                  -0.802168         0.21553
1.69                    -0.80257         0.21589
1.691                  -0.802971        0.216259
1.692                   -0.80337         0.21664
1.693                  -0.803767         0.21703
1.694                  -0.804162        0.217432
1.695                  -0.804556        0.217843
1.696                  -0.804947        0.218265
1.697                  -0.805337        0.218698
1.698                  -0.805724        0.219141
1.699                   -0.80611        0.219594
1.7                    -0.806493        0.220058
1.701                  -0.806874        0.220533
1.702                  -0.807252        0.221019
1.703                  -0.807627        0.221516
1.704                     -0.808        0.222024
1.705                  -0.808369        0.222542
1.706                  -0.808735        0.223073
1.707                  -0.809097        0.223614
1.708                  -0.809455        0.224166
1.709                  -0.809808         0.22473
1.71                   -0.810157        0.225305
1.711                  -0.810501        0.225891
1.712                   -0.81084        0.226488
1.713                  -0.811172        0.227097
1.714                  -0.811499        0.227717
1.715                  -0.811819        0.228348
1.716                  -0.812131        0.228989
1.717                  -0.812437        0.229642
1.718                  -0.812735        0.230304
1.719                  -0.813024        0.230977
1.72                   -0.813305         0.23166
1.721                  -0.813577        0.232352
1.722                   -0.81384        0.233054
1.723                  -0.814094        0.233765
1.724                  -0.814337        0.234484
1.725                   -0.81457        0.235211
1.726                  -0.814793        0.235946
1.727                  -0.815005        0.236689
1.728                  -0.815206        0.237438
1.729                  -0.815396        0.238194
1.73                   -0.815575        0.238955
1.731                  -0.815743        0.239722
1.732                  -0.815899        0.240494
1.733                  -0.816044        0.241271
1.734                  -0.816178        0.242051
1.735                    -0.8163        0.242834
1.736                  -0.816411        0.243621
1.737                  -0.816511         0.24441
1.738                    -0.8166        0.245201
1.739                  -0.816678        0.245993
1.74                   -0.816746        0.246787
1.741                  -0.816803        0.247582
1.742                   -0.81685        0.248377
1.743                  -0.816887        0.249172
1.744                  -0.816915        0.249967
1.745                  -0.816933        0.250761
1.746                  -0.816943        0.251555
1.747                  -0.816944        0.252348
1.748                  -0.816936         0.25314
1.749                  -0.816921         0.25393
1.75                   -0.816899         0.25472
1.751                  -0.816869        0.255508
1.752                  -0.816833        0.256295
1.753                   -0.81679         0.25708
1.754                   -0.81674        0.257864
1.755                  -0.816685        0.258647
1.756                  -0.816624        0.259429
1.757                  -0.816558         0.26021
1.758                  -0.816487         0.26099
1.759                   -0.81641         0.26177
1.76                   -0.816329         0.26255
1.761                  -0.816243        0.263329
1.762                  -0.816152        0.264108
1.763                  -0.816057        0.264887
1.764                  -0.815957        0.265667
1.765                  -0.815852        0.266448
1.766                  -0.815743        0.267229
1.767                  -0.815629        0.268012
1.768                  -0.815511        0.268797
1.769                  -0.815387        0.269582
1.77                   -0.815258         0.27037
1.771                  -0.815124        0.271159
1.772                  -0.814983        0.271951
1.773                  -0.814838        0.272745
1.774                  -0.814685         0.27354
1.775                  -0.814527        0.274339
1.776                  -0.814361        0.275139
1.777                  -0.814189        0.275942
1.778                  -0.814009        0.276746
1.779                  -0.813821        0.277553
1.78                   -0.813625        0.278362
1.781                   -0.81342        0.279173
1.782                  -0.813207        0.279984
1.783                  -0.812985        0.280798
1.784                  -0.812753        0.281612
1.785                  -0.812512        0.282427
1.786                   -0.81226        0.283242
1.787                  -0.811999        0.284058
1.788                  -0.811727        0.284872
1.789                  -0.811445        0.285686
1.79                   -0.811152        0.286498
1.791                  -0.810849        0.287309
1.792                  -0.810534        0.288117
1.793                  -0.810209        0.288923
1.794                  -0.809873        0.289725
1.795                  -0.809527        0.290523
1.796                   -0.80917        0.291317
1.797                  -0.808803        0.292107
1.798                  -0.808425        0.292891
1.799                  -0.808038        0.293669
1.8                     -0.80764        0.294441
1.801                  -0.807234        0.295207
1.802                  -0.806818        0.295965
1.803                  -0.806394        0.296716
1.804                  -0.805961         0.29746
1.805                  -0.805521        0.298195
1.806                  -0.805073        0.298923
1.807                  -0.804618        0.299641
1.808                  -0.804157        0.300352
1.809                  -0.803689        0.301053
1.81                   -0.803217        0.301745
1.811                  -0.802739        0.302429
1.812                  -0.802257        0.303103
1.813                  -0.801771        0.303768
1.814                  -0.801281        0.304425
1.815                  -0.800789        0.305073
1.816                  -0.800293        0.305712
1.817                  -0.799796        0.306342
1.818                  -0.799296        0.306965
1.819                  -0.798796         0.30758
1.82                   -0.798294        0.308186
1.821                  -0.797791        0.308786
1.822                  -0.797288        0.309378
1.823                  -0.796784        0.309964
1.824                  -0.796281        0.310543
1.825                  -0.795777        0.311116
1.826                  -0.795273        0.311684
1.827                  -0.794769        0.312247
1.828                  -0.794266        0.312804
1.829                  -0.793762        0.313356
1.83                   -0.793259        0.313905
1.831                  -0.792755         0.31445
1.832                  -0.792251        0.314991
1.833                  -0.791747        0.315528
1.834                  -0.791242        0.316063
1.835                  -0.790736        0.316594
1.836                  -0.790229        0.317123
1.837                   -0.78972        0.317649
1.838                   -0.78921        0.318173
1.839                  -0.788697        0.318693
1.84                   -0.788183        0.319212
1.841                  -0.787665        0.319728
1.842                  -0.787144        0.320242
1.843                   -0.78662        0.320752
1.844                  -0.786092         0.32126
1.845                   -0.78556        0.321765
1.846                  -0.785024        0.322266
1.847                  -0.784484        0.322764
1.848                  -0.783938        0.323258
1.849                  -0.783388        0.323748
1.85                   -0.782832        0.324232
1.851                  -0.782272        0.324712
1.852                  -0.781706        0.325186
1.853                  -0.781134        0.325654
1.854                  -0.780558        0.326116
1.855                  -0.779976        0.326571
1.856                  -0.779388        0.327018
1.857                  -0.778796        0.327457
1.858                  -0.778199        0.327888
1.859                  -0.777598         0.32831
1.86                   -0.776992        0.328723
1.861                  -0.776382        0.329126
1.862                  -0.775769        0.329519
1.863                  -0.775153        0.329901
1.864                  -0.774534        0.330272
1.865                  -0.773913        0.330633
1.866                  -0.773291        0.330981
1.867                  -0.772667        0.331318
1.868                  -0.772044        0.331644
1.869                   -0.77142        0.331957
1.87                   -0.770797        0.332258
1.871                  -0.770176        0.332548
1.872                  -0.769557        0.332825
1.873                   -0.76894         0.33309
1.874                  -0.768327        0.333344
1.875                  -0.767718        0.333586
1.876                  -0.767114        0.333817
1.877                  -0.766515        0.334036
1.878                  -0.765922        0.334245
1.879                  -0.765335        0.334443
1.88                   -0.764755        0.334632
1.881                  -0.764182        0.334811
1.882                  -0.763616        0.334982
1.883                  -0.763059        0.335144
1.884                   -0.76251        0.335298
1.885                   -0.76197        0.335445
1.886                  -0.761438        0.335586
1.887                  -0.760916         0.33572
1.888                  -0.760402        0.335849
1.889                  -0.759898        0.335974
1.89                   -0.759403        0.336094
1.891                  -0.758916        0.336211
1.892                  -0.758439        0.336324
1.893                   -0.75797        0.336436
1.894                   -0.75751        0.336545
1.895                  -0.757058        0.336653
1.896                  -0.756614        0.336761
1.897                  -0.756178        0.336867
1.898                  -0.755749        0.336974
1.899                  -0.755327        0.337081
1.9                    -0.754911        0.337188
1.901                  -0.754501        0.337297
1.902                  -0.754097        0.337406
1.903                  -0.753698        0.337516
1.904                  -0.753303        0.337628
1.905                  -0.752913        0.337741
1.906                  -0.752526        0.337855
1.907                  -0.752142         0.33797
1.908                  -0.751761        0.338086
1.909                  -0.751383        0.338203
1.91                   -0.751006        0.338321
1.911                  -0.750632        0.338438
1.912                  -0.750258        0.338556
1.913                  -0.749886        0.338674
1.914                  -0.749515        0.338791
1.915                  -0.749144        0.338907
1.916                  -0.748774        0.339021
1.917                  -0.748405        0.339134
1.918                  -0.748036        0.339244
1.919                  -0.747668        0.339352
1.92                   -0.747301        0.339456
1.921                  -0.746935        0.339557
1.922                   -0.74657        0.339654
1.923                  -0.746206        0.339747
1.924                  -0.745844        0.339835
1.925                  -0.745484        0.339918
1.926                  -0.745127        0.339996
1.927                  -0.744773        0.340069
1.928                  -0.744422        0.340136
1.929                  -0.744075        0.340197
1.93                   -0.743732        0.340253
1.931                  -0.743395        0.340302
1.932                  -0.743063        0.340346
1.933                  -0.742737        0.340384
1.934                  -0.742418        0.340417
1.935                  -0.742106        0.340444
1.936                  -0.741802        0.340467
1.937                  -0.741507        0.340485
1.938                   -0.74122        0.340498
1.939                  -0.740942        0.340508
1.94                   -0.740674        0.340514
1.941                  -0.740417        0.340517
1.942                   -0.74017        0.340518
1.943                  -0.739934        0.340518
1.944                  -0.739708        0.340517
1.945                  -0.739495        0.340516
1.946                  -0.739292        0.340515
1.947                  -0.739101        0.340516
1.948                  -0.738921        0.340519
1.949                  -0.738752        0.340524
1.95                   -0.738595        0.340533
1.951                  -0.738448        0.340547
1.952                  -0.738312        0.340565
1.953                  -0.738186        0.340589
1.954                   -0.73807        0.340619
1.955                  -0.737964        0.340657
1.956                  -0.737866        0.340702
1.957                  -0.737777        0.340756
1.958                  -0.737695        0.340818
1.959                   -0.73762        0.340889
1.96                   -0.737551        0.340969
1.961                  -0.737487         0.34106
1.962                  -0.737429         0.34116
1.963                  -0.737374        0.341271
1.964                  -0.737322        0.341391
1.965                  -0.737272        0.341522
1.966                  -0.737224        0.341664
1.967                  -0.737177        0.341815
1.968                  -0.737129        0.341977
1.969                   -0.73708        0.342147
1.97                    -0.73703        0.342328
1.971                  -0.736977        0.342517
1.972                  -0.736922        0.342714
1.973                  -0.736863        0.342919
1.974                    -0.7368        0.343132
1.975                  -0.736732        0.343351
1.976                  -0.736659        0.343576
1.977                  -0.736581        0.343807
1.978                  -0.736498        0.344042
1.979                  -0.736409        0.344281
1.98                   -0.736314        0.344523
1.981                  -0.736213        0.344767
1.982                  -0.736106        0.345013
1.983                  -0.735993         0.34526
1.984                  -0.735875        0.345507
1.985                  -0.735752        0.345753
1.986                  -0.735624        0.345998
1.987                  -0.735491        0.346242
1.988                  -0.735354        0.346483
1.989                  -0.735214        0.346721
1.99                    -0.73507        0.346956
1.991                  -0.734924        0.347187
1.992                  -0.734777        0.347414
1.993                  -0.734628        0.347636
1.994                  -0.734479        0.347855
1.995                  -0.734331        0.348068
1.996                  -0.734183        0.348278
1.997                  -0.734038        0.348483
1.998                  -0.733894        0.348683
1.999                  -0.733755        0.348879
2                      -0.733618        0.349072
