! TOUCHSTONE file generated by CST MICROWAVE STUDIO
! Date and time: Tue Aug  4 15:55:31 2026
! Project name: Sonda-Coaxial_21mm_DisifixB_v2_Agua_Dest.cst
! Parameters = {h_recipiente=20; l_conector=5; r_arandela=35; r_ext=10.5; r_int=3; r_recipiente=50; z_recipiente=-60}
! Header version: 2018
! Port assignment regex: !\s*Touchstone port\s*([0-9]+)\s*=\s*(CST MWS port|CST DS port)\s*([0-9]+|Zmin|Zmax)\s*\(\"(.*)\"\)(\s*mode\s*([0-9]+))?.*
! Touchstone port assignment:
! Touchstone port 1 = CST MWS port 1 ("")
# GHz S RI R 50
0.001                   0.999949      -0.0072978
0.002                   0.999856      -0.0145938
0.003                   0.999701      -0.0218864
0.004                   0.999486      -0.0291737
0.005                   0.999209      -0.0364542
0.006                   0.998873      -0.0437262
0.007                   0.998477      -0.0509883
0.008                   0.998023      -0.0582391
0.009                   0.997511      -0.0654773
0.01                    0.996944      -0.0727017
0.011                   0.996321      -0.0799114
0.012                   0.995645      -0.0871054
0.013                   0.994916      -0.0942832
0.014                   0.994137       -0.101444
0.015                   0.993307       -0.108588
0.016                   0.992429       -0.115714
0.017                   0.991504       -0.122822
0.018                   0.990533       -0.129913
0.019                   0.989517       -0.136987
0.02                    0.988458       -0.144043
0.021                   0.987356       -0.151084
0.022                   0.986212       -0.158108
0.023                   0.985027       -0.165117
0.024                   0.983802       -0.172112
0.025                   0.982536       -0.179093
0.026                   0.981231       -0.186061
0.027                   0.979886       -0.193018
0.028                   0.978501       -0.199963
0.029                   0.977077       -0.206898
0.03                    0.975612       -0.213824
0.031                   0.974106       -0.220741
0.032                   0.972558        -0.22765
0.033                   0.970969       -0.234552
0.034                   0.969336       -0.241447
0.035                   0.967658       -0.248334
0.036                   0.965935       -0.255215
0.037                   0.964165       -0.262089
0.038                   0.962347       -0.268956
0.039                    0.96048       -0.275815
0.04                    0.958562       -0.282666
0.041                   0.956593       -0.289507
0.042                    0.95457       -0.296339
0.043                   0.952494       -0.303159
0.044                   0.950362       -0.309967
0.045                   0.948175        -0.31676
0.046                   0.945931       -0.323537
0.047                    0.94363       -0.330296
0.048                   0.941272       -0.337035
0.049                   0.938856       -0.343753
0.05                    0.936383       -0.350447
0.051                   0.933852       -0.357115
0.052                   0.931265       -0.363755
0.053                   0.928622       -0.370365
0.054                   0.925925       -0.376943
0.055                   0.923173       -0.383488
0.056                   0.920369       -0.389997
0.057                   0.917515       -0.396469
0.058                   0.914611       -0.402902
0.059                    0.91166       -0.409296
0.06                    0.908664       -0.415649
0.061                   0.905624       -0.421961
0.062                   0.902544        -0.42823
0.063                   0.899424       -0.434457
0.064                   0.896268       -0.440642
0.065                   0.893077       -0.446784
0.066                   0.889853       -0.452884
0.067                   0.886598       -0.458943
0.068                   0.883315       -0.464962
0.069                   0.880003       -0.470941
0.07                    0.876666       -0.476882
0.071                   0.873304       -0.482786
0.072                   0.869918       -0.488654
0.073                   0.866509       -0.494489
0.074                   0.863077       -0.500291
0.075                   0.859623       -0.506062
0.076                   0.856147       -0.511803
0.077                   0.852648       -0.517517
0.078                   0.849126       -0.523204
0.079                    0.84558       -0.528866
0.08                     0.84201       -0.534504
0.081                   0.838414       -0.540118
0.082                   0.834792       -0.545709
0.083                   0.831141       -0.551278
0.084                   0.827461       -0.556826
0.085                    0.82375       -0.562351
0.086                   0.820007       -0.567854
0.087                    0.81623       -0.573334
0.088                   0.812417       -0.578791
0.089                   0.808569       -0.584222
0.09                    0.804683       -0.589628
0.091                   0.800758       -0.595007
0.092                   0.796794       -0.600356
0.093                   0.792791       -0.605675
0.094                   0.788748       -0.610962
0.095                   0.784665       -0.616213
0.096                   0.780542       -0.621428
0.097                   0.776379       -0.626604
0.098                   0.772178        -0.63174
0.099                    0.76794       -0.636833
0.1                     0.763665       -0.641881
0.101                   0.759356       -0.646884
0.102                   0.755014       -0.651839
0.103                    0.75064       -0.656745
0.104                   0.746238       -0.661601
0.105                   0.741809       -0.666406
0.106                   0.737356       -0.671161
0.107                    0.73288       -0.675863
0.108                   0.728385       -0.680515
0.109                   0.723872       -0.685115
0.11                    0.719344       -0.689664
0.111                   0.714802       -0.694164
0.112                    0.71025       -0.698615
0.113                   0.705688       -0.703019
0.114                   0.701118       -0.707376
0.115                   0.696542        -0.71169
0.116                    0.69196       -0.715961
0.117                   0.687374       -0.720191
0.118                   0.682784       -0.724383
0.119                    0.67819       -0.728539
0.12                    0.673593       -0.732659
0.121                   0.668991       -0.736747
0.122                   0.664385       -0.740803
0.123                   0.659773       -0.744829
0.124                   0.655155       -0.748827
0.125                    0.65053       -0.752798
0.126                   0.645895       -0.756742
0.127                   0.641249       -0.760661
0.128                   0.636592       -0.764554
0.129                   0.631921       -0.768423
0.13                    0.627236       -0.772265
0.131                   0.622533       -0.776082
0.132                   0.617812       -0.779873
0.133                   0.613072       -0.783635
0.134                   0.608311       -0.787369
0.135                   0.603529       -0.791072
0.136                   0.598725       -0.794744
0.137                   0.593898       -0.798382
0.138                   0.589047       -0.801985
0.139                   0.584174        -0.80555
0.14                    0.579279       -0.809076
0.141                   0.574363       -0.812561
0.142                   0.569425       -0.816002
0.143                   0.564468         -0.8194
0.144                   0.559493       -0.822751
0.145                   0.554502       -0.826054
0.146                   0.549496       -0.829309
0.147                   0.544478       -0.832514
0.148                    0.53945       -0.835669
0.149                   0.534414       -0.838773
0.15                    0.529372       -0.841827
0.151                   0.524328        -0.84483
0.152                   0.519282       -0.847784
0.153                   0.514238       -0.850688
0.154                   0.509197       -0.853545
0.155                   0.504161       -0.856355
0.156                   0.499133        -0.85912
0.157                   0.494112       -0.861843
0.158                   0.489101       -0.864524
0.159                     0.4841       -0.867166
0.16                    0.479111       -0.869771
0.161                   0.474133       -0.872341
0.162                   0.469167       -0.874878
0.163                   0.464212       -0.877385
0.164                   0.459267       -0.879864
0.165                   0.454332       -0.882315
0.166                   0.449406       -0.884742
0.167                   0.444487       -0.887144
0.168                   0.439574       -0.889525
0.169                   0.434665       -0.891884
0.17                    0.429759       -0.894222
0.171                   0.424853       -0.896539
0.172                   0.419947       -0.898836
0.173                   0.415038       -0.901113
0.174                   0.410124       -0.903368
0.175                   0.405204       -0.905601
0.176                   0.400277        -0.90781
0.177                   0.395341       -0.909995
0.178                   0.390395       -0.912155
0.179                    0.38544       -0.914286
0.18                    0.380473       -0.916388
0.181                   0.375496       -0.918458
0.182                   0.370508       -0.920496
0.183                    0.36551       -0.922498
0.184                   0.360503       -0.924463
0.185                   0.355488       -0.926389
0.186                   0.350466       -0.928276
0.187                   0.345438        -0.93012
0.188                   0.340407       -0.931922
0.189                   0.335374        -0.93368
0.19                    0.330342       -0.935394
0.191                   0.325313       -0.937063
0.192                   0.320289       -0.938687
0.193                   0.315272       -0.940267
0.194                   0.310265       -0.941804
0.195                    0.30527       -0.943298
0.196                   0.300288        -0.94475
0.197                   0.295322       -0.946161
0.198                   0.290374       -0.947535
0.199                   0.285444       -0.948872
0.2                     0.280534       -0.950174
0.201                   0.275645       -0.951445
0.202                   0.270777       -0.952685
0.203                    0.26593       -0.953897
0.204                   0.261104       -0.955085
0.205                   0.256299       -0.956249
0.206                   0.251514       -0.957392
0.207                   0.246748       -0.958516
0.208                      0.242       -0.959622
0.209                   0.237268       -0.960713
0.21                     0.23255        -0.96179
0.211                   0.227845       -0.962853
0.212                    0.22315       -0.963903
0.213                   0.218464        -0.96494
0.214                   0.213785       -0.965965
0.215                    0.20911       -0.966977
0.216                   0.204438       -0.967976
0.217                   0.199767       -0.968961
0.218                   0.195096        -0.96993
0.219                   0.190423       -0.970882
0.22                    0.185746       -0.971816
0.221                   0.181066        -0.97273
0.222                   0.176381       -0.973622
0.223                   0.171692       -0.974489
0.224                   0.166999       -0.975331
0.225                   0.162302       -0.976144
0.226                   0.157601       -0.976927
0.227                   0.152898       -0.977679
0.228                   0.148195       -0.978398
0.229                   0.143492       -0.979081
0.23                    0.138792       -0.979729
0.231                   0.134097        -0.98034
0.232                   0.129409       -0.980914
0.233                    0.12473        -0.98145
0.234                   0.120062       -0.981948
0.235                   0.115408       -0.982409
0.236                    0.11077       -0.982834
0.237                    0.10615       -0.983223
0.238                    0.10155       -0.983579
0.239                  0.0969718       -0.983902
0.24                   0.0924171       -0.984194
0.241                  0.0878868       -0.984458
0.242                  0.0833822       -0.984696
0.243                  0.0789035        -0.98491
0.244                  0.0744516       -0.985102
0.245                  0.0700261       -0.985275
0.246                  0.0656267       -0.985432
0.247                  0.0612528       -0.985574
0.248                  0.0569029       -0.985704
0.249                  0.0525763       -0.985823
0.25                   0.0482711       -0.985934
0.251                  0.0439859       -0.986039
0.252                  0.0397181       -0.986137
0.253                  0.0354659        -0.98623
0.254                  0.0312271       -0.986319
0.255                  0.0269993       -0.986404
0.256                  0.0227805       -0.986484
0.257                  0.0185683       -0.986559
0.258                  0.0143609       -0.986629
0.259                  0.0101562       -0.986692
0.26                  0.00595265       -0.986747
0.261                 0.00174869       -0.986792
0.262                -0.00245663       -0.986825
0.263                -0.00666399       -0.986844
0.264                 -0.0108743       -0.986848
0.265                 -0.0150877       -0.986833
0.266                 -0.0193032       -0.986798
0.267                 -0.0235212       -0.986741
0.268                 -0.0277403        -0.98666
0.269                 -0.0319591       -0.986552
0.27                  -0.0361764       -0.986417
0.271                 -0.0403904       -0.986252
0.272                 -0.0445988       -0.986056
0.273                 -0.0487998        -0.98583
0.274                 -0.0529908       -0.985571
0.275                 -0.0571697       -0.985281
0.276                 -0.0613339       -0.984959
0.277                 -0.0654809       -0.984606
0.278                 -0.0696087       -0.984223
0.279                 -0.0737152       -0.983811
0.28                  -0.0777985       -0.983371
0.281                 -0.0818563       -0.982906
0.282                 -0.0858882       -0.982418
0.283                 -0.0898923       -0.981909
0.284                 -0.0938682       -0.981381
0.285                 -0.0978151       -0.980837
0.286                  -0.101734        -0.98028
0.287                  -0.105624       -0.979711
0.288                  -0.109486       -0.979134
0.289                  -0.113322       -0.978551
0.29                   -0.117133       -0.977965
0.291                   -0.12092       -0.977376
0.292                  -0.124686       -0.976786
0.293                  -0.128432       -0.976198
0.294                  -0.132161       -0.975612
0.295                  -0.135876       -0.975028
0.296                  -0.139579       -0.974447
0.297                  -0.143272       -0.973869
0.298                  -0.146958       -0.973293
0.299                   -0.15064       -0.972719
0.3                    -0.154319       -0.972144
0.301                  -0.157997       -0.971568
0.302                  -0.161677       -0.970989
0.303                  -0.165359       -0.970405
0.304                  -0.169044       -0.969813
0.305                  -0.172733       -0.969211
0.306                  -0.176427       -0.968597
0.307                  -0.180125       -0.967968
0.308                  -0.183827       -0.967321
0.309                  -0.187532       -0.966655
0.31                   -0.191238       -0.965967
0.311                  -0.194944       -0.965256
0.312                  -0.198649       -0.964519
0.313                   -0.20235       -0.963755
0.314                  -0.206044       -0.962964
0.315                  -0.209729       -0.962144
0.316                  -0.213403       -0.961295
0.317                  -0.217063       -0.960418
0.318                  -0.220707       -0.959512
0.319                  -0.224331        -0.95858
0.32                   -0.227934       -0.957622
0.321                  -0.231513        -0.95664
0.322                  -0.235067       -0.955635
0.323                  -0.238594       -0.954611
0.324                  -0.242094        -0.95357
0.325                  -0.245564       -0.952514
0.326                  -0.249005       -0.951446
0.327                  -0.252417       -0.950369
0.328                  -0.255801       -0.949285
0.329                  -0.259156       -0.948198
0.33                   -0.262485        -0.94711
0.331                   -0.26579       -0.946023
0.332                  -0.269071       -0.944939
0.333                  -0.272332       -0.943859
0.334                  -0.275575       -0.942786
0.335                  -0.278803       -0.941721
0.336                  -0.282019       -0.940662
0.337                  -0.285224       -0.939612
0.338                  -0.288424       -0.938569
0.339                  -0.291619       -0.937533
0.34                   -0.294814       -0.936502
0.341                  -0.298009       -0.935475
0.342                  -0.301208       -0.934449
0.343                  -0.304413       -0.933423
0.344                  -0.307624       -0.932394
0.345                  -0.310843       -0.931358
0.346                  -0.314071       -0.930314
0.347                  -0.317307       -0.929258
0.348                  -0.320551       -0.928187
0.349                  -0.323803       -0.927098
0.35                   -0.327062       -0.925989
0.351                  -0.330325       -0.924856
0.352                   -0.33359       -0.923699
0.353                  -0.336856       -0.922514
0.354                   -0.34012         -0.9213
0.355                  -0.343379       -0.920056
0.356                  -0.346629       -0.918782
0.357                  -0.349868       -0.917477
0.358                  -0.353094       -0.916141
0.359                  -0.356302       -0.914776
0.36                   -0.359491       -0.913382
0.361                  -0.362657       -0.911962
0.362                    -0.3658       -0.910517
0.363                  -0.368916        -0.90905
0.364                  -0.372004       -0.907563
0.365                  -0.375065        -0.90606
0.366                  -0.378096       -0.904542
0.367                  -0.381099       -0.903014
0.368                  -0.384074       -0.901478
0.369                  -0.387022       -0.899936
0.37                   -0.389946       -0.898392
0.371                  -0.392847       -0.896847
0.372                  -0.395727       -0.895304
0.373                  -0.398591       -0.893763
0.374                   -0.40144       -0.892225
0.375                  -0.404279       -0.890691
0.376                   -0.40711       -0.889159
0.377                  -0.409938       -0.887629
0.378                  -0.412766       -0.886099
0.379                  -0.415596       -0.884567
0.38                   -0.418431       -0.883028
0.381                  -0.421274       -0.881481
0.382                  -0.424126       -0.879919
0.383                  -0.426989       -0.878339
0.384                  -0.429863       -0.876736
0.385                  -0.432746       -0.875104
0.386                  -0.435639       -0.873438
0.387                  -0.438539       -0.871733
0.388                  -0.441441       -0.869982
0.389                  -0.444343       -0.868182
0.39                    -0.44724       -0.866328
0.391                  -0.450125       -0.864415
0.392                  -0.452992        -0.86244
0.393                  -0.455834       -0.860401
0.394                  -0.458643       -0.858296
0.395                  -0.461409       -0.856124
0.396                  -0.464126       -0.853887
0.397                  -0.466782       -0.851585
0.398                   -0.46937       -0.849222
0.399                  -0.471881       -0.846802
0.4                    -0.474306        -0.84433
0.401                  -0.476637       -0.841814
0.402                  -0.478867       -0.839262
0.403                  -0.480989       -0.836682
0.404                  -0.482997       -0.834084
0.405                  -0.484888        -0.83148
0.406                  -0.486658       -0.828882
0.407                  -0.488306       -0.826302
0.408                  -0.489831       -0.823753
0.409                  -0.491234       -0.821247
0.41                   -0.492521       -0.818799
0.411                  -0.493693       -0.816421
0.412                  -0.494759       -0.814126
0.413                  -0.495727       -0.811924
0.414                  -0.496605       -0.809829
0.415                  -0.497405       -0.807849
0.416                  -0.498139       -0.805993
0.417                  -0.498821       -0.804269
0.418                  -0.499465       -0.802682
0.419                  -0.500087       -0.801237
0.42                   -0.500702       -0.799934
0.421                  -0.501326       -0.798776
0.422                  -0.501976        -0.79776
0.423                  -0.502668       -0.796883
0.424                  -0.503417       -0.796138
0.425                  -0.504239       -0.795519
0.426                  -0.505147       -0.795016
0.427                  -0.506155       -0.794618
0.428                  -0.507274       -0.794313
0.429                  -0.508514       -0.794086
0.43                   -0.509883       -0.793922
0.431                  -0.511388       -0.793807
0.432                  -0.513033       -0.793722
0.433                   -0.51482       -0.793651
0.434                  -0.516749       -0.793576
0.435                  -0.518819       -0.793481
0.436                  -0.521026       -0.793349
0.437                  -0.523362       -0.793164
0.438                  -0.525821       -0.792911
0.439                  -0.528393       -0.792576
0.44                   -0.531065       -0.792146
0.441                  -0.533827       -0.791612
0.442                  -0.536663       -0.790964
0.443                  -0.539558       -0.790195
0.444                  -0.542498         -0.7893
0.445                  -0.545466       -0.788276
0.446                  -0.548447       -0.787123
0.447                  -0.551425       -0.785842
0.448                  -0.554384       -0.784436
0.449                  -0.557312        -0.78291
0.45                   -0.560194       -0.781273
0.451                  -0.563018       -0.779532
0.452                  -0.565775       -0.777698
0.453                  -0.568455       -0.775782
0.454                  -0.571052       -0.773798
0.455                  -0.573561       -0.771757
0.456                  -0.575978       -0.769674
0.457                  -0.578304       -0.767562
0.458                   -0.58054       -0.765434
0.459                   -0.58269       -0.763304
0.46                   -0.584757       -0.761183
0.461                  -0.586752       -0.759081
0.462                   -0.58868        -0.75701
0.463                  -0.590554       -0.754976
0.464                  -0.592384       -0.752985
0.465                  -0.594183       -0.751041
0.466                  -0.595964       -0.749148
0.467                   -0.59774       -0.747303
0.468                  -0.599524       -0.745505
0.469                  -0.601329       -0.743749
0.47                   -0.603166       -0.742028
0.471                  -0.605048       -0.740333
0.472                  -0.606983       -0.738653
0.473                   -0.60898       -0.736975
0.474                  -0.611044       -0.735285
0.475                   -0.61318       -0.733567
0.476                   -0.61539       -0.731805
0.477                  -0.617671       -0.729981
0.478                   -0.62002       -0.728079
0.479                  -0.622431        -0.72608
0.48                   -0.624895       -0.723969
0.481                  -0.627401       -0.721729
0.482                  -0.629932       -0.719345
0.483                  -0.632474       -0.716805
0.484                  -0.635007       -0.714097
0.485                   -0.63751       -0.711212
0.486                  -0.639961       -0.708146
0.487                  -0.642334       -0.704893
0.488                  -0.644605       -0.701454
0.489                   -0.64675       -0.697833
0.49                    -0.64874       -0.694034
0.491                  -0.650552       -0.690069
0.492                   -0.65216       -0.685949
0.493                   -0.65354       -0.681693
0.494                   -0.65467       -0.677318
0.495                  -0.655529       -0.672849
0.496                  -0.656101        -0.66831
0.497                  -0.656369        -0.66373
0.498                  -0.656322       -0.659139
0.499                  -0.655951       -0.654569
0.5                    -0.655251       -0.650055
0.501                  -0.654221        -0.64563
0.502                  -0.652863        -0.64133
0.503                  -0.651185        -0.63719
0.504                  -0.649198       -0.633246
0.505                  -0.646917        -0.62953
0.506                   -0.64436       -0.626076
0.507                  -0.641552       -0.622915
0.508                  -0.638517       -0.620074
0.509                  -0.635286       -0.617579
0.51                   -0.631893       -0.615452
0.511                  -0.628372       -0.613712
0.512                  -0.624761       -0.612374
0.513                  -0.621099       -0.611448
0.514                  -0.617427       -0.610941
0.515                  -0.613786       -0.610854
0.516                  -0.610219       -0.611186
0.517                  -0.606764       -0.611928
0.518                  -0.603465        -0.61307
0.519                  -0.600358       -0.614594
0.52                   -0.597482       -0.616481
0.521                   -0.59487       -0.618706
0.522                  -0.592555       -0.621241
0.523                  -0.590564       -0.624055
0.524                  -0.588924       -0.627114
0.525                  -0.587653       -0.630381
0.526                   -0.58677       -0.633818
0.527                  -0.586287       -0.637385
0.528                  -0.586211       -0.641041
0.529                  -0.586545       -0.644745
0.53                   -0.587288       -0.648457
0.531                  -0.588436       -0.652135
0.532                  -0.589977       -0.655742
0.533                  -0.591897       -0.659239
0.534                  -0.594179       -0.662591
0.535                  -0.596801       -0.665767
0.536                  -0.599739       -0.668736
0.537                  -0.602965       -0.671473
0.538                  -0.606449       -0.673955
0.539                  -0.610159       -0.676162
0.54                   -0.614065        -0.67808
0.541                   -0.61813       -0.679698
0.542                  -0.622322       -0.681008
0.543                  -0.626606       -0.682009
0.544                  -0.630949       -0.682699
0.545                  -0.635318       -0.683085
0.546                  -0.639683       -0.683173
0.547                  -0.644014       -0.682975
0.548                  -0.648284       -0.682505
0.549                  -0.652469        -0.68178
0.55                   -0.656547       -0.680819
0.551                  -0.660499       -0.679642
0.552                  -0.664309       -0.678272
0.553                  -0.667963       -0.676731
0.554                  -0.671453       -0.675045
0.555                  -0.674772       -0.673237
0.556                  -0.677917       -0.671331
0.557                  -0.680886        -0.66935
0.558                  -0.683682       -0.667317
0.559                  -0.686311       -0.665253
0.56                    -0.68878       -0.663179
0.561                  -0.691097       -0.661111
0.562                  -0.693274       -0.659067
0.563                  -0.695325        -0.65706
0.564                  -0.697262       -0.655103
0.565                  -0.699101       -0.653203
0.566                  -0.700857       -0.651368
0.567                  -0.702546       -0.649604
0.568                  -0.704182       -0.647913
0.569                  -0.705782       -0.646293
0.57                   -0.707358       -0.644745
0.571                  -0.708926       -0.643264
0.572                  -0.710495       -0.641844
0.573                  -0.712078       -0.640479
0.574                  -0.713684        -0.63916
0.575                   -0.71532       -0.637879
0.576                  -0.716992       -0.636625
0.577                  -0.718704       -0.635388
0.578                  -0.720459       -0.634158
0.579                  -0.722258       -0.632924
0.58                   -0.724098       -0.631676
0.581                  -0.725979       -0.630405
0.582                  -0.727895       -0.629101
0.583                  -0.729841       -0.627756
0.584                  -0.731812       -0.626365
0.585                    -0.7338       -0.624922
0.586                  -0.735796       -0.623421
0.587                  -0.737793       -0.621861
0.588                  -0.739782       -0.620239
0.589                  -0.741754       -0.618557
0.59                   -0.743701       -0.616814
0.591                  -0.745614       -0.615014
0.592                  -0.747486       -0.613161
0.593                   -0.74931       -0.611259
0.594                  -0.751081       -0.609315
0.595                  -0.752792       -0.607335
0.596                  -0.754441       -0.605326
0.597                  -0.756025       -0.603297
0.598                  -0.757542       -0.601256
0.599                  -0.758992        -0.59921
0.6                    -0.760377       -0.597167
0.601                  -0.761698       -0.595136
0.602                  -0.762958       -0.593124
0.603                  -0.764163       -0.591137
0.604                  -0.765317       -0.589182
0.605                  -0.766426       -0.587263
0.606                  -0.767497       -0.585384
0.607                  -0.768538       -0.583549
0.608                  -0.769555       -0.581759
0.609                  -0.770556       -0.580016
0.61                   -0.771549       -0.578318
0.611                  -0.772542       -0.576665
0.612                  -0.773541       -0.575053
0.613                  -0.774552        -0.57348
0.614                  -0.775582        -0.57194
0.615                  -0.776636       -0.570429
0.616                  -0.777718        -0.56894
0.617                  -0.778831       -0.567468
0.618                  -0.779977       -0.566005
0.619                  -0.781159       -0.564545
0.62                   -0.782375        -0.56308
0.621                  -0.783625       -0.561604
0.622                  -0.784907       -0.560109
0.623                  -0.786218       -0.558589
0.624                  -0.787554        -0.55704
0.625                  -0.788911       -0.555455
0.626                  -0.790284       -0.553831
0.627                  -0.791666       -0.552163
0.628                  -0.793051        -0.55045
0.629                  -0.794434       -0.548689
0.63                   -0.795806       -0.546881
0.631                  -0.797162       -0.545026
0.632                  -0.798496       -0.543124
0.633                    -0.7998        -0.54118
0.634                   -0.80107       -0.539194
0.635                  -0.802301       -0.537173
0.636                  -0.803487        -0.53512
0.637                  -0.804627       -0.533041
0.638                  -0.805716       -0.530942
0.639                  -0.806753       -0.528827
0.64                   -0.807737       -0.526705
0.641                  -0.808669        -0.52458
0.642                   -0.80955       -0.522459
0.643                  -0.810381       -0.520348
0.644                  -0.811166       -0.518251
0.645                  -0.811908       -0.516174
0.646                  -0.812612        -0.51412
0.647                  -0.813282       -0.512093
0.648                  -0.813924       -0.510096
0.649                  -0.814544       -0.508129
0.65                   -0.815147       -0.506194
0.651                  -0.815741       -0.504289
0.652                   -0.81633       -0.502414
0.653                   -0.81692       -0.500566
0.654                  -0.817516        -0.49874
0.655                  -0.818124       -0.496934
0.656                  -0.818745       -0.495142
0.657                  -0.819384       -0.493358
0.658                  -0.820044       -0.491576
0.659                  -0.820723       -0.489789
0.66                   -0.821424        -0.48799
0.661                  -0.822144       -0.486172
0.662                  -0.822881       -0.484329
0.663                  -0.823631       -0.482452
0.664                  -0.824391       -0.480536
0.665                  -0.825154       -0.478575
0.666                  -0.825913       -0.476563
0.667                  -0.826661       -0.474498
0.668                  -0.827389       -0.472374
0.669                  -0.828089        -0.47019
0.67                    -0.82875       -0.467946
0.671                  -0.829363       -0.465641
0.672                  -0.829918       -0.463278
0.673                  -0.830403        -0.46086
0.674                   -0.83081        -0.45839
0.675                  -0.831129       -0.455876
0.676                   -0.83135       -0.453325
0.677                  -0.831466       -0.450745
0.678                  -0.831469       -0.448146
0.679                  -0.831353        -0.44554
0.68                   -0.831113       -0.442937
0.681                  -0.830745       -0.440351
0.682                  -0.830248       -0.437795
0.683                  -0.829619       -0.435283
0.684                  -0.828861       -0.432829
0.685                  -0.827977       -0.430447
0.686                  -0.826969       -0.428152
0.687                  -0.825845       -0.425956
0.688                  -0.824612       -0.423873
0.689                  -0.823279       -0.421916
0.69                   -0.821857       -0.420095
0.691                  -0.820357       -0.418421
0.692                  -0.818794       -0.416904
0.693                  -0.817181        -0.41555
0.694                  -0.815533       -0.414367
0.695                  -0.813866       -0.413358
0.696                  -0.812197       -0.412526
0.697                  -0.810543       -0.411872
0.698                   -0.80892       -0.411396
0.699                  -0.807344       -0.411094
0.7                    -0.805834       -0.410963
0.701                  -0.804404       -0.410995
0.702                  -0.803069       -0.411184
0.703                  -0.801844        -0.41152
0.704                  -0.800742       -0.411991
0.705                  -0.799775       -0.412587
0.706                  -0.798954       -0.413293
0.707                  -0.798288       -0.414094
0.708                  -0.797783       -0.414977
0.709                  -0.797448       -0.415925
0.71                   -0.797284       -0.416922
0.711                  -0.797294       -0.417951
0.712                  -0.797481       -0.418996
0.713                  -0.797841       -0.420041
0.714                  -0.798374       -0.421069
0.715                  -0.799073       -0.422067
0.716                  -0.799935       -0.423018
0.717                  -0.800951       -0.423909
0.718                  -0.802113       -0.424728
0.719                  -0.803411       -0.425462
0.72                   -0.804836       -0.426101
0.721                  -0.806376       -0.426637
0.722                  -0.808018       -0.427061
0.723                  -0.809751       -0.427367
0.724                  -0.811561        -0.42755
0.725                  -0.813436       -0.427608
0.726                  -0.815363       -0.427536
0.727                   -0.81733       -0.427336
0.728                  -0.819323       -0.427008
0.729                  -0.821332       -0.426553
0.73                   -0.823344       -0.425974
0.731                   -0.82535       -0.425275
0.732                   -0.82734       -0.424462
0.733                  -0.829304       -0.423539
0.734                  -0.831235       -0.422514
0.735                  -0.833125       -0.421393
0.736                   -0.83497       -0.420183
0.737                  -0.836763       -0.418891
0.738                  -0.838501       -0.417527
0.739                   -0.84018       -0.416096
0.74                   -0.841799       -0.414608
0.741                  -0.843357       -0.413069
0.742                  -0.844852       -0.411487
0.743                  -0.846286       -0.409867
0.744                  -0.847659       -0.408218
0.745                  -0.848973       -0.406544
0.746                  -0.850231       -0.404852
0.747                  -0.851434       -0.403144
0.748                  -0.852585       -0.401427
0.749                  -0.853688       -0.399704
0.75                   -0.854746       -0.397976
0.751                  -0.855762       -0.396248
0.752                   -0.85674        -0.39452
0.753                  -0.857682       -0.392794
0.754                  -0.858592       -0.391071
0.755                  -0.859472       -0.389351
0.756                  -0.860326       -0.387635
0.757                  -0.861155       -0.385921
0.758                  -0.861962        -0.38421
0.759                  -0.862748       -0.382501
0.76                   -0.863515       -0.380793
0.761                  -0.864264       -0.379084
0.762                  -0.864996       -0.377374
0.763                  -0.865711       -0.375662
0.764                  -0.866409       -0.373948
0.765                  -0.867091       -0.372229
0.766                  -0.867756       -0.370505
0.767                  -0.868405       -0.368777
0.768                  -0.869036       -0.367043
0.769                   -0.86965       -0.365303
0.77                   -0.870245       -0.363557
0.771                  -0.870821       -0.361805
0.772                  -0.871379       -0.360048
0.773                  -0.871916       -0.358285
0.774                  -0.872434       -0.356517
0.775                  -0.872931       -0.354745
0.776                  -0.873408       -0.352969
0.777                  -0.873864        -0.35119
0.778                    -0.8743       -0.349408
0.779                  -0.874716       -0.347624
0.78                   -0.875113       -0.345837
0.781                   -0.87549       -0.344049
0.782                  -0.875849       -0.342259
0.783                  -0.876189       -0.340467
0.784                  -0.876512       -0.338674
0.785                  -0.876817       -0.336878
0.786                  -0.877106       -0.335079
0.787                  -0.877379       -0.333276
0.788                  -0.877635       -0.331468
0.789                  -0.877875       -0.329655
0.79                   -0.878098       -0.327835
0.791                  -0.878303       -0.326005
0.792                  -0.878491       -0.324166
0.793                  -0.878659       -0.322316
0.794                  -0.878807       -0.320453
0.795                  -0.878931       -0.318575
0.796                  -0.879031       -0.316683
0.797                  -0.879103       -0.314774
0.798                  -0.879145       -0.312848
0.799                  -0.879153       -0.310905
0.8                    -0.879123       -0.308944
0.801                  -0.879052       -0.306967
0.802                  -0.878936       -0.304973
0.803                  -0.878771       -0.302965
0.804                  -0.878553       -0.300945
0.805                  -0.878277       -0.298914
0.806                  -0.877939       -0.296877
0.807                  -0.877536       -0.294836
0.808                  -0.877063       -0.292797
0.809                  -0.876518       -0.290764
0.81                   -0.875897       -0.288743
0.811                  -0.875198        -0.28674
0.812                  -0.874418       -0.284762
0.813                  -0.873557       -0.282815
0.814                  -0.872613       -0.280907
0.815                  -0.871587       -0.279047
0.816                   -0.87048       -0.277241
0.817                  -0.869293       -0.275498
0.818                  -0.868029       -0.273826
0.819                  -0.866691       -0.272233
0.82                   -0.865285       -0.270727
0.821                  -0.863814       -0.269316
0.822                  -0.862286       -0.268007
0.823                  -0.860708       -0.266807
0.824                  -0.859087       -0.265722
0.825                  -0.857431       -0.264758
0.826                  -0.855751       -0.263919
0.827                  -0.854057       -0.263209
0.828                  -0.852357       -0.262631
0.829                  -0.850664       -0.262187
0.83                   -0.848989       -0.261879
0.831                  -0.847342       -0.261706
0.832                  -0.845736       -0.261666
0.833                  -0.844181       -0.261758
0.834                  -0.842689       -0.261977
0.835                  -0.841271        -0.26232
0.836                  -0.839937        -0.26278
0.837                  -0.838697       -0.263351
0.838                  -0.837561       -0.264025
0.839                  -0.836536       -0.264794
0.84                   -0.835632       -0.265648
0.841                  -0.834855       -0.266576
0.842                   -0.83421       -0.267568
0.843                  -0.833702       -0.268614
0.844                  -0.833335         -0.2697
0.845                  -0.833112       -0.270815
0.846                  -0.833033       -0.271947
0.847                  -0.833099       -0.273084
0.848                  -0.833309       -0.274214
0.849                  -0.833661       -0.275324
0.85                   -0.834151       -0.276403
0.851                  -0.834775       -0.277441
0.852                  -0.835528       -0.278427
0.853                  -0.836404       -0.279351
0.854                  -0.837395       -0.280204
0.855                  -0.838494       -0.280977
0.856                  -0.839693       -0.281664
0.857                  -0.840982       -0.282259
0.858                  -0.842351       -0.282755
0.859                  -0.843792       -0.283148
0.86                   -0.845295       -0.283435
0.861                   -0.84685       -0.283614
0.862                  -0.848446       -0.283682
0.863                  -0.850074       -0.283641
0.864                  -0.851725        -0.28349
0.865                  -0.853389       -0.283231
0.866                  -0.855058       -0.282866
0.867                  -0.856723       -0.282397
0.868                  -0.858378        -0.28183
0.869                  -0.860014       -0.281166
0.87                   -0.861626       -0.280413
0.871                  -0.863208       -0.279574
0.872                  -0.864754       -0.278655
0.873                  -0.866262       -0.277661
0.874                  -0.867727       -0.276598
0.875                  -0.869147       -0.275473
0.876                  -0.870519        -0.27429
0.877                  -0.871843       -0.273056
0.878                  -0.873117       -0.271775
0.879                  -0.874341       -0.270453
0.88                   -0.875515       -0.269094
0.881                   -0.87664       -0.267704
0.882                  -0.877717       -0.266286
0.883                  -0.878747       -0.264843
0.884                  -0.879732       -0.263379
0.885                  -0.880674       -0.261897
0.886                  -0.881573         -0.2604
0.887                  -0.882433       -0.258888
0.888                  -0.883255       -0.257364
0.889                   -0.88404       -0.255828
0.89                    -0.88479       -0.254282
0.891                  -0.885507       -0.252726
0.892                  -0.886191        -0.25116
0.893                  -0.886844       -0.249585
0.894                  -0.887465          -0.248
0.895                  -0.888056       -0.246405
0.896                  -0.888617         -0.2448
0.897                  -0.889147       -0.243185
0.898                  -0.889645        -0.24156
0.899                  -0.890112       -0.239925
0.9                    -0.890546        -0.23828
0.901                  -0.890947       -0.236625
0.902                  -0.891313       -0.234962
0.903                  -0.891642        -0.23329
0.904                  -0.891934       -0.231612
0.905                  -0.892188       -0.229927
0.906                  -0.892401       -0.228239
0.907                  -0.892573       -0.226549
0.908                  -0.892704       -0.224859
0.909                  -0.892792       -0.223171
0.91                   -0.892836       -0.221489
0.911                  -0.892836       -0.219814
0.912                  -0.892794        -0.21815
0.913                  -0.892707       -0.216499
0.914                  -0.892578       -0.214865
0.915                  -0.892408        -0.21325
0.916                  -0.892197       -0.211658
0.917                  -0.891947        -0.21009
0.918                  -0.891661        -0.20855
0.919                   -0.89134       -0.207041
0.92                   -0.890987       -0.205563
0.921                  -0.890605       -0.204119
0.922                  -0.890197       -0.202711
0.923                  -0.889766       -0.201339
0.924                  -0.889315       -0.200004
0.925                  -0.888847       -0.198708
0.926                  -0.888365       -0.197449
0.927                  -0.887873       -0.196227
0.928                  -0.887373       -0.195042
0.929                  -0.886869       -0.193892
0.93                   -0.886363       -0.192776
0.931                  -0.885858       -0.191693
0.932                  -0.885354       -0.190639
0.933                  -0.884855       -0.189613
0.934                  -0.884361       -0.188614
0.935                  -0.883873       -0.187637
0.936                  -0.883392       -0.186681
0.937                  -0.882917       -0.185743
0.938                  -0.882449        -0.18482
0.939                  -0.881986       -0.183911
0.94                   -0.881527       -0.183013
0.941                  -0.881072       -0.182125
0.942                  -0.880617       -0.181244
0.943                  -0.880162        -0.18037
0.944                  -0.879702       -0.179502
0.945                  -0.879238        -0.17864
0.946                  -0.878764       -0.177783
0.947                  -0.878279       -0.176933
0.948                  -0.877781        -0.17609
0.949                  -0.877267       -0.175256
0.95                   -0.876734       -0.174433
0.951                   -0.87618       -0.173624
0.952                  -0.875604       -0.172831
0.953                  -0.875004       -0.172057
0.954                   -0.87438       -0.171307
0.955                   -0.87373       -0.170584
0.956                  -0.873055       -0.169892
0.957                  -0.872355       -0.169236
0.958                  -0.871631       -0.168619
0.959                  -0.870886       -0.168047
0.96                   -0.870121       -0.167524
0.961                   -0.86934       -0.167053
0.962                  -0.868546       -0.166638
0.963                  -0.867742       -0.166284
0.964                  -0.866935       -0.165994
0.965                  -0.866128        -0.16577
0.966                  -0.865328       -0.165614
0.967                   -0.86454       -0.165528
0.968                  -0.863771       -0.165514
0.969                  -0.863026       -0.165572
0.97                   -0.862314         -0.1657
0.971                  -0.861639         -0.1659
0.972                   -0.86101       -0.166167
0.973                  -0.860432       -0.166501
0.974                  -0.859913       -0.166898
0.975                  -0.859457       -0.167354
0.976                  -0.859071       -0.167865
0.977                  -0.858761       -0.168425
0.978                   -0.85853       -0.169029
0.979                  -0.858384        -0.16967
0.98                   -0.858326       -0.170342
0.981                  -0.858359       -0.171038
0.982                  -0.858486        -0.17175
0.983                  -0.858707        -0.17247
0.984                  -0.859023       -0.173192
0.985                  -0.859435       -0.173907
0.986                  -0.859942       -0.174607
0.987                  -0.860543       -0.175285
0.988                  -0.861234       -0.175934
0.989                  -0.862014       -0.176546
0.99                   -0.862878       -0.177115
0.991                  -0.863822       -0.177635
0.992                  -0.864842       -0.178099
0.993                  -0.865933       -0.178502
0.994                  -0.867088        -0.17884
0.995                  -0.868302        -0.17911
0.996                  -0.869568       -0.179306
0.997                  -0.870881       -0.179428
0.998                  -0.872232       -0.179472
0.999                  -0.873617       -0.179437
1                      -0.875029       -0.179323
1.001                   -0.87646        -0.17913
1.002                  -0.877905       -0.178858
1.003                  -0.879357       -0.178508
1.004                  -0.880812       -0.178082
1.005                  -0.882264       -0.177582
1.006                  -0.883707        -0.17701
1.007                  -0.885138        -0.17637
1.008                  -0.886552       -0.175665
1.009                  -0.887945       -0.174897
1.01                   -0.889315       -0.174071
1.011                  -0.890658       -0.173191
1.012                  -0.891974        -0.17226
1.013                  -0.893259       -0.171282
1.014                  -0.894513       -0.170261
1.015                  -0.895735         -0.1692
1.016                  -0.896924       -0.168103
1.017                   -0.89808       -0.166973
1.018                  -0.899204       -0.165814
1.019                  -0.900296       -0.164627
1.02                   -0.901357       -0.163417
1.021                  -0.902387       -0.162185
1.022                  -0.903388       -0.160933
1.023                   -0.90436       -0.159662
1.024                  -0.905306       -0.158376
1.025                  -0.906225       -0.157073
1.026                   -0.90712       -0.155757
1.027                   -0.90799       -0.154426
1.028                  -0.908839       -0.153083
1.029                  -0.909665       -0.151726
1.03                    -0.91047       -0.150357
1.031                  -0.911255       -0.148975
1.032                  -0.912019       -0.147581
1.033                  -0.912765       -0.146174
1.034                   -0.91349       -0.144754
1.035                  -0.914196       -0.143321
1.036                  -0.914883       -0.141875
1.037                  -0.915549       -0.140416
1.038                  -0.916196       -0.138944
1.039                  -0.916821       -0.137459
1.04                   -0.917425       -0.135961
1.041                  -0.918008       -0.134451
1.042                  -0.918568       -0.132928
1.043                  -0.919105       -0.131394
1.044                  -0.919619       -0.129849
1.045                  -0.920108       -0.128295
1.046                  -0.920573       -0.126731
1.047                  -0.921012       -0.125158
1.048                  -0.921427       -0.123579
1.049                  -0.921815       -0.121993
1.05                   -0.922178       -0.120403
1.051                  -0.922516       -0.118809
1.052                  -0.922828       -0.117212
1.053                  -0.923116       -0.115614
1.054                  -0.923378       -0.114015
1.055                  -0.923617       -0.112416
1.056                  -0.923832       -0.110819
1.057                  -0.924025       -0.109224
1.058                  -0.924195       -0.107632
1.059                  -0.924345       -0.106044
1.06                   -0.924474        -0.10446
1.061                  -0.924585       -0.102879
1.062                  -0.924677       -0.101303
1.063                  -0.924751      -0.0997322
1.064                  -0.924809      -0.0981653
1.065                  -0.924851      -0.0966026
1.066                  -0.924879      -0.0950437
1.067                  -0.924891      -0.0934883
1.068                   -0.92489      -0.0919356
1.069                  -0.924875       -0.090385
1.07                   -0.924846      -0.0888365
1.071                  -0.924805      -0.0872889
1.072                   -0.92475      -0.0857419
1.073                  -0.924681      -0.0841943
1.074                  -0.924599       -0.082646
1.075                  -0.924502      -0.0810961
1.076                   -0.92439      -0.0795444
1.077                  -0.924263      -0.0779906
1.078                   -0.92412      -0.0764341
1.079                  -0.923959       -0.074875
1.08                   -0.923781       -0.073313
1.081                  -0.923583      -0.0717483
1.082                  -0.923365      -0.0701811
1.083                  -0.923127       -0.068612
1.084                  -0.922867       -0.067041
1.085                  -0.922584      -0.0654693
1.086                  -0.922277      -0.0638972
1.087                  -0.921946      -0.0623256
1.088                   -0.92159      -0.0607556
1.089                  -0.921209      -0.0591881
1.09                   -0.920801      -0.0576245
1.091                  -0.920367      -0.0560653
1.092                  -0.919906      -0.0545125
1.093                  -0.919418      -0.0529667
1.094                  -0.918903      -0.0514293
1.095                  -0.918361      -0.0499012
1.096                  -0.917792       -0.048384
1.097                  -0.917197      -0.0468787
1.098                  -0.916575      -0.0453862
1.099                  -0.915928      -0.0439072
1.1                    -0.915256       -0.042443
1.101                  -0.914558      -0.0409948
1.102                  -0.913836      -0.0395626
1.103                  -0.913091      -0.0381472
1.104                  -0.912322      -0.0367496
1.105                   -0.91153        -0.03537
1.106                  -0.910716      -0.0340087
1.107                   -0.90988      -0.0326668
1.108                  -0.909021      -0.0313441
1.109                  -0.908142      -0.0300412
1.11                   -0.907241      -0.0287583
1.111                  -0.906319      -0.0274962
1.112                  -0.905375       -0.026255
1.113                  -0.904411      -0.0250351
1.114                  -0.903424      -0.0238376
1.115                  -0.902417      -0.0226626
1.116                  -0.901388      -0.0215111
1.117                  -0.900336      -0.0203843
1.118                  -0.899263      -0.0192824
1.119                  -0.898167      -0.0182074
1.12                   -0.897049      -0.0171603
1.121                  -0.895909      -0.0161424
1.122                  -0.894745      -0.0151553
1.123                   -0.89356       -0.014201
1.124                  -0.892352      -0.0132813
1.125                  -0.891123      -0.0123978
1.126                  -0.889872      -0.0115531
1.127                  -0.888602      -0.0107489
1.128                  -0.887312     -0.00998805
1.129                  -0.886005     -0.00927198
1.13                   -0.884681     -0.00860358
1.131                  -0.883343     -0.00798472
1.132                  -0.881993     -0.00741762
1.133                  -0.880633     -0.00690451
1.134                  -0.879266     -0.00644717
1.135                  -0.877895     -0.00604739
1.136                  -0.876522     -0.00570671
1.137                  -0.875152     -0.00542669
1.138                  -0.873788     -0.00520824
1.139                  -0.872433      -0.0050525
1.14                   -0.871092     -0.00495958
1.141                  -0.869769     -0.00492961
1.142                  -0.868467     -0.00496273
1.143                  -0.867192     -0.00505847
1.144                  -0.865947     -0.00521562
1.145                  -0.864736     -0.00543315
1.146                  -0.863565      -0.0057093
1.147                  -0.862436     -0.00604193
1.148                  -0.861353     -0.00642912
1.149                  -0.860322     -0.00686783
1.15                   -0.859344     -0.00735485
1.151                  -0.858424     -0.00788701
1.152                  -0.857563     -0.00846078
1.153                  -0.856766      -0.0090721
1.154                  -0.856035     -0.00971694
1.155                  -0.855371      -0.0103907
1.156                  -0.854776      -0.0110892
1.157                  -0.854252      -0.0118076
1.158                  -0.853799      -0.0125417
1.159                  -0.853419      -0.0132865
1.16                    -0.85311      -0.0140373
1.161                  -0.852873      -0.0147893
1.162                  -0.852708      -0.0155382
1.163                  -0.852614      -0.0162795
1.164                  -0.852588      -0.0170086
1.165                  -0.852631      -0.0177214
1.166                  -0.852739       -0.018414
1.167                   -0.85291      -0.0190828
1.168                  -0.853143      -0.0197236
1.169                  -0.853435      -0.0203339
1.17                   -0.853782      -0.0209102
1.171                  -0.854183      -0.0214496
1.172                  -0.854633      -0.0219501
1.173                   -0.85513      -0.0224092
1.174                  -0.855671      -0.0228251
1.175                  -0.856251      -0.0231958
1.176                  -0.856869      -0.0235201
1.177                  -0.857521      -0.0237969
1.178                  -0.858202      -0.0240256
1.179                  -0.858911      -0.0242047
1.18                   -0.859644      -0.0243344
1.181                  -0.860398      -0.0244141
1.182                   -0.86117      -0.0244441
1.183                  -0.861957      -0.0244241
1.184                  -0.862757      -0.0243543
1.185                  -0.863565      -0.0242356
1.186                  -0.864381      -0.0240682
1.187                  -0.865201      -0.0238524
1.188                  -0.866023      -0.0235891
1.189                  -0.866845      -0.0232791
1.19                   -0.867664      -0.0229233
1.191                  -0.868479      -0.0225228
1.192                  -0.869287      -0.0220782
1.193                  -0.870087      -0.0215905
1.194                  -0.870877      -0.0210612
1.195                  -0.871654       -0.020491
1.196                  -0.872418      -0.0198812
1.197                  -0.873166      -0.0192329
1.198                  -0.873898      -0.0185475
1.199                  -0.874611       -0.017826
1.2                    -0.875304      -0.0170699
1.201                  -0.875976      -0.0162807
1.202                  -0.876625      -0.0154595
1.203                  -0.877251      -0.0146075
1.204                  -0.877852      -0.0137269
1.205                  -0.878426      -0.0128188
1.206                  -0.878974      -0.0118846
1.207                  -0.879493      -0.0109261
1.208                  -0.879983     -0.00994475
1.209                  -0.880444     -0.00894233
1.21                   -0.880874     -0.00792093
1.211                  -0.881273     -0.00688145
1.212                   -0.88164     -0.00582637
1.213                  -0.881975      -0.0047572
1.214                  -0.882277     -0.00367562
1.215                  -0.882547     -0.00258337
1.216                  -0.882784     -0.00148235
1.217                  -0.882987      -0.0003745
1.218                  -0.883158     0.000738868
1.219                  -0.883296      0.00185602
1.22                   -0.883402      0.00297523
1.221                  -0.883475      0.00409437
1.222                  -0.883517      0.00521252
1.223                  -0.883527      0.00632794
1.224                  -0.883506      0.00743912
1.225                  -0.883454      0.00854475
1.226                  -0.883373      0.00964352
1.227                  -0.883263       0.0107339
1.228                  -0.883125        0.011815
1.229                  -0.882959       0.0128856
1.23                   -0.882766       0.0139443
1.231                  -0.882547       0.0149904
1.232                  -0.882302       0.0160228
1.233                  -0.882033       0.0170405
1.234                   -0.88174       0.0180424
1.235                  -0.881424        0.019028
1.236                  -0.881085       0.0199963
1.237                  -0.880725       0.0209461
1.238                  -0.880344        0.021877
1.239                  -0.879943        0.022788
1.24                   -0.879522        0.023678
1.241                  -0.879084       0.0245464
1.242                  -0.878627       0.0253923
1.243                  -0.878154       0.0262148
1.244                  -0.877664        0.027013
1.245                   -0.87716        0.027786
1.246                  -0.876642       0.0285327
1.247                  -0.876111       0.0292523
1.248                  -0.875568       0.0299441
1.249                  -0.875014        0.030607
1.25                   -0.874452         0.03124
1.251                  -0.873881       0.0318426
1.252                  -0.873305       0.0324135
1.253                  -0.872724       0.0329524
1.254                   -0.87214       0.0334583
1.255                  -0.871555       0.0339309
1.256                  -0.870971       0.0343693
1.257                   -0.87039       0.0347736
1.258                  -0.869814       0.0351433
1.259                  -0.869245       0.0354784
1.26                   -0.868686       0.0357789
1.261                  -0.868139       0.0360449
1.262                  -0.867606       0.0362771
1.263                  -0.867089        0.036476
1.264                  -0.866592       0.0366423
1.265                  -0.866116       0.0367771
1.266                  -0.865663       0.0368816
1.267                  -0.865236       0.0369574
1.268                  -0.864837       0.0370058
1.269                  -0.864467       0.0370285
1.27                    -0.86413       0.0370282
1.271                  -0.863826       0.0370062
1.272                  -0.863557       0.0369654
1.273                  -0.863325       0.0369077
1.274                   -0.86313       0.0368363
1.275                  -0.862973       0.0367534
1.276                  -0.862856        0.036662
1.277                  -0.862779       0.0365648
1.278                  -0.862742       0.0364648
1.279                  -0.862745       0.0363644
1.28                   -0.862787       0.0362672
1.281                  -0.862869       0.0361752
1.282                   -0.86299       0.0360914
1.283                  -0.863148       0.0360186
1.284                  -0.863344        0.035959
1.285                  -0.863574       0.0359155
1.286                  -0.863838       0.0358899
1.287                  -0.864135       0.0358842
1.288                  -0.864461       0.0359006
1.289                  -0.864816       0.0359407
1.29                   -0.865198        0.036006
1.291                  -0.865604        0.036098
1.292                  -0.866032       0.0362176
1.293                   -0.86648       0.0363657
1.294                  -0.866946        0.036543
1.295                  -0.867428       0.0367501
1.296                  -0.867923       0.0369876
1.297                  -0.868429       0.0372552
1.298                  -0.868945       0.0375532
1.299                  -0.869469       0.0378811
1.3                    -0.869998        0.038239
1.301                   -0.87053       0.0386265
1.302                  -0.871065       0.0390427
1.303                  -0.871601       0.0394875
1.304                  -0.872135       0.0399595
1.305                  -0.872668       0.0404589
1.306                  -0.873197       0.0409844
1.307                  -0.873722       0.0415351
1.308                  -0.874241       0.0421105
1.309                  -0.874754       0.0427098
1.31                   -0.875259       0.0433321
1.311                  -0.875757       0.0439765
1.312                  -0.876246       0.0446423
1.313                  -0.876725       0.0453289
1.314                  -0.877195       0.0460354
1.315                  -0.877655       0.0467613
1.316                  -0.878104       0.0475059
1.317                  -0.878541       0.0482687
1.318                  -0.878967       0.0490488
1.319                   -0.87938       0.0498459
1.32                    -0.87978       0.0506592
1.321                  -0.880167       0.0514884
1.322                  -0.880541       0.0523331
1.323                    -0.8809        0.053192
1.324                  -0.881245       0.0540651
1.325                  -0.881574       0.0549519
1.326                  -0.881888       0.0558512
1.327                  -0.882185       0.0567627
1.328                  -0.882466       0.0576855
1.329                   -0.88273        0.058619
1.33                   -0.882976       0.0595621
1.331                  -0.883204       0.0605145
1.332                  -0.883413       0.0614747
1.333                  -0.883604       0.0624421
1.334                  -0.883777       0.0634156
1.335                  -0.883929       0.0643943
1.336                  -0.884063       0.0653768
1.337                  -0.884178       0.0663623
1.338                  -0.884273       0.0673497
1.339                  -0.884349       0.0683381
1.34                   -0.884407       0.0693261
1.341                  -0.884445       0.0703128
1.342                  -0.884466       0.0712972
1.343                  -0.884469       0.0722782
1.344                  -0.884456       0.0732551
1.345                  -0.884425        0.074227
1.346                   -0.88438       0.0751931
1.347                  -0.884319       0.0761526
1.348                  -0.884244       0.0771052
1.349                  -0.884156       0.0780502
1.35                   -0.884056       0.0789869
1.351                  -0.883944       0.0799155
1.352                  -0.883822       0.0808358
1.353                   -0.88369       0.0817473
1.354                   -0.88355         0.08265
1.355                  -0.883401       0.0835444
1.356                  -0.883245       0.0844304
1.357                  -0.883083       0.0853081
1.358                  -0.882914       0.0861781
1.359                  -0.882741       0.0870406
1.36                   -0.882562       0.0878959
1.361                  -0.882379       0.0887449
1.362                  -0.882192       0.0895874
1.363                     -0.882       0.0904244
1.364                  -0.881805       0.0912561
1.365                  -0.881605       0.0920827
1.366                  -0.881402       0.0929048
1.367                  -0.881194        0.093723
1.368                  -0.880982       0.0945373
1.369                  -0.880766       0.0953476
1.37                   -0.880545       0.0961547
1.371                  -0.880318       0.0969582
1.372                  -0.880086       0.0977581
1.373                  -0.879848       0.0985547
1.374                  -0.879604       0.0993474
1.375                  -0.879354        0.100136
1.376                  -0.879097         0.10092
1.377                  -0.878833          0.1017
1.378                  -0.878561        0.102474
1.379                  -0.878283        0.103242
1.38                   -0.877997        0.104004
1.381                  -0.877704        0.104759
1.382                  -0.877404        0.105506
1.383                  -0.877097        0.106245
1.384                  -0.876783        0.106975
1.385                  -0.876463        0.107696
1.386                  -0.876138        0.108407
1.387                  -0.875808        0.109107
1.388                  -0.875473        0.109797
1.389                  -0.875135        0.110474
1.39                   -0.874793         0.11114
1.391                   -0.87445        0.111795
1.392                  -0.874105        0.112436
1.393                   -0.87376        0.113067
1.394                  -0.873415        0.113684
1.395                  -0.873072         0.11429
1.396                  -0.872731        0.114884
1.397                  -0.872393        0.115467
1.398                  -0.872059        0.116038
1.399                  -0.871729        0.116599
1.4                    -0.871404         0.11715
1.401                  -0.871086        0.117692
1.402                  -0.870773        0.118225
1.403                  -0.870468         0.11875
1.404                  -0.870169        0.119268
1.405                  -0.869878        0.119779
1.406                  -0.869594        0.120284
1.407                  -0.869318        0.120785
1.408                   -0.86905        0.121281
1.409                  -0.868789        0.121773
1.41                   -0.868536        0.122263
1.411                   -0.86829        0.122751
1.412                  -0.868051        0.123236
1.413                  -0.867819        0.123721
1.414                  -0.867593        0.124204
1.415                  -0.867373        0.124687
1.416                  -0.867159         0.12517
1.417                   -0.86695        0.125653
1.418                  -0.866746        0.126136
1.419                  -0.866547         0.12662
1.42                   -0.866352        0.127104
1.421                  -0.866161        0.127589
1.422                  -0.865974        0.128074
1.423                  -0.865791         0.12856
1.424                  -0.865611        0.129046
1.425                  -0.865434        0.129532
1.426                  -0.865261        0.130019
1.427                  -0.865091        0.130506
1.428                  -0.864925        0.130992
1.429                  -0.864762         0.13148
1.43                   -0.864602        0.131967
1.431                  -0.864446        0.132454
1.432                  -0.864294        0.132942
1.433                  -0.864146        0.133431
1.434                  -0.864002         0.13392
1.435                  -0.863862        0.134409
1.436                  -0.863726        0.134901
1.437                  -0.863595        0.135393
1.438                  -0.863469        0.135888
1.439                  -0.863347        0.136385
1.44                   -0.863229        0.136884
1.441                  -0.863116        0.137387
1.442                  -0.863008        0.137894
1.443                  -0.862903        0.138405
1.444                  -0.862802        0.138921
1.445                  -0.862704        0.139441
1.446                   -0.86261        0.139967
1.447                  -0.862518          0.1405
1.448                  -0.862427        0.141038
1.449                  -0.862339        0.141583
1.45                   -0.862251        0.142135
1.451                  -0.862163        0.142693
1.452                  -0.862074        0.143258
1.453                  -0.861984         0.14383
1.454                  -0.861892        0.144409
1.455                  -0.861798        0.144995
1.456                    -0.8617        0.145587
1.457                  -0.861598        0.146184
1.458                  -0.861492        0.146788
1.459                  -0.861381        0.147396
1.46                   -0.861264        0.148008
1.461                  -0.861142        0.148625
1.462                  -0.861014        0.149244
1.463                  -0.860879        0.149867
1.464                  -0.860738        0.150491
1.465                   -0.86059        0.151116
1.466                  -0.860437        0.151742
1.467                  -0.860277        0.152367
1.468                  -0.860111        0.152992
1.469                  -0.859939        0.153616
1.47                   -0.859762        0.154238
1.471                  -0.859581        0.154857
1.472                  -0.859395        0.155474
1.473                  -0.859205        0.156087
1.474                  -0.859012        0.156698
1.475                  -0.858817        0.157306
1.476                  -0.858619         0.15791
1.477                  -0.858421        0.158511
1.478                  -0.858221        0.159109
1.479                  -0.858021        0.159704
1.48                    -0.85782        0.160297
1.481                  -0.857621        0.160887
1.482                  -0.857422        0.161476
1.483                  -0.857224        0.162064
1.484                  -0.857028        0.162651
1.485                  -0.856833        0.163237
1.486                  -0.856639        0.163825
1.487                  -0.856447        0.164413
1.488                  -0.856256        0.165002
1.489                  -0.856065        0.165593
1.49                   -0.855876        0.166187
1.491                  -0.855686        0.166784
1.492                  -0.855497        0.167384
1.493                  -0.855307        0.167987
1.494                  -0.855116        0.168594
1.495                  -0.854923        0.169205
1.496                  -0.854728        0.169819
1.497                   -0.85453        0.170437
1.498                  -0.854329         0.17106
1.499                  -0.854124        0.171685
1.5                    -0.853914        0.172314
1.501                    -0.8537        0.172946
1.502                   -0.85348        0.173581
1.503                  -0.853255        0.174218
1.504                  -0.853024        0.174856
1.505                  -0.852787        0.175496
1.506                  -0.852543        0.176136
1.507                  -0.852294        0.176777
1.508                  -0.852038        0.177418
1.509                  -0.851776        0.178058
1.51                   -0.851507        0.178696
1.511                  -0.851233        0.179333
1.512                  -0.850954        0.179968
1.513                  -0.850669        0.180601
1.514                  -0.850379        0.181232
1.515                  -0.850085         0.18186
1.516                  -0.849786        0.182485
1.517                  -0.849484        0.183107
1.518                  -0.849178        0.183726
1.519                  -0.848869        0.184343
1.52                   -0.848557        0.184958
1.521                  -0.848242         0.18557
1.522                  -0.847925        0.186181
1.523                  -0.847606         0.18679
1.524                  -0.847284        0.187397
1.525                   -0.84696        0.188004
1.526                  -0.846633        0.188611
1.527                  -0.846304        0.189217
1.528                  -0.845972        0.189823
1.529                  -0.845637         0.19043
1.53                   -0.845298        0.191038
1.531                  -0.844955        0.191646
1.532                  -0.844608        0.192256
1.533                  -0.844255        0.192867
1.534                  -0.843896        0.193479
1.535                   -0.84353        0.194091
1.536                  -0.843158        0.194705
1.537                  -0.842778        0.195319
1.538                  -0.842389        0.195932
1.539                  -0.841991        0.196545
1.54                   -0.841584        0.197157
1.541                  -0.841167        0.197768
1.542                   -0.84074        0.198375
1.543                  -0.840302        0.198979
1.544                  -0.839853        0.199578
1.545                  -0.839393        0.200173
1.546                  -0.838922         0.20076
1.547                   -0.83844        0.201341
1.548                  -0.837947        0.201914
1.549                  -0.837444        0.202477
1.55                   -0.836931        0.203031
1.551                  -0.836408        0.203573
1.552                  -0.835877        0.204103
1.553                  -0.835337        0.204621
1.554                   -0.83479        0.205126
1.555                  -0.834237        0.205617
1.556                  -0.833678        0.206093
1.557                  -0.833115        0.206555
1.558                  -0.832547        0.207002
1.559                  -0.831977        0.207435
1.56                   -0.831406        0.207851
1.561                  -0.830833        0.208253
1.562                  -0.830261        0.208639
1.563                   -0.82969        0.209011
1.564                   -0.82912        0.209369
1.565                  -0.828553        0.209712
1.566                  -0.827989        0.210041
1.567                  -0.827429        0.210357
1.568                  -0.826873        0.210661
1.569                  -0.826322        0.210952
1.57                   -0.825776        0.211231
1.571                  -0.825235        0.211499
1.572                    -0.8247        0.211757
1.573                  -0.824171        0.212004
1.574                  -0.823647        0.212241
1.575                  -0.823129        0.212469
1.576                  -0.822617        0.212688
1.577                  -0.822111        0.212897
1.578                   -0.82161        0.213098
1.579                  -0.821115         0.21329
1.58                   -0.820625        0.213474
1.581                   -0.82014        0.213649
1.582                  -0.819661        0.213815
1.583                  -0.819188        0.213972
1.584                   -0.81872         0.21412
1.585                  -0.818257        0.214259
1.586                  -0.817801        0.214388
1.587                  -0.817351        0.214508
1.588                  -0.816908        0.214617
1.589                  -0.816472        0.214717
1.59                   -0.816044        0.214806
1.591                  -0.815624        0.214885
1.592                  -0.815214        0.214952
1.593                  -0.814813         0.21501
1.594                  -0.814423        0.215057
1.595                  -0.814044        0.215094
1.596                  -0.813678        0.215121
1.597                  -0.813325        0.215139
1.598                  -0.812986        0.215148
1.599                  -0.812662        0.215148
1.6                    -0.812354        0.215141
1.601                  -0.812062        0.215127
1.602                  -0.811788        0.215107
1.603                  -0.811531        0.215082
1.604                  -0.811293        0.215054
1.605                  -0.811073        0.215024
1.606                  -0.810872        0.214992
1.607                  -0.810691        0.214961
1.608                  -0.810528        0.214931
1.609                  -0.810385        0.214904
1.61                    -0.81026        0.214881
1.611                  -0.810154        0.214863
1.612                  -0.810065        0.214852
1.613                  -0.809994        0.214849
1.614                  -0.809939        0.214855
1.615                  -0.809899        0.214871
1.616                  -0.809874        0.214898
1.617                  -0.809862        0.214936
1.618                  -0.809863        0.214987
1.619                  -0.809875         0.21505
1.62                   -0.809897        0.215127
1.621                  -0.809927        0.215217
1.622                  -0.809966        0.215321
1.623                  -0.810011        0.215439
1.624                  -0.810061         0.21557
1.625                  -0.810115        0.215714
1.626                  -0.810173        0.215871
1.627                  -0.810234        0.216041
1.628                  -0.810296        0.216223
1.629                  -0.810359        0.216417
1.63                   -0.810422        0.216621
1.631                  -0.810486        0.216836
1.632                  -0.810548         0.21706
1.633                   -0.81061        0.217294
1.634                  -0.810671        0.217535
1.635                  -0.810731        0.217785
1.636                   -0.81079        0.218042
1.637                  -0.810848        0.218306
1.638                  -0.810905        0.218576
1.639                  -0.810961        0.218852
1.64                   -0.811017        0.219135
1.641                  -0.811073        0.219423
1.642                  -0.811128        0.219717
1.643                  -0.811184        0.220016
1.644                   -0.81124        0.220321
1.645                  -0.811297        0.220633
1.646                  -0.811354         0.22095
1.647                  -0.811412        0.221274
1.648                  -0.811471        0.221605
1.649                   -0.81153        0.221943
1.65                   -0.811589        0.222289
1.651                  -0.811648        0.222642
1.652                  -0.811707        0.223004
1.653                  -0.811764        0.223374
1.654                   -0.81182        0.223753
1.655                  -0.811874        0.224141
1.656                  -0.811925        0.224538
1.657                  -0.811973        0.224943
1.658                  -0.812016        0.225358
1.659                  -0.812054        0.225782
1.66                   -0.812086        0.226213
1.661                  -0.812112        0.226653
1.662                  -0.812129        0.227101
1.663                  -0.812139        0.227555
1.664                   -0.81214        0.228015
1.665                  -0.812132        0.228481
1.666                  -0.812113        0.228951
1.667                  -0.812085        0.229424
1.668                  -0.812046          0.2299
1.669                  -0.811996        0.230377
1.67                   -0.811936        0.230854
1.671                  -0.811865         0.23133
1.672                  -0.811784        0.231804
1.673                  -0.811694        0.232275
1.674                  -0.811594        0.232742
1.675                  -0.811486        0.233204
1.676                   -0.81137        0.233661
1.677                  -0.811246         0.23411
1.678                  -0.811117        0.234553
1.679                  -0.810983        0.234988
1.68                   -0.810845        0.235415
1.681                  -0.810705        0.235833
1.682                  -0.810562        0.236243
1.683                  -0.810419        0.236645
1.684                  -0.810276        0.237039
1.685                  -0.810135        0.237424
1.686                  -0.809996        0.237803
1.687                  -0.809861        0.238174
1.688                   -0.80973         0.23854
1.689                  -0.809603          0.2389
1.69                   -0.809482        0.239255
1.691                  -0.809366        0.239607
1.692                  -0.809257        0.239955
1.693                  -0.809153        0.240302
1.694                  -0.809057        0.240648
1.695                  -0.808966        0.240993
1.696                  -0.808881        0.241339
1.697                  -0.808802        0.241686
1.698                  -0.808729        0.242036
1.699                   -0.80866        0.242388
1.7                    -0.808596        0.242743
1.701                  -0.808535        0.243101
1.702                  -0.808477        0.243463
1.703                  -0.808422         0.24383
1.704                  -0.808369          0.2442
1.705                  -0.808316        0.244574
1.706                  -0.808265        0.244952
1.707                  -0.808213        0.245333
1.708                  -0.808161        0.245718
1.709                  -0.808108        0.246105
1.71                   -0.808054        0.246495
1.711                     -0.808        0.246886
1.712                  -0.807943        0.247278
1.713                  -0.807886        0.247671
1.714                  -0.807827        0.248064
1.715                  -0.807768        0.248457
1.716                  -0.807708        0.248849
1.717                  -0.807648        0.249239
1.718                  -0.807589        0.249628
1.719                  -0.807531        0.250016
1.72                   -0.807475        0.250401
1.721                  -0.807422        0.250785
1.722                  -0.807372        0.251167
1.723                  -0.807325        0.251547
1.724                  -0.807284        0.251927
1.725                  -0.807247        0.252306
1.726                  -0.807217        0.252684
1.727                  -0.807193        0.253064
1.728                  -0.807175        0.253446
1.729                  -0.807165         0.25383
1.73                   -0.807162        0.254217
1.731                  -0.807166        0.254609
1.732                  -0.807178        0.255006
1.733                  -0.807196         0.25541
1.734                  -0.807221        0.255821
1.735                  -0.807252        0.256241
1.736                  -0.807288         0.25667
1.737                  -0.807329        0.257109
1.738                  -0.807374        0.257559
1.739                  -0.807422        0.258021
1.74                   -0.807471        0.258495
1.741                   -0.80752        0.258981
1.742                  -0.807569        0.259479
1.743                  -0.807616        0.259991
1.744                   -0.80766        0.260514
1.745                    -0.8077         0.26105
1.746                  -0.807734        0.261598
1.747                  -0.807762        0.262158
1.748                  -0.807782        0.262727
1.749                  -0.807794        0.263307
1.75                   -0.807796        0.263895
1.751                  -0.807789        0.264492
1.752                  -0.807772        0.265096
1.753                  -0.807743        0.265705
1.754                  -0.807704        0.266319
1.755                  -0.807654        0.266937
1.756                  -0.807594        0.267556
1.757                  -0.807522        0.268178
1.758                  -0.807441          0.2688
1.759                  -0.807349        0.269422
1.76                   -0.807249        0.270043
1.761                   -0.80714        0.270661
1.762                  -0.807024        0.271278
1.763                  -0.806901        0.271891
1.764                  -0.806772        0.272502
1.765                  -0.806639         0.27311
1.766                    -0.8065        0.273715
1.767                  -0.806359        0.274317
1.768                  -0.806215        0.274917
1.769                  -0.806069        0.275514
1.77                   -0.805922         0.27611
1.771                  -0.805773        0.276705
1.772                  -0.805625        0.277301
1.773                  -0.805475        0.277897
1.774                  -0.805326        0.278494
1.775                  -0.805176        0.279094
1.776                  -0.805025        0.279697
1.777                  -0.804873        0.280303
1.778                  -0.804719        0.280914
1.779                  -0.804563        0.281531
1.78                   -0.804404        0.282152
1.781                  -0.804241         0.28278
1.782                  -0.804074        0.283414
1.783                    -0.8039        0.284054
1.784                   -0.80372        0.284701
1.785                  -0.803531        0.285353
1.786                  -0.803334        0.286011
1.787                  -0.803127        0.286675
1.788                  -0.802909        0.287342
1.789                   -0.80268        0.288014
1.79                   -0.802439        0.288688
1.791                  -0.802184        0.289364
1.792                  -0.801917         0.29004
1.793                  -0.801635        0.290716
1.794                   -0.80134         0.29139
1.795                  -0.801032        0.292061
1.796                  -0.800709        0.292727
1.797                  -0.800374        0.293388
1.798                  -0.800027        0.294042
1.799                  -0.799667        0.294688
1.8                    -0.799296        0.295326
1.801                  -0.798915        0.295954
1.802                  -0.798525        0.296572
1.803                  -0.798127        0.297178
1.804                  -0.797722        0.297774
1.805                  -0.797312        0.298358
1.806                  -0.796897         0.29893
1.807                  -0.796479         0.29949
1.808                  -0.796059         0.30004
1.809                  -0.795638        0.300578
1.81                   -0.795217        0.301107
1.811                  -0.794798        0.301626
1.812                  -0.794379        0.302136
1.813                  -0.793964        0.302638
1.814                  -0.793551        0.303134
1.815                  -0.793141        0.303623
1.816                  -0.792734        0.304108
1.817                  -0.792331        0.304589
1.818                   -0.79193        0.305067
1.819                  -0.791533        0.305543
1.82                   -0.791137        0.306019
1.821                  -0.790742        0.306494
1.822                  -0.790348        0.306969
1.823                  -0.789954        0.307445
1.824                  -0.789559        0.307922
1.825                  -0.789161        0.308401
1.826                   -0.78876         0.30888
1.827                  -0.788355        0.309361
1.828                  -0.787945        0.309842
1.829                  -0.787529        0.310323
1.83                   -0.787106        0.310803
1.831                  -0.786675        0.311282
1.832                  -0.786236        0.311758
1.833                  -0.785788        0.312231
1.834                  -0.785332        0.312699
1.835                  -0.784866         0.31316
1.836                  -0.784392        0.313615
1.837                  -0.783909        0.314061
1.838                  -0.783418        0.314497
1.839                   -0.78292        0.314923
1.84                   -0.782415        0.315336
1.841                  -0.781904        0.315737
1.842                  -0.781389        0.316124
1.843                  -0.780871        0.316497
1.844                  -0.780351        0.316854
1.845                   -0.77983        0.317197
1.846                   -0.77931        0.317524
1.847                  -0.778793        0.317837
1.848                  -0.778279        0.318134
1.849                  -0.777771        0.318416
1.85                    -0.77727        0.318685
1.851                  -0.776776        0.318941
1.852                  -0.776291        0.319185
1.853                  -0.775816        0.319419
1.854                  -0.775352        0.319642
1.855                  -0.774899        0.319858
1.856                  -0.774458        0.320066
1.857                  -0.774028        0.320269
1.858                  -0.773611        0.320468
1.859                  -0.773205        0.320665
1.86                    -0.77281         0.32086
1.861                  -0.772426        0.321055
1.862                  -0.772052        0.321251
1.863                  -0.771688        0.321449
1.864                  -0.771331        0.321651
1.865                  -0.770981        0.321855
1.866                  -0.770637        0.322064
1.867                  -0.770297        0.322277
1.868                   -0.76996        0.322494
1.869                  -0.769626        0.322716
1.87                   -0.769293        0.322941
1.871                  -0.768959        0.323169
1.872                  -0.768624          0.3234
1.873                  -0.768288        0.323633
1.874                  -0.767948        0.323866
1.875                  -0.767606        0.324099
1.876                   -0.76726        0.324331
1.877                  -0.766911         0.32456
1.878                  -0.766558        0.324785
1.879                  -0.766202        0.325005
1.88                   -0.765844        0.325219
1.881                  -0.765483        0.325425
1.882                  -0.765122        0.325623
1.883                   -0.76476        0.325813
1.884                    -0.7644        0.325992
1.885                  -0.764042        0.326161
1.886                  -0.763689         0.32632
1.887                   -0.76334        0.326468
1.888                  -0.762999        0.326606
1.889                  -0.762666        0.326734
1.89                   -0.762342        0.326853
1.891                  -0.762029        0.326963
1.892                  -0.761729        0.327066
1.893                  -0.761442        0.327163
1.894                  -0.761169        0.327255
1.895                   -0.76091        0.327343
1.896                  -0.760667        0.327429
1.897                   -0.76044        0.327516
1.898                  -0.760228        0.327604
1.899                  -0.760031        0.327695
1.9                     -0.75985        0.327791
1.901                  -0.759683        0.327894
1.902                  -0.759529        0.328005
1.903                  -0.759387        0.328124
1.904                  -0.759257        0.328255
1.905                  -0.759136        0.328397
1.906                  -0.759023        0.328552
1.907                  -0.758917        0.328719
1.908                  -0.758815        0.328899
1.909                  -0.758717        0.329094
1.91                    -0.75862        0.329301
1.911                  -0.758523        0.329521
1.912                  -0.758424        0.329753
1.913                  -0.758322        0.329996
1.914                  -0.758215         0.33025
1.915                  -0.758103        0.330513
1.916                  -0.757984        0.330784
1.917                  -0.757858        0.331061
1.918                  -0.757724        0.331343
1.919                  -0.757583        0.331628
1.92                   -0.757433        0.331915
1.921                  -0.757277        0.332203
1.922                  -0.757113        0.332489
1.923                  -0.756943        0.332773
1.924                  -0.756768        0.333053
1.925                  -0.756589        0.333329
1.926                  -0.756406        0.333599
1.927                  -0.756223        0.333864
1.928                  -0.756039        0.334122
1.929                  -0.755856        0.334373
1.93                   -0.755677        0.334619
1.931                  -0.755502        0.334858
1.932                  -0.755332        0.335093
1.933                   -0.75517        0.335323
1.934                  -0.755016         0.33555
1.935                   -0.75487        0.335775
1.936                  -0.754735        0.335999
1.937                   -0.75461        0.336225
1.938                  -0.754496        0.336453
1.939                  -0.754392        0.336685
1.94                   -0.754299        0.336924
1.941                  -0.754216         0.33717
1.942                  -0.754142        0.337425
1.943                  -0.754076        0.337692
1.944                  -0.754017         0.33797
1.945                  -0.753963        0.338262
1.946                  -0.753913        0.338567
1.947                  -0.753866        0.338888
1.948                  -0.753818        0.339224
1.949                  -0.753769        0.339576
1.95                   -0.753716        0.339943
1.951                  -0.753658        0.340325
1.952                  -0.753592        0.340722
1.953                  -0.753517        0.341132
1.954                  -0.753431        0.341554
1.955                  -0.753332        0.341987
1.956                   -0.75322        0.342429
1.957                  -0.753093        0.342879
1.958                  -0.752951        0.343335
1.959                  -0.752793        0.343794
1.96                   -0.752619        0.344254
1.961                  -0.752429        0.344714
1.962                  -0.752223        0.345172
1.963                  -0.752003        0.345625
1.964                  -0.751769        0.346072
1.965                  -0.751522        0.346511
1.966                  -0.751263         0.34694
1.967                  -0.750995        0.347359
1.968                  -0.750719        0.347767
1.969                  -0.750438        0.348162
1.97                   -0.750152        0.348545
1.971                  -0.749864        0.348916
1.972                  -0.749576        0.349273
1.973                   -0.74929        0.349619
1.974                  -0.749007        0.349955
1.975                   -0.74873        0.350279
1.976                  -0.748459        0.350596
1.977                  -0.748196        0.350905
1.978                  -0.747941        0.351209
1.979                  -0.747697        0.351509
1.98                   -0.747462        0.351807
1.981                  -0.747236        0.352106
1.982                  -0.747021        0.352406
1.983                  -0.746814         0.35271
1.984                  -0.746616         0.35302
1.985                  -0.746424        0.353337
1.986                  -0.746239        0.353663
1.987                  -0.746058        0.353998
1.988                  -0.745879        0.354344
1.989                    -0.7457        0.354702
1.99                   -0.745521        0.355071
1.991                  -0.745337        0.355452
1.992                  -0.745148        0.355844
1.993                  -0.744952        0.356247
1.994                  -0.744746        0.356659
1.995                  -0.744529        0.357081
1.996                    -0.7443        0.357509
1.997                  -0.744056        0.357943
1.998                  -0.743797         0.35838
1.999                  -0.743522        0.358818
2                      -0.743232        0.359255
