! TOUCHSTONE file generated by CST MICROWAVE STUDIO
! Date and time: Tue Aug  4 15:55:26 2026
! Project name: Sonda-Coaxial_21mm_DisifixB_v2_Agua_Dest.cst
! Parameters = {h_recipiente=20; l_conector=5; r_arandela=35; r_ext=10.5; r_int=3; r_recipiente=50; z_recipiente=-20}
! Header version: 2018
! Port assignment regex: !\s*Touchstone port\s*([0-9]+)\s*=\s*(CST MWS port|CST DS port)\s*([0-9]+|Zmin|Zmax)\s*\(\"(.*)\"\)(\s*mode\s*([0-9]+))?.*
! Touchstone port assignment:
! Touchstone port 1 = CST MWS port 1 ("")
# GHz S RI R 50
0.001                    1.01231     -0.00799609
0.002                    1.01214      -0.0159871
0.003                    1.01186       -0.023968
0.004                    1.01147      -0.0319338
0.005                    1.01097      -0.0398796
0.006                    1.01036      -0.0478005
0.007                    1.00964       -0.055692
0.008                    1.00883      -0.0635495
0.009                     1.0079      -0.0713688
0.01                     1.00689      -0.0791457
0.011                    1.00577      -0.0868764
0.012                    1.00457      -0.0945573
0.013                    1.00327       -0.102185
0.014                     1.0019       -0.109757
0.015                    1.00044       -0.117269
0.016                   0.998905       -0.124721
0.017                   0.997301       -0.132109
0.018                   0.995629       -0.139432
0.019                   0.993896       -0.146688
0.02                    0.992105       -0.153877
0.021                   0.990261       -0.160998
0.022                   0.988368        -0.16805
0.023                   0.986432       -0.175034
0.024                   0.984457       -0.181949
0.025                   0.982447       -0.188798
0.026                   0.980406       -0.195579
0.027                   0.978339       -0.202296
0.028                    0.97625       -0.208949
0.029                   0.974143       -0.215541
0.03                    0.972021       -0.222074
0.031                   0.969888        -0.22855
0.032                   0.967746       -0.234972
0.033                     0.9656       -0.241343
0.034                   0.963451       -0.247667
0.035                   0.961301       -0.253946
0.036                   0.959153       -0.260184
0.037                   0.957008       -0.266384
0.038                   0.954868        -0.27255
0.039                   0.952734       -0.278687
0.04                    0.950606       -0.284797
0.041                   0.948485       -0.290884
0.042                    0.94637       -0.296953
0.043                   0.944262       -0.303007
0.044                    0.94216       -0.309049
0.045                   0.940063       -0.315083
0.046                   0.937969       -0.321113
0.047                   0.935878       -0.327141
0.048                   0.933787       -0.333172
0.049                   0.931694       -0.339207
0.05                    0.929597        -0.34525
0.051                   0.927493       -0.351303
0.052                    0.92538       -0.357369
0.053                   0.923254       -0.363449
0.054                   0.921113       -0.369544
0.055                   0.918953       -0.375657
0.056                   0.916771       -0.381789
0.057                   0.914564        -0.38794
0.058                   0.912328       -0.394111
0.059                   0.910059       -0.400303
0.06                    0.907754       -0.406514
0.061                    0.90541       -0.412744
0.062                   0.903022       -0.418994
0.063                   0.900587       -0.425261
0.064                   0.898103       -0.431545
0.065                   0.895565       -0.437844
0.066                   0.892971       -0.444156
0.067                   0.890318       -0.450478
0.068                   0.887603       -0.456809
0.069                   0.884824       -0.463146
0.07                    0.881977       -0.469486
0.071                   0.879062       -0.475825
0.072                   0.876076       -0.482162
0.073                   0.873017       -0.488491
0.074                   0.869885        -0.49481
0.075                   0.866677       -0.501115
0.076                   0.863394       -0.507403
0.077                   0.860036        -0.51367
0.078                   0.856601       -0.519911
0.079                    0.85309       -0.526123
0.08                    0.849503       -0.532303
0.081                   0.845842       -0.538446
0.082                   0.842107       -0.544549
0.083                   0.838299       -0.550608
0.084                    0.83442        -0.55662
0.085                   0.830473       -0.562581
0.086                   0.826458       -0.568488
0.087                   0.822379       -0.574339
0.088                   0.818237       -0.580129
0.089                   0.814037       -0.585857
0.09                    0.809779       -0.591521
0.091                   0.805469       -0.597117
0.092                   0.801109       -0.602645
0.093                   0.796702       -0.608102
0.094                   0.792252       -0.613486
0.095                   0.787762       -0.618798
0.096                   0.783237       -0.624035
0.097                   0.778679       -0.629198
0.098                   0.774092       -0.634286
0.099                   0.769481       -0.639299
0.1                     0.764848       -0.644238
0.101                   0.760198       -0.649102
0.102                   0.755533       -0.653893
0.103                   0.750857       -0.658611
0.104                   0.746173       -0.663258
0.105                   0.741485       -0.667836
0.106                   0.736796       -0.672346
0.107                   0.732108        -0.67679
0.108                   0.727423       -0.681171
0.109                   0.722745        -0.68549
0.11                    0.718075        -0.68975
0.111                   0.713416       -0.693953
0.112                   0.708768       -0.698104
0.113                   0.704134       -0.702203
0.114                   0.699514       -0.706255
0.115                   0.694911       -0.710261
0.116                   0.690323       -0.714226
0.117                   0.685753       -0.718151
0.118                   0.681199        -0.72204
0.119                   0.676662       -0.725896
0.12                    0.672141       -0.729722
0.121                   0.667638       -0.733519
0.122                   0.663149       -0.737292
0.123                   0.658674       -0.741043
0.124                   0.654212       -0.744774
0.125                   0.649762       -0.748487
0.126                   0.645322       -0.752184
0.127                    0.64089       -0.755868
0.128                   0.636464        -0.75954
0.129                   0.632042       -0.763202
0.13                    0.627623       -0.766855
0.131                   0.623204         -0.7705
0.132                   0.618782       -0.774138
0.133                   0.614355        -0.77777
0.134                   0.609922       -0.781395
0.135                   0.605478       -0.785015
0.136                   0.601022       -0.788629
0.137                   0.596551       -0.792237
0.138                   0.592064       -0.795838
0.139                   0.587558       -0.799432
0.14                     0.58303       -0.803017
0.141                   0.578479       -0.806593
0.142                   0.573902       -0.810158
0.143                   0.569298        -0.81371
0.144                   0.564665       -0.817248
0.145                   0.560001        -0.82077
0.146                   0.555305       -0.824274
0.147                   0.550577       -0.827757
0.148                   0.545815       -0.831218
0.149                   0.541018       -0.834654
0.15                    0.536185       -0.838062
0.151                   0.531317       -0.841441
0.152                   0.526414       -0.844787
0.153                   0.521476       -0.848098
0.154                   0.516501       -0.851371
0.155                   0.511492       -0.854605
0.156                   0.506451       -0.857796
0.157                   0.501375       -0.860942
0.158                   0.496269       -0.864041
0.159                   0.491133        -0.86709
0.16                    0.485969       -0.870088
0.161                   0.480778       -0.873033
0.162                   0.475562       -0.875922
0.163                   0.470324       -0.878753
0.164                   0.465066       -0.881527
0.165                   0.459791        -0.88424
0.166                   0.454499       -0.886893
0.167                   0.449196       -0.889483
0.168                   0.443882       -0.892011
0.169                   0.438562       -0.894476
0.17                    0.433237       -0.896878
0.171                   0.427911       -0.899216
0.172                   0.422586       -0.901491
0.173                   0.417265       -0.903703
0.174                   0.411951       -0.905853
0.175                   0.406646       -0.907941
0.176                   0.401353       -0.909969
0.177                   0.396075       -0.911938
0.178                   0.390814       -0.913849
0.179                   0.385572       -0.915704
0.18                    0.380352       -0.917505
0.181                   0.375155       -0.919253
0.182                   0.369983       -0.920951
0.183                   0.364839       -0.922601
0.184                   0.359722       -0.924205
0.185                   0.354636       -0.925766
0.186                    0.34958       -0.927286
0.187                   0.344555       -0.928767
0.188                   0.339563       -0.930213
0.189                   0.334603       -0.931626
0.19                    0.329677       -0.933008
0.191                   0.324783       -0.934363
0.192                   0.319922       -0.935692
0.193                   0.315093       -0.936999
0.194                   0.310295       -0.938286
0.195                   0.305529       -0.939555
0.196                   0.300792       -0.940809
0.197                   0.296083        -0.94205
0.198                   0.291402       -0.943279
0.199                   0.286746       -0.944499
0.2                     0.282114       -0.945712
0.201                   0.277504        -0.94692
0.202                   0.272915       -0.948122
0.203                   0.268343       -0.949322
0.204                   0.263788        -0.95052
0.205                   0.259246       -0.951716
0.206                   0.254716       -0.952912
0.207                   0.250194       -0.954108
0.208                    0.24568       -0.955304
0.209                   0.241171         -0.9565
0.21                    0.236664       -0.957696
0.211                   0.232157       -0.958891
0.212                   0.227649       -0.960085
0.213                   0.223136       -0.961278
0.214                   0.218617       -0.962467
0.215                   0.214091       -0.963653
0.216                   0.209554       -0.964833
0.217                   0.205006       -0.966006
0.218                   0.200446       -0.967171
0.219                   0.195871       -0.968325
0.22                    0.191281       -0.969467
0.221                   0.186674       -0.970595
0.222                   0.182051       -0.971706
0.223                    0.17741       -0.972799
0.224                   0.172751       -0.973872
0.225                   0.168074       -0.974921
0.226                   0.163378       -0.975946
0.227                   0.158665       -0.976943
0.228                   0.153934        -0.97791
0.229                   0.149186       -0.978846
0.23                    0.144422       -0.979747
0.231                   0.139644       -0.980613
0.232                   0.134852        -0.98144
0.233                   0.130047       -0.982228
0.234                   0.125232       -0.982974
0.235                   0.120408       -0.983677
0.236                   0.115577       -0.984335
0.237                   0.110741       -0.984948
0.238                   0.105902       -0.985513
0.239                   0.101062        -0.98603
0.24                   0.0962242       -0.986498
0.241                  0.0913904       -0.986917
0.242                  0.0865629       -0.987287
0.243                  0.0817448       -0.987606
0.244                  0.0769383       -0.987876
0.245                  0.0721458       -0.988096
0.246                  0.0673699       -0.988268
0.247                   0.062613       -0.988391
0.248                  0.0578778       -0.988466
0.249                  0.0531661       -0.988496
0.25                   0.0484807        -0.98848
0.251                  0.0438232       -0.988421
0.252                  0.0391959        -0.98832
0.253                  0.0346006       -0.988179
0.254                  0.0300389          -0.988
0.255                  0.0255129       -0.987785
0.256                  0.0210233       -0.987536
0.257                  0.0165716       -0.987256
0.258                  0.0121589       -0.986948
0.259                 0.00778581       -0.986612
0.26                  0.00345299       -0.986253
0.261               -0.000839208       -0.985873
0.262                 -0.0050905       -0.985474
0.263                 -0.0093009        -0.98506
0.264                 -0.0134709       -0.984632
0.265                 -0.0176011       -0.984194
0.266                 -0.0216917       -0.983747
0.267                  -0.025744       -0.983295
0.268                 -0.0297592        -0.98284
0.269                 -0.0337382       -0.982384
0.27                  -0.0376828        -0.98193
0.271                 -0.0415946       -0.981478
0.272                 -0.0454753       -0.981032
0.273                 -0.0493273       -0.980593
0.274                 -0.0531521       -0.980163
0.275                 -0.0569525       -0.979742
0.276                 -0.0607308       -0.979333
0.277                 -0.0644889       -0.978935
0.278                 -0.0682297       -0.978551
0.279                  -0.071956       -0.978179
0.28                  -0.0756698       -0.977821
0.281                 -0.0793741       -0.977477
0.282                 -0.0830716       -0.977147
0.283                 -0.0867645       -0.976829
0.284                 -0.0904557       -0.976524
0.285                 -0.0941474       -0.976231
0.286                 -0.0978419       -0.975949
0.287                  -0.101542       -0.975676
0.288                  -0.105249       -0.975411
0.289                  -0.108966       -0.975153
0.29                   -0.112694       -0.974899
0.291                  -0.116435       -0.974648
0.292                  -0.120191       -0.974398
0.293                  -0.123963       -0.974145
0.294                  -0.127752       -0.973889
0.295                  -0.131558       -0.973627
0.296                  -0.135384       -0.973355
0.297                  -0.139229       -0.973072
0.298                  -0.143093       -0.972774
0.299                  -0.146977        -0.97246
0.3                     -0.15088       -0.972126
0.301                  -0.154802        -0.97177
0.302                  -0.158742       -0.971389
0.303                  -0.162699       -0.970981
0.304                  -0.166673       -0.970543
0.305                  -0.170661       -0.970072
0.306                  -0.174662       -0.969568
0.307                  -0.178675       -0.969027
0.308                  -0.182697       -0.968447
0.309                  -0.186727       -0.967828
0.31                   -0.190761       -0.967166
0.311                  -0.194798       -0.966461
0.312                  -0.198835       -0.965712
0.313                   -0.20287       -0.964917
0.314                  -0.206899       -0.964076
0.315                   -0.21092       -0.963188
0.316                   -0.21493       -0.962254
0.317                  -0.218926       -0.961272
0.318                  -0.222904       -0.960244
0.319                  -0.226863       -0.959169
0.32                   -0.230799        -0.95805
0.321                   -0.23471       -0.956885
0.322                  -0.238593       -0.955677
0.323                  -0.242444       -0.954428
0.324                  -0.246262       -0.953138
0.325                  -0.250045        -0.95181
0.326                  -0.253789       -0.950446
0.327                  -0.257494       -0.949049
0.328                  -0.261156        -0.94762
0.329                  -0.264776       -0.946162
0.33                    -0.26835       -0.944679
0.331                  -0.271879       -0.943173
0.332                   -0.27536       -0.941647
0.333                  -0.278794       -0.940105
0.334                   -0.28218       -0.938549
0.335                  -0.285519       -0.936982
0.336                  -0.288809       -0.935409
0.337                  -0.292052       -0.933832
0.338                  -0.295249       -0.932254
0.339                    -0.2984       -0.930678
0.34                   -0.301506       -0.929108
0.341                   -0.30457       -0.927547
0.342                  -0.307593       -0.925997
0.343                  -0.310577       -0.924461
0.344                  -0.313525       -0.922942
0.345                  -0.316439       -0.921441
0.346                  -0.319321       -0.919961
0.347                  -0.322176       -0.918504
0.348                  -0.325005       -0.917072
0.349                  -0.327813       -0.915665
0.35                   -0.330602       -0.914285
0.351                  -0.333377       -0.912933
0.352                   -0.33614       -0.911609
0.353                  -0.338897       -0.910312
0.354                  -0.341649       -0.909044
0.355                  -0.344402       -0.907804
0.356                  -0.347159        -0.90659
0.357                  -0.349923       -0.905402
0.358                  -0.352699       -0.904237
0.359                   -0.35549       -0.903095
0.36                   -0.358299       -0.901972
0.361                  -0.361129       -0.900867
0.362                  -0.363984       -0.899777
0.363                  -0.366867       -0.898698
0.364                   -0.36978       -0.897628
0.365                  -0.372725       -0.896562
0.366                  -0.375705       -0.895497
0.367                  -0.378721       -0.894428
0.368                  -0.381776       -0.893352
0.369                   -0.38487       -0.892264
0.37                   -0.388004       -0.891159
0.371                  -0.391179       -0.890032
0.372                  -0.394393       -0.888878
0.373                  -0.397648       -0.887694
0.374                  -0.400943       -0.886473
0.375                  -0.404276       -0.885211
0.376                  -0.407646       -0.883902
0.377                  -0.411051       -0.882543
0.378                  -0.414488       -0.881127
0.379                  -0.417955       -0.879651
0.38                   -0.421449       -0.878109
0.381                  -0.424965       -0.876498
0.382                  -0.428501       -0.874814
0.383                  -0.432051       -0.873052
0.384                  -0.435611       -0.871208
0.385                  -0.439176       -0.869281
0.386                  -0.442741       -0.867265
0.387                    -0.4463        -0.86516
0.388                  -0.449848       -0.862962
0.389                  -0.453378        -0.86067
0.39                   -0.456884       -0.858282
0.391                  -0.460358       -0.855798
0.392                  -0.463797       -0.853217
0.393                   -0.46719       -0.850538
0.394                  -0.470533       -0.847763
0.395                  -0.473819       -0.844891
0.396                   -0.47704       -0.841925
0.397                  -0.480189       -0.838867
0.398                   -0.48326       -0.835718
0.399                  -0.486247       -0.832482
0.4                    -0.489142       -0.829162
0.401                  -0.491938       -0.825762
0.402                  -0.494631       -0.822286
0.403                  -0.497214       -0.818739
0.404                   -0.49968       -0.815126
0.405                  -0.502026       -0.811454
0.406                  -0.504245       -0.807727
0.407                  -0.506334       -0.803953
0.408                  -0.508287       -0.800138
0.409                  -0.510101        -0.79629
0.41                   -0.511772       -0.792416
0.411                  -0.513298       -0.788524
0.412                  -0.514676       -0.784622
0.413                  -0.515904       -0.780718
0.414                   -0.51698       -0.776821
0.415                  -0.517904       -0.772939
0.416                  -0.518676        -0.76908
0.417                  -0.519295       -0.765255
0.418                  -0.519763        -0.76147
0.419                   -0.52008       -0.757736
0.42                   -0.520249       -0.754061
0.421                  -0.520272       -0.750454
0.422                  -0.520153       -0.746923
0.423                  -0.519894       -0.743476
0.424                  -0.519501       -0.740122
0.425                  -0.518977       -0.736868
0.426                  -0.518329       -0.733724
0.427                  -0.517561       -0.730694
0.428                   -0.51668       -0.727788
0.429                  -0.515693        -0.72501
0.43                   -0.514607       -0.722369
0.431                  -0.513429       -0.719868
0.432                  -0.512167       -0.717515
0.433                   -0.51083       -0.715313
0.434                  -0.509427       -0.713267
0.435                  -0.507965        -0.71138
0.436                  -0.506454       -0.709657
0.437                  -0.504904       -0.708099
0.438                  -0.503324       -0.706708
0.439                  -0.501723       -0.705487
0.44                   -0.500111       -0.704435
0.441                  -0.498499       -0.703554
0.442                  -0.496895       -0.702843
0.443                  -0.495309       -0.702301
0.444                  -0.493752       -0.701926
0.445                  -0.492232       -0.701716
0.446                   -0.49076       -0.701669
0.447                  -0.489343       -0.701781
0.448                  -0.487992       -0.702048
0.449                  -0.486714       -0.702466
0.45                   -0.485519        -0.70303
0.451                  -0.484414       -0.703734
0.452                  -0.483406       -0.704572
0.453                  -0.482504       -0.705539
0.454                  -0.481714       -0.706626
0.455                  -0.481042       -0.707827
0.456                  -0.480495       -0.709134
0.457                  -0.480077       -0.710539
0.458                  -0.479793       -0.712035
0.459                  -0.479648       -0.713612
0.46                   -0.479645       -0.715261
0.461                  -0.479788       -0.716975
0.462                  -0.480079       -0.718743
0.463                   -0.48052       -0.720558
0.464                  -0.481113       -0.722409
0.465                  -0.481858       -0.724287
0.466                  -0.482756       -0.726183
0.467                  -0.483807       -0.728089
0.468                  -0.485008       -0.729995
0.469                   -0.48636       -0.731891
0.47                   -0.487859       -0.733771
0.471                  -0.489505       -0.735624
0.472                  -0.491292       -0.737443
0.473                  -0.493218       -0.739219
0.474                  -0.495278       -0.740946
0.475                   -0.49747       -0.742615
0.476                  -0.499787        -0.74422
0.477                  -0.502223       -0.745754
0.478                  -0.504775       -0.747211
0.479                  -0.507435       -0.748585
0.48                   -0.510198       -0.749871
0.481                  -0.513056       -0.751063
0.482                  -0.516004       -0.752158
0.483                  -0.519034       -0.753152
0.484                  -0.522139       -0.754041
0.485                  -0.525312       -0.754822
0.486                  -0.528546       -0.755493
0.487                  -0.531833       -0.756052
0.488                  -0.535167       -0.756497
0.489                  -0.538539       -0.756828
0.49                   -0.541942       -0.757044
0.491                   -0.54537       -0.757145
0.492                  -0.548814       -0.757132
0.493                   -0.55227       -0.757005
0.494                  -0.555728       -0.756766
0.495                  -0.559183       -0.756417
0.496                  -0.562628       -0.755959
0.497                  -0.566057       -0.755396
0.498                  -0.569465        -0.75473
0.499                  -0.572846       -0.753965
0.5                    -0.576195       -0.753103
0.501                  -0.579506        -0.75215
0.502                  -0.582776       -0.751108
0.503                  -0.585999       -0.749983
0.504                  -0.589172       -0.748778
0.505                  -0.592292       -0.747499
0.506                  -0.595355        -0.74615
0.507                  -0.598358       -0.744736
0.508                  -0.601301       -0.743262
0.509                  -0.604179       -0.741734
0.51                   -0.606992       -0.740155
0.511                  -0.609738       -0.738532
0.512                  -0.612417        -0.73687
0.513                  -0.615028       -0.735173
0.514                  -0.617571       -0.733446
0.515                  -0.620046       -0.731695
0.516                  -0.622454       -0.729923
0.517                  -0.624796       -0.728136
0.518                  -0.627072       -0.726338
0.519                  -0.629284       -0.724534
0.52                   -0.631433       -0.722726
0.521                  -0.633523        -0.72092
0.522                  -0.635554       -0.719119
0.523                   -0.63753       -0.717325
0.524                  -0.639452       -0.715543
0.525                  -0.641324       -0.713776
0.526                  -0.643148       -0.712025
0.527                  -0.644927       -0.710293
0.528                  -0.646664       -0.708582
0.529                  -0.648363       -0.706894
0.53                   -0.650027       -0.705231
0.531                  -0.651659       -0.703593
0.532                  -0.653261       -0.701982
0.533                  -0.654838       -0.700399
0.534                  -0.656393       -0.698843
0.535                  -0.657928       -0.697316
0.536                  -0.659447       -0.695816
0.537                  -0.660953       -0.694344
0.538                  -0.662448       -0.692899
0.539                  -0.663937        -0.69148
0.54                    -0.66542       -0.690086
0.541                  -0.666901       -0.688717
0.542                  -0.668381       -0.687371
0.543                  -0.669865       -0.686046
0.544                  -0.671352       -0.684742
0.545                  -0.672845       -0.683455
0.546                  -0.674347       -0.682184
0.547                  -0.675857       -0.680928
0.548                  -0.677378       -0.679685
0.549                   -0.67891       -0.678451
0.55                   -0.680455       -0.677226
0.551                  -0.682012       -0.676007
0.552                  -0.683583       -0.674791
0.553                  -0.685169       -0.673577
0.554                  -0.686767       -0.672363
0.555                   -0.68838       -0.671147
0.556                  -0.690005       -0.669926
0.557                  -0.691644       -0.668699
0.558                  -0.693296       -0.667463
0.559                  -0.694958       -0.666217
0.56                   -0.696632        -0.66496
0.561                  -0.698315       -0.663689
0.562                  -0.700006       -0.662403
0.563                  -0.701705       -0.661101
0.564                   -0.70341       -0.659782
0.565                  -0.705118       -0.658445
0.566                   -0.70683       -0.657088
0.567                  -0.708542       -0.655711
0.568                  -0.710255       -0.654314
0.569                  -0.711965       -0.652895
0.57                   -0.713671       -0.651455
0.571                  -0.715372       -0.649994
0.572                  -0.717065       -0.648511
0.573                   -0.71875       -0.647007
0.574                  -0.720424       -0.645481
0.575                  -0.722087       -0.643935
0.576                  -0.723735       -0.642369
0.577                  -0.725368       -0.640784
0.578                  -0.726986        -0.63918
0.579                  -0.728585       -0.637558
0.58                   -0.730165       -0.635919
0.581                  -0.731725       -0.634265
0.582                  -0.733264       -0.632597
0.583                  -0.734781       -0.630916
0.584                  -0.736275       -0.629223
0.585                  -0.737745        -0.62752
0.586                  -0.739192       -0.625808
0.587                  -0.740614       -0.624088
0.588                  -0.742011       -0.622363
0.589                  -0.743383       -0.620633
0.59                   -0.744731         -0.6189
0.591                  -0.746053       -0.617167
0.592                  -0.747351       -0.615433
0.593                  -0.748624         -0.6137
0.594                  -0.749872       -0.611971
0.595                  -0.751098       -0.610246
0.596                  -0.752301       -0.608527
0.597                  -0.753482       -0.606814
0.598                  -0.754641        -0.60511
0.599                   -0.75578       -0.603415
0.6                    -0.756901       -0.601729
0.601                  -0.758002       -0.600056
0.602                  -0.759087       -0.598393
0.603                  -0.760156       -0.596743
0.604                   -0.76121       -0.595107
0.605                  -0.762251       -0.593484
0.606                   -0.76328       -0.591876
0.607                  -0.764297       -0.590281
0.608                  -0.765306       -0.588702
0.609                  -0.766306       -0.587137
0.61                     -0.7673       -0.585586
0.611                  -0.768288        -0.58405
0.612                  -0.769272       -0.582528
0.613                  -0.770254       -0.581021
0.614                  -0.771233       -0.579526
0.615                  -0.772212       -0.578045
0.616                  -0.773191       -0.576576
0.617                  -0.774172       -0.575118
0.618                  -0.775155       -0.573671
0.619                  -0.776142       -0.572235
0.62                   -0.777133       -0.570807
0.621                  -0.778129       -0.569387
0.622                   -0.77913       -0.567975
0.623                  -0.780138       -0.566568
0.624                  -0.781152       -0.565167
0.625                  -0.782174        -0.56377
0.626                  -0.783202       -0.562375
0.627                  -0.784239       -0.560982
0.628                  -0.785282       -0.559588
0.629                  -0.786334       -0.558195
0.63                   -0.787392         -0.5568
0.631                  -0.788458       -0.555402
0.632                  -0.789532       -0.553999
0.633                  -0.790611       -0.552592
0.634                  -0.791697       -0.551178
0.635                  -0.792789       -0.549758
0.636                  -0.793886       -0.548329
0.637                  -0.794987       -0.546892
0.638                  -0.796093       -0.545445
0.639                    -0.7972       -0.543989
0.64                   -0.798311        -0.54252
0.641                  -0.799422       -0.541041
0.642                  -0.800534       -0.539549
0.643                  -0.801645       -0.538045
0.644                  -0.802755       -0.536529
0.645                  -0.803862       -0.534999
0.646                  -0.804966       -0.533455
0.647                  -0.806066       -0.531899
0.648                  -0.807159       -0.530329
0.649                  -0.808247       -0.528746
0.65                   -0.809326       -0.527149
0.651                  -0.810398        -0.52554
0.652                   -0.81146       -0.523918
0.653                  -0.812512       -0.522284
0.654                  -0.813553       -0.520638
0.655                  -0.814582        -0.51898
0.656                  -0.815598       -0.517312
0.657                  -0.816601       -0.515633
0.658                   -0.81759       -0.513945
0.659                  -0.818565       -0.512248
0.66                   -0.819524       -0.510543
0.661                  -0.820468       -0.508831
0.662                  -0.821396       -0.507112
0.663                  -0.822307       -0.505387
0.664                  -0.823202       -0.503658
0.665                  -0.824081       -0.501924
0.666                  -0.824942       -0.500188
0.667                  -0.825787       -0.498449
0.668                  -0.826615       -0.496709
0.669                  -0.827426       -0.494968
0.67                    -0.82822       -0.493227
0.671                  -0.828999       -0.491488
0.672                  -0.829761        -0.48975
0.673                  -0.830507       -0.488016
0.674                  -0.831239       -0.486284
0.675                  -0.831956       -0.484556
0.676                  -0.832658       -0.482833
0.677                  -0.833347       -0.481115
0.678                  -0.834024       -0.479402
0.679                  -0.834687       -0.477696
0.68                    -0.83534       -0.475996
0.681                  -0.835981       -0.474303
0.682                  -0.836612       -0.472617
0.683                  -0.837234       -0.470938
0.684                  -0.837847       -0.469266
0.685                  -0.838452       -0.467602
0.686                   -0.83905       -0.465945
0.687                  -0.839643       -0.464295
0.688                  -0.840229       -0.462652
0.689                  -0.840811       -0.461017
0.69                   -0.841388       -0.459387
0.691                  -0.841963       -0.457764
0.692                  -0.842535       -0.456147
0.693                  -0.843105       -0.454535
0.694                  -0.843673       -0.452928
0.695                   -0.84424       -0.451325
0.696                  -0.844808       -0.449725
0.697                  -0.845375       -0.448128
0.698                  -0.845943       -0.446534
0.699                  -0.846511        -0.44494
0.7                    -0.847081       -0.443347
0.701                  -0.847652       -0.441754
0.702                  -0.848224       -0.440159
0.703                  -0.848797       -0.438563
0.704                  -0.849373       -0.436963
0.705                  -0.849949       -0.435359
0.706                  -0.850527        -0.43375
0.707                  -0.851105       -0.432136
0.708                  -0.851684       -0.430515
0.709                  -0.852264       -0.428886
0.71                   -0.852843       -0.427249
0.711                  -0.853421       -0.425602
0.712                  -0.853998       -0.423945
0.713                  -0.854573       -0.422277
0.714                  -0.855145       -0.420597
0.715                  -0.855713       -0.418905
0.716                  -0.856277         -0.4172
0.717                  -0.856835       -0.415481
0.718                  -0.857386       -0.413747
0.719                   -0.85793       -0.411999
0.72                   -0.858466       -0.410236
0.721                  -0.858991       -0.408456
0.722                  -0.859506       -0.406661
0.723                  -0.860007        -0.40485
0.724                  -0.860496       -0.403022
0.725                  -0.860969       -0.401178
0.726                  -0.861427       -0.399317
0.727                  -0.861866        -0.39744
0.728                  -0.862287       -0.395547
0.729                  -0.862687       -0.393638
0.73                   -0.863066       -0.391714
0.731                  -0.863421       -0.389774
0.732                  -0.863752        -0.38782
0.733                  -0.864057       -0.385853
0.734                  -0.864335       -0.383871
0.735                  -0.864584       -0.381878
0.736                  -0.864804       -0.379873
0.737                  -0.864992       -0.377858
0.738                  -0.865148       -0.375833
0.739                  -0.865271       -0.373801
0.74                   -0.865359       -0.371761
0.741                  -0.865411       -0.369715
0.742                  -0.865427       -0.367665
0.743                  -0.865405       -0.365613
0.744                  -0.865344       -0.363558
0.745                  -0.865245       -0.361505
0.746                  -0.865105       -0.359453
0.747                  -0.864924       -0.357405
0.748                  -0.864702       -0.355362
0.749                  -0.864439       -0.353326
0.75                   -0.864133         -0.3513
0.751                  -0.863785       -0.349284
0.752                  -0.863394       -0.347282
0.753                  -0.862961       -0.345295
0.754                  -0.862485       -0.343324
0.755                  -0.861967       -0.341373
0.756                  -0.861406       -0.339442
0.757                  -0.860803       -0.337535
0.758                  -0.860158       -0.335652
0.759                  -0.859473       -0.333797
0.76                   -0.858747       -0.331971
0.761                  -0.857981       -0.330177
0.762                  -0.857177       -0.328415
0.763                  -0.856335       -0.326689
0.764                  -0.855456       -0.324999
0.765                  -0.854542       -0.323349
0.766                  -0.853594        -0.32174
0.767                  -0.852613       -0.320173
0.768                  -0.851601       -0.318651
0.769                  -0.850559       -0.317176
0.77                    -0.84949       -0.315747
0.771                  -0.848394       -0.314369
0.772                  -0.847274        -0.31304
0.773                  -0.846132       -0.311765
0.774                  -0.844969       -0.310542
0.775                  -0.843789       -0.309375
0.776                  -0.842593       -0.308263
0.777                  -0.841383       -0.307208
0.778                  -0.840162        -0.30621
0.779                  -0.838933       -0.305271
0.78                   -0.837697       -0.304392
0.781                  -0.836457       -0.303571
0.782                  -0.835216       -0.302811
0.783                  -0.833977       -0.302112
0.784                  -0.832741       -0.301472
0.785                  -0.831512       -0.300894
0.786                  -0.830292       -0.300376
0.787                  -0.829085       -0.299919
0.788                  -0.827891       -0.299521
0.789                  -0.826715       -0.299183
0.79                   -0.825559       -0.298904
0.791                  -0.824425       -0.298683
0.792                  -0.823317       -0.298519
0.793                  -0.822235       -0.298411
0.794                  -0.821184       -0.298359
0.795                  -0.820166        -0.29836
0.796                  -0.819182       -0.298414
0.797                  -0.818236       -0.298518
0.798                  -0.817329       -0.298672
0.799                  -0.816465       -0.298873
0.8                    -0.815643        -0.29912
0.801                  -0.814868        -0.29941
0.802                  -0.814141       -0.299742
0.803                  -0.813463       -0.300113
0.804                  -0.812836       -0.300521
0.805                  -0.812262       -0.300964
0.806                  -0.811743       -0.301439
0.807                  -0.811279       -0.301944
0.808                  -0.810872       -0.302475
0.809                  -0.810523       -0.303032
0.81                   -0.810233        -0.30361
0.811                  -0.810002       -0.304207
0.812                  -0.809832        -0.30482
0.813                  -0.809722       -0.305446
0.814                  -0.809674       -0.306083
0.815                  -0.809688       -0.306728
0.816                  -0.809763       -0.307377
0.817                  -0.809899       -0.308029
0.818                  -0.810096        -0.30868
0.819                  -0.810355       -0.309326
0.82                   -0.810674       -0.309966
0.821                  -0.811052       -0.310598
0.822                   -0.81149       -0.311217
0.823                  -0.811985       -0.311821
0.824                  -0.812537       -0.312408
0.825                  -0.813145       -0.312975
0.826                  -0.813808        -0.31352
0.827                  -0.814523       -0.314041
0.828                   -0.81529       -0.314534
0.829                  -0.816106       -0.314999
0.83                   -0.816971       -0.315432
0.831                  -0.817881       -0.315831
0.832                  -0.818835       -0.316196
0.833                  -0.819832       -0.316524
0.834                  -0.820868       -0.316813
0.835                  -0.821942       -0.317062
0.836                  -0.823051        -0.31727
0.837                  -0.824194       -0.317436
0.838                  -0.825367       -0.317557
0.839                  -0.826568       -0.317634
0.84                   -0.827795       -0.317666
0.841                  -0.829046       -0.317651
0.842                  -0.830317       -0.317589
0.843                  -0.831607        -0.31748
0.844                  -0.832912       -0.317323
0.845                  -0.834231       -0.317119
0.846                  -0.835561       -0.316868
0.847                    -0.8369       -0.316568
0.848                  -0.838245       -0.316222
0.849                  -0.839593       -0.315828
0.85                   -0.840943       -0.315388
0.851                  -0.842292       -0.314903
0.852                  -0.843639       -0.314372
0.853                   -0.84498       -0.313797
0.854                  -0.846314       -0.313179
0.855                  -0.847639       -0.312519
0.856                  -0.848954       -0.311818
0.857                  -0.850256       -0.311077
0.858                  -0.851543       -0.310298
0.859                  -0.852814       -0.309482
0.86                   -0.854069        -0.30863
0.861                  -0.855304       -0.307743
0.862                  -0.856519       -0.306825
0.863                  -0.857713       -0.305876
0.864                  -0.858885       -0.304897
0.865                  -0.860034       -0.303891
0.866                  -0.861159       -0.302859
0.867                  -0.862259       -0.301803
0.868                  -0.863334       -0.300725
0.869                  -0.864383       -0.299626
0.87                   -0.865406       -0.298508
0.871                  -0.866403       -0.297373
0.872                  -0.867373       -0.296223
0.873                  -0.868317       -0.295058
0.874                  -0.869234       -0.293881
0.875                  -0.870125       -0.292694
0.876                  -0.870989       -0.291498
0.877                  -0.871828       -0.290294
0.878                  -0.872641       -0.289084
0.879                   -0.87343        -0.28787
0.88                   -0.874194       -0.286652
0.881                  -0.874934       -0.285432
0.882                  -0.875651       -0.284211
0.883                  -0.876346        -0.28299
0.884                  -0.877019       -0.281771
0.885                  -0.877671       -0.280554
0.886                  -0.878304        -0.27934
0.887                  -0.878917        -0.27813
0.888                  -0.879513       -0.276924
0.889                  -0.880091       -0.275724
0.89                   -0.880653       -0.274531
0.891                    -0.8812       -0.273343
0.892                  -0.881733       -0.272162
0.893                  -0.882253       -0.270989
0.894                   -0.88276       -0.269823
0.895                  -0.883256       -0.268665
0.896                  -0.883742       -0.267514
0.897                  -0.884219       -0.266372
0.898                  -0.884686       -0.265238
0.899                  -0.885146       -0.264111
0.9                    -0.885599       -0.262992
0.901                  -0.886046       -0.261881
0.902                  -0.886488       -0.260777
0.903                  -0.886925        -0.25968
0.904                  -0.887358        -0.25859
0.905                  -0.887787       -0.257506
0.906                  -0.888214       -0.256429
0.907                  -0.888639       -0.255357
0.908                  -0.889061       -0.254291
0.909                  -0.889482       -0.253229
0.91                   -0.889902       -0.252172
0.911                  -0.890322       -0.251119
0.912                  -0.890741       -0.250069
0.913                   -0.89116       -0.249022
0.914                  -0.891578       -0.247978
0.915                  -0.891997       -0.246936
0.916                  -0.892416       -0.245896
0.917                  -0.892835       -0.244857
0.918                  -0.893254       -0.243819
0.919                  -0.893673       -0.242781
0.92                   -0.894092       -0.241743
0.921                  -0.894512       -0.240705
0.922                  -0.894931       -0.239667
0.923                   -0.89535       -0.238627
0.924                  -0.895768       -0.237587
0.925                  -0.896186       -0.236545
0.926                  -0.896603       -0.235501
0.927                  -0.897019       -0.234456
0.928                  -0.897433       -0.233409
0.929                  -0.897846        -0.23236
0.93                   -0.898257       -0.231309
0.931                  -0.898666       -0.230255
0.932                  -0.899073         -0.2292
0.933                  -0.899478       -0.228143
0.934                   -0.89988       -0.227083
0.935                  -0.900279       -0.226022
0.936                  -0.900675       -0.224959
0.937                  -0.901068       -0.223894
0.938                  -0.901457       -0.222827
0.939                  -0.901844       -0.221759
0.94                   -0.902227       -0.220689
0.941                  -0.902606       -0.219619
0.942                  -0.902981       -0.218548
0.943                  -0.903353       -0.217475
0.944                  -0.903722       -0.216402
0.945                  -0.904087       -0.215329
0.946                  -0.904448       -0.214256
0.947                  -0.904806       -0.213183
0.948                  -0.905161        -0.21211
0.949                  -0.905513       -0.211037
0.95                   -0.905861       -0.209965
0.951                  -0.906207       -0.208893
0.952                   -0.90655       -0.207822
0.953                  -0.906891       -0.206752
0.954                   -0.90723       -0.205684
0.955                  -0.907567       -0.204616
0.956                  -0.907903       -0.203549
0.957                  -0.908237       -0.202483
0.958                   -0.90857       -0.201418
0.959                  -0.908902       -0.200354
0.96                   -0.909234       -0.199291
0.961                  -0.909566       -0.198228
0.962                  -0.909898       -0.197167
0.963                   -0.91023       -0.196105
0.964                  -0.910563       -0.195044
0.965                  -0.910897       -0.193983
0.966                  -0.911232       -0.192921
0.967                  -0.911569       -0.191859
0.968                  -0.911907       -0.190796
0.969                  -0.912247       -0.189731
0.97                   -0.912588       -0.188665
0.971                  -0.912932       -0.187597
0.972                  -0.913278       -0.186527
0.973                  -0.913627       -0.185453
0.974                  -0.913977       -0.184377
0.975                   -0.91433       -0.183296
0.976                  -0.914685       -0.182212
0.977                  -0.915042       -0.181122
0.978                  -0.915402       -0.180028
0.979                  -0.915763       -0.178928
0.98                   -0.916126       -0.177822
0.981                   -0.91649        -0.17671
0.982                  -0.916856        -0.17559
0.983                  -0.917223       -0.174464
0.984                   -0.91759       -0.173329
0.985                  -0.917957       -0.172187
0.986                  -0.918325       -0.171036
0.987                  -0.918692       -0.169876
0.988                  -0.919057       -0.168707
0.989                  -0.919422       -0.167528
0.99                   -0.919784        -0.16634
0.991                  -0.920144       -0.165142
0.992                  -0.920501       -0.163934
0.993                  -0.920854       -0.162715
0.994                  -0.921203       -0.161486
0.995                  -0.921547       -0.160247
0.996                  -0.921886       -0.158998
0.997                  -0.922219       -0.157737
0.998                  -0.922545       -0.156467
0.999                  -0.922864       -0.155186
1                      -0.923175       -0.153895
1.001                  -0.923478       -0.152594
1.002                  -0.923772       -0.151283
1.003                  -0.924056       -0.149962
1.004                  -0.924331       -0.148633
1.005                  -0.924595       -0.147294
1.006                  -0.924847       -0.145947
1.007                  -0.925089       -0.144591
1.008                  -0.925318       -0.143228
1.009                  -0.925535       -0.141858
1.01                   -0.925739        -0.14048
1.011                  -0.925929       -0.139097
1.012                  -0.926107       -0.137708
1.013                   -0.92627       -0.136313
1.014                   -0.92642       -0.134913
1.015                  -0.926556        -0.13351
1.016                  -0.926677       -0.132102
1.017                  -0.926783       -0.130692
1.018                  -0.926875       -0.129279
1.019                  -0.926953       -0.127865
1.02                   -0.927016       -0.126449
1.021                  -0.927064       -0.125032
1.022                  -0.927098       -0.123615
1.023                  -0.927118       -0.122198
1.024                  -0.927123       -0.120782
1.025                  -0.927114       -0.119367
1.026                  -0.927092       -0.117955
1.027                  -0.927055       -0.116544
1.028                  -0.927006       -0.115136
1.029                  -0.926943       -0.113731
1.03                   -0.926868       -0.112329
1.031                   -0.92678       -0.110932
1.032                  -0.926681       -0.109538
1.033                  -0.926569       -0.108148
1.034                  -0.926446       -0.106763
1.035                  -0.926313       -0.105383
1.036                  -0.926168       -0.104007
1.037                  -0.926014       -0.102636
1.038                   -0.92585       -0.101271
1.039                  -0.925676      -0.0999098
1.04                   -0.925493       -0.098554
1.041                  -0.925302      -0.0972034
1.042                  -0.925102      -0.0958576
1.043                  -0.924894      -0.0945161
1.044                  -0.924678        -0.09318
1.045                  -0.924455      -0.0918479
1.046                  -0.924224      -0.0905205
1.047                  -0.923987      -0.0891973
1.048                  -0.923742      -0.0878777
1.049                  -0.923491      -0.0865618
1.05                   -0.923233      -0.0852494
1.051                  -0.922968      -0.0839398
1.052                  -0.922697      -0.0826335
1.053                   -0.92242      -0.0813294
1.054                  -0.922136      -0.0800279
1.055                  -0.921845      -0.0787282
1.056                  -0.921548      -0.0774299
1.057                  -0.921243      -0.0761334
1.058                  -0.920932      -0.0748379
1.059                  -0.920614      -0.0735434
1.06                   -0.920287      -0.0722495
1.061                  -0.919953      -0.0709559
1.062                  -0.919611      -0.0696629
1.063                  -0.919261      -0.0683697
1.064                  -0.918901      -0.0670766
1.065                  -0.918532      -0.0657835
1.066                  -0.918154      -0.0644899
1.067                  -0.917765      -0.0631965
1.068                  -0.917366      -0.0619024
1.069                  -0.916955      -0.0606085
1.07                   -0.916533      -0.0593144
1.071                  -0.916099      -0.0580203
1.072                  -0.915652      -0.0567266
1.073                  -0.915191      -0.0554334
1.074                  -0.914717      -0.0541408
1.075                  -0.914229      -0.0528494
1.076                  -0.913727      -0.0515594
1.077                  -0.913209      -0.0502711
1.078                  -0.912675      -0.0489853
1.079                  -0.912125      -0.0477021
1.08                   -0.911559      -0.0464221
1.081                  -0.910975       -0.045146
1.082                  -0.910375      -0.0438745
1.083                  -0.909756      -0.0426081
1.084                   -0.90912      -0.0413475
1.085                  -0.908465      -0.0400934
1.086                  -0.907792      -0.0388467
1.087                    -0.9071      -0.0376079
1.088                  -0.906389      -0.0363778
1.089                  -0.905659      -0.0351577
1.09                    -0.90491      -0.0339478
1.091                  -0.904142      -0.0327496
1.092                  -0.903356      -0.0315635
1.093                   -0.90255      -0.0303903
1.094                  -0.901725      -0.0292309
1.095                  -0.900882      -0.0280867
1.096                  -0.900021       -0.026958
1.097                  -0.899141       -0.025846
1.098                  -0.898244      -0.0247515
1.099                  -0.897329      -0.0236751
1.1                    -0.896398      -0.0226177
1.101                   -0.89545      -0.0215804
1.102                  -0.894486      -0.0205636
1.103                  -0.893507      -0.0195686
1.104                  -0.892513      -0.0185953
1.105                  -0.891506      -0.0176453
1.106                  -0.890485      -0.0167185
1.107                  -0.889452      -0.0158163
1.108                  -0.888406      -0.0149385
1.109                   -0.88735      -0.0140864
1.11                   -0.886284      -0.0132598
1.111                  -0.885208      -0.0124596
1.112                  -0.884124      -0.0116862
1.113                  -0.883032        -0.01094
1.114                  -0.881933       -0.010221
1.115                  -0.880829     -0.00953006
1.116                   -0.87972     -0.00886721
1.117                  -0.878608      -0.0082322
1.118                  -0.877492     -0.00762594
1.119                  -0.876374     -0.00704814
1.12                   -0.875255     -0.00649871
1.121                  -0.874136     -0.00597794
1.122                  -0.873018     -0.00548593
1.123                  -0.871902      -0.0050222
1.124                  -0.870788     -0.00458721
1.125                  -0.869677     -0.00418029
1.126                  -0.868571     -0.00380151
1.127                   -0.86747     -0.00345038
1.128                  -0.866376     -0.00312738
1.129                  -0.865288     -0.00283162
1.13                   -0.864207     -0.00256299
1.131                  -0.863135     -0.00232119
1.132                  -0.862072     -0.00210553
1.133                  -0.861019     -0.00191629
1.134                  -0.859977      -0.0017528
1.135                  -0.858945     -0.00161437
1.136                  -0.857926      -0.0015009
1.137                  -0.856919      -0.0014121
1.138                  -0.855925     -0.00134731
1.139                  -0.854944     -0.00130585
1.14                   -0.853978     -0.00128764
1.141                  -0.853026     -0.00129202
1.142                   -0.85209     -0.00131892
1.143                  -0.851169     -0.00136728
1.144                  -0.850264     -0.00143706
1.145                  -0.849375     -0.00152759
1.146                  -0.848503     -0.00163845
1.147                  -0.847649     -0.00176917
1.148                  -0.846812     -0.00191933
1.149                  -0.845993     -0.00208888
1.15                   -0.845193     -0.00227662
1.151                  -0.844411     -0.00248251
1.152                  -0.843648     -0.00270631
1.153                  -0.842905     -0.00294704
1.154                  -0.842182     -0.00320468
1.155                  -0.841478     -0.00347899
1.156                  -0.840795     -0.00376901
1.157                  -0.840132     -0.00407471
1.158                  -0.839491     -0.00439571
1.159                   -0.83887     -0.00473123
1.16                   -0.838272     -0.00508126
1.161                  -0.837695     -0.00544485
1.162                  -0.837141     -0.00582238
1.163                  -0.836609     -0.00621291
1.164                    -0.8361     -0.00661587
1.165                  -0.835614     -0.00703089
1.166                  -0.835152       -0.007458
1.167                  -0.834714     -0.00789607
1.168                  -0.834301     -0.00834513
1.169                  -0.833912     -0.00880464
1.17                   -0.833548     -0.00927368
1.171                  -0.833209     -0.00975209
1.172                  -0.832897      -0.0102391
1.173                   -0.83261      -0.0107345
1.174                   -0.83235      -0.0112375
1.175                  -0.832116      -0.0117474
1.176                   -0.83191      -0.0122634
1.177                  -0.831731      -0.0127853
1.178                   -0.83158      -0.0133122
1.179                  -0.831457      -0.0138434
1.18                   -0.831363      -0.0143779
1.181                  -0.831297      -0.0149153
1.182                   -0.83126      -0.0154548
1.183                  -0.831252      -0.0159957
1.184                  -0.831273      -0.0165366
1.185                  -0.831324      -0.0170771
1.186                  -0.831405      -0.0176163
1.187                  -0.831515      -0.0181531
1.188                  -0.831656      -0.0186869
1.189                  -0.831826      -0.0192164
1.19                   -0.832026      -0.0197408
1.191                  -0.832257      -0.0202591
1.192                  -0.832517      -0.0207703
1.193                  -0.832807      -0.0212735
1.194                  -0.833126      -0.0217676
1.195                  -0.833475      -0.0222516
1.196                  -0.833854      -0.0227244
1.197                  -0.834261      -0.0231851
1.198                  -0.834696      -0.0236328
1.199                   -0.83516       -0.024066
1.2                    -0.835652      -0.0244841
1.201                   -0.83617      -0.0248862
1.202                  -0.836716      -0.0252709
1.203                  -0.837287      -0.0256376
1.204                  -0.837885      -0.0259852
1.205                  -0.838506      -0.0263129
1.206                  -0.839152      -0.0266198
1.207                  -0.839822      -0.0269051
1.208                  -0.840513      -0.0271677
1.209                  -0.841227      -0.0274072
1.21                   -0.841961      -0.0276226
1.211                  -0.842715      -0.0278131
1.212                  -0.843488      -0.0279784
1.213                  -0.844278      -0.0281178
1.214                  -0.845086      -0.0282304
1.215                  -0.845909      -0.0283164
1.216                  -0.846747      -0.0283744
1.217                  -0.847598      -0.0284047
1.218                  -0.848462      -0.0284066
1.219                  -0.849337      -0.0283802
1.22                   -0.850223      -0.0283249
1.221                  -0.851117      -0.0282405
1.222                   -0.85202      -0.0281271
1.223                  -0.852929      -0.0279846
1.224                  -0.853844      -0.0278132
1.225                  -0.854763      -0.0276125
1.226                  -0.855686      -0.0273827
1.227                  -0.856611      -0.0271242
1.228                  -0.857538      -0.0268373
1.229                  -0.858464      -0.0265219
1.23                    -0.85939      -0.0261786
1.231                  -0.860314      -0.0258077
1.232                  -0.861235      -0.0254096
1.233                  -0.862153      -0.0249848
1.234                  -0.863066      -0.0245334
1.235                  -0.863973      -0.0240567
1.236                  -0.864874      -0.0235546
1.237                  -0.865768      -0.0230283
1.238                  -0.866654      -0.0224779
1.239                  -0.867531      -0.0219042
1.24                     -0.8684      -0.0213082
1.241                  -0.869258      -0.0206902
1.242                  -0.870107      -0.0200508
1.243                  -0.870944      -0.0193914
1.244                  -0.871771      -0.0187122
1.245                  -0.872586      -0.0180141
1.246                  -0.873389      -0.0172978
1.247                  -0.874179      -0.0165639
1.248                  -0.874958      -0.0158132
1.249                  -0.875723      -0.0150469
1.25                   -0.876476      -0.0142651
1.251                  -0.877215       -0.013469
1.252                  -0.877942      -0.0126585
1.253                  -0.878656      -0.0118353
1.254                  -0.879356      -0.0109993
1.255                  -0.880043      -0.0101515
1.256                  -0.880717     -0.00929234
1.257                  -0.881379     -0.00842233
1.258                  -0.882027     -0.00754226
1.259                  -0.882663     -0.00665235
1.26                   -0.883287     -0.00575344
1.261                  -0.883898     -0.00484553
1.262                  -0.884497     -0.00392927
1.263                  -0.885084     -0.00300506
1.264                  -0.885659     -0.00207335
1.265                  -0.886223     -0.00113435
1.266                  -0.886775    -0.000188297
1.267                  -0.887317     0.000764596
1.268                  -0.887847      0.00172369
1.269                  -0.888367      0.00268958
1.27                   -0.888877      0.00366143
1.271                  -0.889376      0.00463921
1.272                  -0.889866      0.00562311
1.273                  -0.890346      0.00661249
1.274                  -0.890816      0.00760795
1.275                  -0.891276      0.00860886
1.276                  -0.891728       0.0096156
1.277                   -0.89217       0.0106279
1.278                  -0.892602       0.0116459
1.279                  -0.893026       0.0126696
1.28                   -0.893441       0.0136991
1.281                  -0.893847       0.0147344
1.282                  -0.894244       0.0157751
1.283                  -0.894631       0.0168219
1.284                   -0.89501       0.0178743
1.285                   -0.89538       0.0189326
1.286                   -0.89574        0.019997
1.287                  -0.896091       0.0210671
1.288                  -0.896433        0.022143
1.289                  -0.896765        0.023225
1.29                   -0.897088        0.024313
1.291                  -0.897401       0.0254065
1.292                  -0.897703       0.0265062
1.293                  -0.897996       0.0276113
1.294                  -0.898278       0.0287225
1.295                  -0.898549        0.029839
1.296                  -0.898809        0.030961
1.297                  -0.899059       0.0320884
1.298                  -0.899297       0.0332209
1.299                  -0.899524       0.0343582
1.3                    -0.899739       0.0355006
1.301                  -0.899941       0.0366473
1.302                  -0.900132       0.0377985
1.303                  -0.900311       0.0389536
1.304                  -0.900477       0.0401128
1.305                   -0.90063       0.0412753
1.306                   -0.90077       0.0424407
1.307                  -0.900898       0.0436092
1.308                  -0.901012       0.0447799
1.309                  -0.901113        0.045953
1.31                   -0.901201       0.0471278
1.311                  -0.901275       0.0483037
1.312                  -0.901336       0.0494807
1.313                  -0.901383       0.0506583
1.314                  -0.901418        0.051836
1.315                  -0.901438       0.0530134
1.316                  -0.901446       0.0541903
1.317                   -0.90144       0.0553659
1.318                  -0.901421       0.0565405
1.319                  -0.901389       0.0577131
1.32                   -0.901344       0.0588834
1.321                  -0.901286       0.0600512
1.322                  -0.901216        0.061216
1.323                  -0.901134       0.0623777
1.324                   -0.90104       0.0635361
1.325                  -0.900934       0.0646903
1.326                  -0.900816       0.0658405
1.327                  -0.900687       0.0669862
1.328                  -0.900548       0.0681271
1.329                  -0.900397       0.0692634
1.33                   -0.900237       0.0703945
1.331                  -0.900066       0.0715204
1.332                  -0.899886       0.0726409
1.333                  -0.899696       0.0737562
1.334                  -0.899498       0.0748659
1.335                  -0.899291       0.0759696
1.336                  -0.899075        0.077068
1.337                  -0.898852       0.0781607
1.338                  -0.898621       0.0792477
1.339                  -0.898383       0.0803291
1.34                   -0.898137        0.081405
1.341                  -0.897885       0.0824752
1.342                  -0.897626       0.0835403
1.343                  -0.897361       0.0846001
1.344                   -0.89709       0.0856547
1.345                  -0.896813       0.0867043
1.346                  -0.896531       0.0877492
1.347                  -0.896242       0.0887896
1.348                  -0.895949       0.0898258
1.349                   -0.89565       0.0908574
1.35                   -0.895346       0.0918852
1.351                  -0.895037       0.0929093
1.352                  -0.894723         0.09393
1.353                  -0.894403       0.0949469
1.354                  -0.894079       0.0959609
1.355                  -0.893749       0.0969718
1.356                  -0.893414       0.0979799
1.357                  -0.893073       0.0989855
1.358                  -0.892727       0.0999888
1.359                  -0.892375         0.10099
1.36                   -0.892018        0.101988
1.361                  -0.891654        0.102985
1.362                  -0.891284         0.10398
1.363                  -0.890908        0.104973
1.364                  -0.890525        0.105964
1.365                  -0.890135        0.106953
1.366                  -0.889738         0.10794
1.367                  -0.889333        0.108926
1.368                   -0.88892         0.10991
1.369                    -0.8885        0.110891
1.37                   -0.888071        0.111871
1.371                  -0.887633        0.112848
1.372                  -0.887186        0.113823
1.373                  -0.886731        0.114795
1.374                  -0.886265        0.115764
1.375                   -0.88579         0.11673
1.376                  -0.885305        0.117692
1.377                   -0.88481        0.118651
1.378                  -0.884305        0.119606
1.379                  -0.883789        0.120556
1.38                   -0.883262        0.121501
1.381                  -0.882724        0.122441
1.382                  -0.882176        0.123375
1.383                  -0.881616        0.124303
1.384                  -0.881045        0.125224
1.385                  -0.880463        0.126139
1.386                   -0.87987        0.127045
1.387                  -0.879266        0.127944
1.388                  -0.878651        0.128834
1.389                  -0.878024        0.129715
1.39                   -0.877387        0.130586
1.391                   -0.87674        0.131448
1.392                  -0.876081        0.132298
1.393                  -0.875413        0.133138
1.394                  -0.874735        0.133966
1.395                  -0.874047        0.134782
1.396                  -0.873349        0.135586
1.397                  -0.872642        0.136377
1.398                  -0.871927        0.137155
1.399                  -0.871204        0.137919
1.4                    -0.870473        0.138669
1.401                  -0.869734        0.139404
1.402                  -0.868988        0.140125
1.403                  -0.868236        0.140831
1.404                  -0.867479        0.141522
1.405                  -0.866715        0.142197
1.406                  -0.865947        0.142856
1.407                  -0.865174          0.1435
1.408                  -0.864398        0.144128
1.409                  -0.863618        0.144739
1.41                   -0.862836        0.145334
1.411                  -0.862051        0.145913
1.412                  -0.861265        0.146476
1.413                  -0.860478        0.147022
1.414                   -0.85969        0.147552
1.415                  -0.858902        0.148066
1.416                  -0.858115        0.148564
1.417                  -0.857328        0.149046
1.418                  -0.856543        0.149512
1.419                   -0.85576        0.149962
1.42                    -0.85498        0.150397
1.421                  -0.854202        0.150817
1.422                  -0.853427        0.151222
1.423                  -0.852657        0.151611
1.424                   -0.85189        0.151986
1.425                  -0.851127        0.152347
1.426                  -0.850369        0.152694
1.427                  -0.849616        0.153027
1.428                  -0.848869        0.153346
1.429                  -0.848127        0.153653
1.43                   -0.847391        0.153947
1.431                   -0.84666        0.154228
1.432                  -0.845936        0.154496
1.433                  -0.845218        0.154753
1.434                  -0.844507        0.154997
1.435                  -0.843802        0.155231
1.436                  -0.843104        0.155453
1.437                  -0.842413        0.155664
1.438                  -0.841728        0.155864
1.439                  -0.841051        0.156054
1.44                   -0.840381        0.156233
1.441                  -0.839717        0.156402
1.442                  -0.839061        0.156561
1.443                  -0.838412        0.156711
1.444                  -0.837771        0.156851
1.445                  -0.837136        0.156981
1.446                  -0.836509        0.157101
1.447                  -0.835889        0.157213
1.448                  -0.835277        0.157315
1.449                  -0.834672        0.157408
1.45                   -0.834074        0.157492
1.451                  -0.833485        0.157566
1.452                  -0.832902        0.157632
1.453                  -0.832328        0.157688
1.454                  -0.831761        0.157736
1.455                  -0.831202        0.157774
1.456                  -0.830652        0.157804
1.457                   -0.83011        0.157824
1.458                  -0.829576        0.157835
1.459                  -0.829051        0.157837
1.46                   -0.828535         0.15783
1.461                  -0.828027        0.157814
1.462                   -0.82753         0.15779
1.463                  -0.827042        0.157756
1.464                  -0.826563        0.157713
1.465                  -0.826096        0.157661
1.466                  -0.825638          0.1576
1.467                  -0.825192        0.157531
1.468                  -0.824756        0.157452
1.469                  -0.824333        0.157366
1.47                   -0.823921        0.157271
1.471                  -0.823522        0.157168
1.472                  -0.823135        0.157056
1.473                  -0.822761        0.156938
1.474                  -0.822402        0.156811
1.475                  -0.822056        0.156677
1.476                  -0.821724        0.156536
1.477                  -0.821407        0.156389
1.478                  -0.821105        0.156236
1.479                  -0.820819        0.156077
1.48                   -0.820548        0.155912
1.481                  -0.820294        0.155743
1.482                  -0.820056        0.155569
1.483                  -0.819835        0.155391
1.484                  -0.819631         0.15521
1.485                  -0.819444        0.155026
1.486                  -0.819275         0.15484
1.487                  -0.819124        0.154653
1.488                  -0.818991        0.154464
1.489                  -0.818876        0.154276
1.49                   -0.818779        0.154088
1.491                  -0.818701        0.153901
1.492                   -0.81864        0.153716
1.493                  -0.818599        0.153533
1.494                  -0.818575        0.153354
1.495                   -0.81857        0.153179
1.496                  -0.818583        0.153008
1.497                  -0.818613        0.152843
1.498                  -0.818662        0.152684
1.499                  -0.818728        0.152532
1.5                    -0.818811        0.152388
1.501                  -0.818911        0.152252
1.502                  -0.819028        0.152125
1.503                   -0.81916        0.152007
1.504                  -0.819308          0.1519
1.505                  -0.819472        0.151803
1.506                   -0.81965        0.151718
1.507                  -0.819842        0.151644
1.508                  -0.820047        0.151584
1.509                  -0.820266        0.151535
1.51                   -0.820497        0.151501
1.511                  -0.820739        0.151479
1.512                  -0.820993        0.151472
1.513                  -0.821257         0.15148
1.514                  -0.821531        0.151502
1.515                  -0.821813        0.151539
1.516                  -0.822104         0.15159
1.517                  -0.822402        0.151658
1.518                  -0.822708         0.15174
1.519                  -0.823019        0.151838
1.52                   -0.823335        0.151951
1.521                  -0.823657         0.15208
1.522                  -0.823982        0.152224
1.523                  -0.824311        0.152383
1.524                  -0.824643        0.152557
1.525                  -0.824977        0.152746
1.526                  -0.825312         0.15295
1.527                  -0.825648        0.153168
1.528                  -0.825985          0.1534
1.529                  -0.826321        0.153646
1.53                   -0.826657        0.153906
1.531                  -0.826991        0.154179
1.532                  -0.827325        0.154465
1.533                  -0.827656        0.154763
1.534                  -0.827985        0.155073
1.535                  -0.828311        0.155395
1.536                  -0.828635        0.155728
1.537                  -0.828955        0.156071
1.538                  -0.829272        0.156426
1.539                  -0.829586         0.15679
1.54                   -0.829896        0.157163
1.541                  -0.830202        0.157546
1.542                  -0.830504        0.157937
1.543                  -0.830803        0.158337
1.544                  -0.831098        0.158744
1.545                  -0.831388         0.15916
1.546                  -0.831676        0.159582
1.547                  -0.831959        0.160012
1.548                  -0.832239        0.160448
1.549                  -0.832515         0.16089
1.55                   -0.832788        0.161339
1.551                  -0.833058        0.161794
1.552                  -0.833325        0.162254
1.553                  -0.833589         0.16272
1.554                   -0.83385        0.163192
1.555                  -0.834108        0.163668
1.556                  -0.834365        0.164151
1.557                  -0.834619        0.164638
1.558                  -0.834871        0.165131
1.559                  -0.835121        0.165629
1.56                    -0.83537        0.166132
1.561                  -0.835617        0.166641
1.562                  -0.835862        0.167156
1.563                  -0.836106        0.167676
1.564                  -0.836349        0.168202
1.565                  -0.836591        0.168734
1.566                  -0.836832        0.169272
1.567                  -0.837071        0.169816
1.568                   -0.83731        0.170367
1.569                  -0.837547        0.170925
1.57                   -0.837783         0.17149
1.571                  -0.838017        0.172062
1.572                   -0.83825        0.172641
1.573                  -0.838482        0.173228
1.574                  -0.838711        0.173823
1.575                  -0.838939        0.174426
1.576                  -0.839164        0.175037
1.577                  -0.839387        0.175657
1.578                  -0.839607        0.176285
1.579                  -0.839824        0.176922
1.58                   -0.840037        0.177568
1.581                  -0.840246        0.178223
1.582                  -0.840451        0.178887
1.583                  -0.840652         0.17956
1.584                  -0.840847        0.180242
1.585                  -0.841037        0.180934
1.586                  -0.841221        0.181634
1.587                  -0.841398        0.182344
1.588                  -0.841568        0.183062
1.589                  -0.841732         0.18379
1.59                   -0.841887        0.184526
1.591                  -0.842034         0.18527
1.592                  -0.842173        0.186022
1.593                  -0.842303        0.186782
1.594                  -0.842423         0.18755
1.595                  -0.842533        0.188325
1.596                  -0.842633        0.189107
1.597                  -0.842722        0.189896
1.598                    -0.8428         0.19069
1.599                  -0.842867         0.19149
1.6                    -0.842923        0.192295
1.601                  -0.842966        0.193104
1.602                  -0.842998        0.193918
1.603                  -0.843018        0.194735
1.604                  -0.843025        0.195555
1.605                   -0.84302        0.196378
1.606                  -0.843002        0.197202
1.607                  -0.842971        0.198027
1.608                  -0.842929        0.198853
1.609                  -0.842873         0.19968
1.61                   -0.842806        0.200505
1.611                  -0.842726         0.20133
1.612                  -0.842634        0.202153
1.613                   -0.84253        0.202974
1.614                  -0.842414        0.203793
1.615                  -0.842287        0.204608
1.616                  -0.842149        0.205419
1.617                     -0.842        0.206227
1.618                  -0.841841         0.20703
1.619                  -0.841672        0.207828
1.62                   -0.841493         0.20862
1.621                  -0.841305        0.209408
1.622                  -0.841108        0.210189
1.623                  -0.840903        0.210964
1.624                   -0.84069        0.211733
1.625                  -0.840471        0.212495
1.626                  -0.840244        0.213251
1.627                  -0.840011           0.214
1.628                  -0.839772        0.214741
1.629                  -0.839528        0.215477
1.63                   -0.839279        0.216205
1.631                  -0.839026        0.216926
1.632                  -0.838769        0.217641
1.633                  -0.838508         0.21835
1.634                  -0.838245        0.219051
1.635                  -0.837979        0.219747
1.636                   -0.83771        0.220437
1.637                   -0.83744        0.221121
1.638                  -0.837168        0.221799
1.639                  -0.836895        0.222472
1.64                   -0.836621        0.223141
1.641                  -0.836346        0.223805
1.642                   -0.83607        0.224464
1.643                  -0.835794         0.22512
1.644                  -0.835517        0.225773
1.645                   -0.83524        0.226422
1.646                  -0.834962        0.227069
1.647                  -0.834685        0.227713
1.648                  -0.834407        0.228355
1.649                  -0.834128        0.228996
1.65                   -0.833849        0.229635
1.651                  -0.833569        0.230273
1.652                  -0.833288        0.230911
1.653                  -0.833005        0.231547
1.654                  -0.832722        0.232184
1.655                  -0.832437        0.232821
1.656                  -0.832149        0.233457
1.657                   -0.83186        0.234094
1.658                  -0.831567        0.234732
1.659                  -0.831272         0.23537
1.66                   -0.830973        0.236008
1.661                  -0.830671        0.236647
1.662                  -0.830364        0.237286
1.663                  -0.830053        0.237926
1.664                  -0.829737        0.238566
1.665                  -0.829416        0.239206
1.666                  -0.829089        0.239846
1.667                  -0.828756        0.240486
1.668                  -0.828417        0.241125
1.669                  -0.828071        0.241763
1.67                   -0.827718          0.2424
1.671                  -0.827358        0.243035
1.672                  -0.826991        0.243668
1.673                  -0.826616        0.244299
1.674                  -0.826234        0.244926
1.675                  -0.825843         0.24555
1.676                  -0.825445        0.246171
1.677                  -0.825038        0.246786
1.678                  -0.824624        0.247397
1.679                  -0.824201        0.248002
1.68                   -0.823771        0.248601
1.681                  -0.823333        0.249193
1.682                  -0.822887        0.249779
1.683                  -0.822434        0.250356
1.684                  -0.821974        0.250925
1.685                  -0.821507        0.251486
1.686                  -0.821034        0.252037
1.687                  -0.820554        0.252578
1.688                  -0.820069        0.253109
1.689                  -0.819579         0.25363
1.69                   -0.819084        0.254139
1.691                  -0.818586        0.254637
1.692                  -0.818083        0.255124
1.693                  -0.817578        0.255598
1.694                  -0.817071        0.256061
1.695                  -0.816562        0.256511
1.696                  -0.816052        0.256948
1.697                  -0.815542        0.257373
1.698                  -0.815032        0.257785
1.699                  -0.814523        0.258184
1.7                    -0.814016        0.258571
1.701                  -0.813512        0.258946
1.702                  -0.813011        0.259308
1.703                  -0.812514        0.259658
1.704                  -0.812021        0.259996
1.705                  -0.811533        0.260323
1.706                  -0.811051        0.260638
1.707                  -0.810576        0.260943
1.708                  -0.810107        0.261237
1.709                  -0.809646        0.261521
1.71                   -0.809193        0.261796
1.711                  -0.808748        0.262062
1.712                  -0.808312         0.26232
1.713                  -0.807885         0.26257
1.714                  -0.807468        0.262813
1.715                   -0.80706         0.26305
1.716                  -0.806663        0.263281
1.717                  -0.806276        0.263507
1.718                  -0.805899        0.263729
1.719                  -0.805532        0.263947
1.72                   -0.805175        0.264162
1.721                  -0.804829        0.264375
1.722                  -0.804494        0.264586
1.723                  -0.804168        0.264797
1.724                  -0.803852        0.265007
1.725                  -0.803546        0.265217
1.726                  -0.803249        0.265428
1.727                  -0.802962        0.265641
1.728                  -0.802683        0.265856
1.729                  -0.802412        0.266073
1.73                   -0.802149        0.266293
1.731                  -0.801894        0.266517
1.732                  -0.801645        0.266744
1.733                  -0.801403        0.266975
1.734                  -0.801167        0.267211
1.735                  -0.800936        0.267451
1.736                   -0.80071        0.267697
1.737                  -0.800488        0.267947
1.738                   -0.80027        0.268201
1.739                  -0.800055        0.268461
1.74                   -0.799842        0.268726
1.741                  -0.799631        0.268996
1.742                  -0.799422        0.269271
1.743                  -0.799214         0.26955
1.744                  -0.799005        0.269834
1.745                  -0.798797        0.270122
1.746                  -0.798589        0.270414
1.747                  -0.798379         0.27071
1.748                  -0.798168        0.271009
1.749                  -0.797956        0.271311
1.75                   -0.797742        0.271615
1.751                  -0.797525        0.271921
1.752                  -0.797307        0.272229
1.753                  -0.797085        0.272538
1.754                  -0.796861        0.272848
1.755                  -0.796635        0.273157
1.756                  -0.796406        0.273467
1.757                  -0.796174        0.273776
1.758                   -0.79594        0.274083
1.759                  -0.795703        0.274389
1.76                   -0.795464        0.274692
1.761                  -0.795223        0.274993
1.762                  -0.794981        0.275291
1.763                  -0.794737        0.275585
1.764                  -0.794492        0.275876
1.765                  -0.794246        0.276163
1.766                     -0.794        0.276445
1.767                  -0.793754        0.276724
1.768                  -0.793509        0.276997
1.769                  -0.793265        0.277265
1.77                   -0.793022        0.277529
1.771                  -0.792782        0.277787
1.772                  -0.792544        0.278041
1.773                  -0.792309        0.278289
1.774                  -0.792079        0.278533
1.775                  -0.791852        0.278772
1.776                   -0.79163        0.279007
1.777                  -0.791413        0.279237
1.778                  -0.791202        0.279464
1.779                  -0.790997        0.279687
1.78                   -0.790798        0.279907
1.781                  -0.790607        0.280124
1.782                  -0.790422        0.280338
1.783                  -0.790245        0.280551
1.784                  -0.790076        0.280763
1.785                  -0.789915        0.280975
1.786                  -0.789763        0.281185
1.787                  -0.789618        0.281397
1.788                  -0.789482         0.28161
1.789                  -0.789355        0.281824
1.79                   -0.789236        0.282041
1.791                  -0.789125        0.282261
1.792                  -0.789023        0.282485
1.793                  -0.788928        0.282713
1.794                  -0.788841        0.282946
1.795                  -0.788762        0.283185
1.796                  -0.788689         0.28343
1.797                  -0.788624        0.283681
1.798                  -0.788564         0.28394
1.799                   -0.78851        0.284206
1.8                    -0.788461        0.284481
1.801                  -0.788417        0.284764
1.802                  -0.788377        0.285056
1.803                   -0.78834        0.285357
1.804                  -0.788305        0.285668
1.805                  -0.788272        0.285988
1.806                  -0.788241        0.286318
1.807                   -0.78821        0.286658
1.808                  -0.788179        0.287008
1.809                  -0.788146        0.287368
1.81                   -0.788112        0.287737
1.811                  -0.788075        0.288116
1.812                  -0.788034        0.288504
1.813                   -0.78799        0.288902
1.814                  -0.787941        0.289308
1.815                  -0.787887        0.289723
1.816                  -0.787827        0.290145
1.817                   -0.78776        0.290574
1.818                  -0.787686        0.291011
1.819                  -0.787604        0.291453
1.82                   -0.787514        0.291901
1.821                  -0.787416        0.292354
1.822                  -0.787309        0.292811
1.823                  -0.787193        0.293271
1.824                  -0.787068        0.293734
1.825                  -0.786933        0.294199
1.826                  -0.786789        0.294664
1.827                  -0.786635         0.29513
1.828                  -0.786472        0.295595
1.829                  -0.786299        0.296059
1.83                   -0.786117        0.296521
1.831                  -0.785927         0.29698
1.832                  -0.785727        0.297434
1.833                  -0.785519        0.297885
1.834                  -0.785304         0.29833
1.835                  -0.785081         0.29877
1.836                  -0.784852        0.299203
1.837                  -0.784616        0.299629
1.838                  -0.784375        0.300048
1.839                  -0.784129        0.300459
1.84                   -0.783878        0.300861
1.841                  -0.783625        0.301254
1.842                  -0.783369        0.301639
1.843                  -0.783112        0.302015
1.844                  -0.782853        0.302381
1.845                  -0.782595        0.302738
1.846                  -0.782337        0.303085
1.847                  -0.782081        0.303424
1.848                  -0.781828        0.303753
1.849                  -0.781577        0.304073
1.85                   -0.781332        0.304385
1.851                  -0.781091        0.304688
1.852                  -0.780856        0.304984
1.853                  -0.780627        0.305272
1.854                  -0.780405        0.305554
1.855                  -0.780191        0.305829
1.856                  -0.779986        0.306099
1.857                  -0.779789        0.306365
1.858                  -0.779601        0.306626
1.859                  -0.779424        0.306884
1.86                   -0.779256         0.30714
1.861                  -0.779098        0.307394
1.862                  -0.778951        0.307648
1.863                  -0.778815        0.307902
1.864                  -0.778689        0.308157
1.865                  -0.778573        0.308415
1.866                  -0.778468        0.308675
1.867                  -0.778374        0.308939
1.868                  -0.778289        0.309209
1.869                  -0.778214        0.309483
1.87                   -0.778147        0.309765
1.871                   -0.77809        0.310053
1.872                  -0.778041         0.31035
1.873                  -0.777999        0.310655
1.874                  -0.777964         0.31097
1.875                  -0.777936        0.311295
1.876                  -0.777913         0.31163
1.877                  -0.777894        0.311976
1.878                  -0.777878        0.312334
1.879                  -0.777866        0.312703
1.88                   -0.777856        0.313084
1.881                  -0.777846        0.313477
1.882                  -0.777836        0.313883
1.883                  -0.777826        0.314301
1.884                  -0.777813        0.314731
1.885                  -0.777797        0.315173
1.886                  -0.777778        0.315626
1.887                  -0.777754        0.316092
1.888                  -0.777724        0.316568
1.889                  -0.777688        0.317055
1.89                   -0.777644        0.317552
1.891                  -0.777593        0.318059
1.892                  -0.777533        0.318575
1.893                  -0.777463        0.319099
1.894                  -0.777383         0.31963
1.895                  -0.777292        0.320168
1.896                  -0.777191        0.320711
1.897                  -0.777078         0.32126
1.898                  -0.776954        0.321812
1.899                  -0.776817        0.322368
1.9                    -0.776669        0.322925
1.901                  -0.776508        0.323484
1.902                  -0.776335        0.324043
1.903                  -0.776151        0.324601
1.904                  -0.775954        0.325157
1.905                  -0.775746         0.32571
1.906                  -0.775527         0.32626
1.907                  -0.775297        0.326805
1.908                  -0.775056        0.327345
1.909                  -0.774806        0.327879
1.91                   -0.774547        0.328405
1.911                   -0.77428        0.328925
1.912                  -0.774005        0.329436
1.913                  -0.773723        0.329939
1.914                  -0.773435        0.330432
1.915                  -0.773142        0.330916
1.916                  -0.772845         0.33139
1.917                  -0.772545        0.331855
1.918                  -0.772243        0.332309
1.919                  -0.771939        0.332752
1.92                   -0.771635        0.333186
1.921                  -0.771332        0.333609
1.922                  -0.771031        0.334023
1.923                  -0.770732        0.334427
1.924                  -0.770436        0.334822
1.925                  -0.770146        0.335208
1.926                   -0.76986        0.335586
1.927                   -0.76958        0.335957
1.928                  -0.769307         0.33632
1.929                  -0.769042        0.336677
1.93                   -0.768784         0.33703
1.931                  -0.768536        0.337377
1.932                  -0.768296        0.337722
1.933                  -0.768065        0.338063
1.934                  -0.767844        0.338404
1.935                  -0.767633        0.338743
1.936                  -0.767432        0.339083
1.937                  -0.767241        0.339425
1.938                   -0.76706        0.339769
1.939                  -0.766888        0.340117
1.94                   -0.766726         0.34047
1.941                  -0.766572        0.340828
1.942                  -0.766428        0.341194
1.943                  -0.766291        0.341566
1.944                  -0.766162        0.341948
1.945                  -0.766039        0.342338
1.946                  -0.765922        0.342739
1.947                  -0.765811        0.343151
1.948                  -0.765703        0.343575
1.949                  -0.765598         0.34401
1.95                   -0.765496        0.344458
1.951                  -0.765394         0.34492
1.952                  -0.765292        0.345394
1.953                  -0.765189        0.345882
1.954                  -0.765083        0.346384
1.955                  -0.764974        0.346899
1.956                  -0.764859        0.347428
1.957                  -0.764738        0.347971
1.958                   -0.76461        0.348526
1.959                  -0.764474        0.349094
1.96                   -0.764327        0.349675
1.961                   -0.76417        0.350267
1.962                  -0.764001         0.35087
1.963                   -0.76382        0.351482
1.964                  -0.763624        0.352105
1.965                  -0.763414        0.352735
1.966                  -0.763188        0.353373
1.967                  -0.762947        0.354016
1.968                  -0.762688        0.354665
1.969                  -0.762412        0.355318
1.97                   -0.762119        0.355973
1.971                  -0.761807        0.356629
1.972                  -0.761477        0.357285
1.973                  -0.761129         0.35794
1.974                  -0.760763        0.358592
1.975                  -0.760378         0.35924
1.976                  -0.759975        0.359882
1.977                  -0.759555        0.360517
1.978                  -0.759117        0.361145
1.979                  -0.758663        0.361762
1.98                   -0.758192         0.36237
1.981                  -0.757707        0.362965
1.982                  -0.757206        0.363547
1.983                  -0.756693        0.364116
1.984                  -0.756167         0.36467
1.985                   -0.75563        0.365207
1.986                  -0.755083        0.365728
1.987                  -0.754527        0.366232
1.988                  -0.753963        0.366719
1.989                  -0.753394        0.367186
1.99                   -0.752819        0.367636
1.991                  -0.752241        0.368066
1.992                  -0.751661        0.368478
1.993                   -0.75108         0.36887
1.994                  -0.750501        0.369244
1.995                  -0.749923        0.369599
1.996                   -0.74935        0.369936
1.997                  -0.748781        0.370255
1.998                  -0.748219        0.370557
1.999                  -0.747664        0.370843
2                      -0.747118        0.371113
