! TOUCHSTONE file generated by CST MICROWAVE STUDIO
! Date and time: Tue Aug  4 15:55:25 2026
! Project name: Sonda-Coaxial_21mm_DisifixB_v2_Agua_Dest.cst
! Parameters = {h_recipiente=20; l_conector=5; r_arandela=35; r_ext=10.5; r_int=3; r_recipiente=50; z_recipiente=-10}
! Header version: 2018
! Port assignment regex: !\s*Touchstone port\s*([0-9]+)\s*=\s*(CST MWS port|CST DS port)\s*([0-9]+|Zmin|Zmax)\s*\(\"(.*)\"\)(\s*mode\s*([0-9]+))?.*
! Touchstone port assignment:
! Touchstone port 1 = CST MWS port 1 ("")
# GHz S RI R 50
0.001                   0.999116     -0.00728172
0.002                    0.99904      -0.0145632
0.003                   0.998914      -0.0218442
0.004                   0.998737      -0.0291246
0.005                   0.998509       -0.036404
0.006                    0.99823      -0.0436822
0.007                     0.9979       -0.050959
0.008                    0.99752      -0.0582341
0.009                   0.997089      -0.0655073
0.01                    0.996606      -0.0727782
0.011                   0.996072      -0.0800466
0.012                   0.995487      -0.0873121
0.013                   0.994851      -0.0945745
0.014                   0.994163       -0.101833
0.015                   0.993423       -0.109088
0.016                   0.992631       -0.116339
0.017                   0.991787       -0.123585
0.018                   0.990892       -0.130826
0.019                   0.989943       -0.138062
0.02                    0.988943       -0.145291
0.021                   0.987889       -0.152515
0.022                   0.986783       -0.159731
0.023                   0.985624        -0.16694
0.024                   0.984412       -0.174141
0.025                   0.983146       -0.181334
0.026                   0.981827       -0.188517
0.027                   0.980454       -0.195691
0.028                   0.979028       -0.202854
0.029                   0.977548       -0.210007
0.03                    0.976014       -0.217148
0.031                   0.974426       -0.224277
0.032                   0.972783       -0.231393
0.033                   0.971087       -0.238496
0.034                   0.969336       -0.245584
0.035                   0.967532       -0.252657
0.036                   0.965673       -0.259714
0.037                    0.96376       -0.266755
0.038                   0.961792       -0.273779
0.039                   0.959771       -0.280784
0.04                    0.957696        -0.28777
0.041                   0.955566       -0.294737
0.042                   0.953383       -0.301683
0.043                   0.951147       -0.308608
0.044                   0.948857       -0.315511
0.045                   0.946513       -0.322391
0.046                   0.944117       -0.329247
0.047                   0.941669       -0.336078
0.048                   0.939167       -0.342884
0.049                   0.936614       -0.349664
0.05                     0.93401       -0.356417
0.051                   0.931354       -0.363141
0.052                   0.928647       -0.369837
0.053                    0.92589       -0.376504
0.054                   0.923084       -0.383141
0.055                   0.920227       -0.389746
0.056                   0.917323        -0.39632
0.057                   0.914369       -0.402861
0.058                   0.911369       -0.409369
0.059                   0.908321       -0.415843
0.06                    0.905227       -0.422282
0.061                   0.902087       -0.428686
0.062                   0.898903       -0.435055
0.063                   0.895674       -0.441387
0.064                   0.892401       -0.447682
0.065                   0.889086       -0.453939
0.066                   0.885729       -0.460158
0.067                   0.882331       -0.466339
0.068                   0.878892        -0.47248
0.069                   0.875414       -0.478582
0.07                    0.871897       -0.484644
0.071                   0.868342       -0.490666
0.072                   0.864751       -0.496648
0.073                   0.861123       -0.502588
0.074                   0.857459       -0.508487
0.075                   0.853762       -0.514345
0.076                   0.850031       -0.520161
0.077                   0.846267       -0.525935
0.078                   0.842471       -0.531667
0.079                   0.838644       -0.537358
0.08                    0.834787       -0.543006
0.081                   0.830901       -0.548612
0.082                   0.826987       -0.554176
0.083                   0.823045       -0.559698
0.084                   0.819076       -0.565177
0.085                   0.815082       -0.570615
0.086                   0.811062       -0.576011
0.087                   0.807017       -0.581366
0.088                   0.802949       -0.586678
0.089                   0.798859        -0.59195
0.09                    0.794746        -0.59718
0.091                   0.790611        -0.60237
0.092                   0.786456       -0.607519
0.093                    0.78228       -0.612628
0.094                   0.778085       -0.617696
0.095                    0.77387       -0.622726
0.096                   0.769637       -0.627716
0.097                   0.765386       -0.632666
0.098                   0.761118       -0.637579
0.099                   0.756833       -0.642453
0.1                     0.752531        -0.64729
0.101                   0.748213       -0.652089
0.102                   0.743879       -0.656852
0.103                    0.73953       -0.661577
0.104                   0.735165       -0.666267
0.105                   0.730786       -0.670921
0.106                   0.726392        -0.67554
0.107                   0.721984       -0.680123
0.108                   0.717562       -0.684672
0.109                   0.713125       -0.689187
0.11                    0.708675       -0.693669
0.111                    0.70421       -0.698117
0.112                   0.699733       -0.702532
0.113                   0.695241       -0.706914
0.114                   0.690736       -0.711264
0.115                   0.686217       -0.715582
0.116                   0.681684       -0.719868
0.117                   0.677138       -0.724123
0.118                   0.672578       -0.728347
0.119                   0.668004       -0.732539
0.12                    0.663416       -0.736702
0.121                   0.658814       -0.740833
0.122                   0.654198       -0.744933
0.123                   0.649568       -0.749003
0.124                   0.644922       -0.753044
0.125                   0.640262       -0.757054
0.126                   0.635588       -0.761034
0.127                   0.630898       -0.764984
0.128                   0.626194       -0.768904
0.129                   0.621474       -0.772793
0.13                    0.616739       -0.776652
0.131                   0.611987       -0.780482
0.132                    0.60722        -0.78428
0.133                   0.602437       -0.788048
0.134                   0.597638       -0.791785
0.135                   0.592822       -0.795492
0.136                    0.58799       -0.799167
0.137                   0.583142        -0.80281
0.138                   0.578277       -0.806422
0.139                   0.573395       -0.810001
0.14                    0.568496       -0.813548
0.141                   0.563581       -0.817063
0.142                   0.558649       -0.820544
0.143                     0.5537       -0.823991
0.144                   0.548734       -0.827405
0.145                   0.543751       -0.830783
0.146                   0.538752       -0.834128
0.147                   0.533736       -0.837437
0.148                   0.528704        -0.84071
0.149                   0.523655       -0.843946
0.15                    0.518591       -0.847147
0.151                    0.51351        -0.85031
0.152                   0.508415       -0.853435
0.153                   0.503303       -0.856521
0.154                   0.498177        -0.85957
0.155                   0.493036       -0.862578
0.156                   0.487882       -0.865548
0.157                   0.482713       -0.868477
0.158                   0.477531       -0.871365
0.159                   0.472337       -0.874212
0.16                     0.46713       -0.877018
0.161                   0.461912       -0.879781
0.162                   0.456682       -0.882502
0.163                   0.451442       -0.885181
0.164                   0.446191       -0.887816
0.165                   0.440932       -0.890407
0.166                   0.435664       -0.892955
0.167                   0.430388       -0.895459
0.168                   0.425105       -0.897918
0.169                   0.419816       -0.900332
0.17                    0.414522       -0.902701
0.171                   0.409222       -0.905026
0.172                   0.403919       -0.907305
0.173                   0.398612       -0.909538
0.174                   0.393304       -0.911726
0.175                   0.387994       -0.913869
0.176                   0.382683       -0.915965
0.177                   0.377373       -0.918017
0.178                   0.372064       -0.920023
0.179                   0.366757       -0.921983
0.18                    0.361454       -0.923898
0.181                   0.356153       -0.925768
0.182                   0.350858       -0.927593
0.183                   0.345569       -0.929374
0.184                   0.340286        -0.93111
0.185                    0.33501       -0.932802
0.186                   0.329743        -0.93445
0.187                   0.324484       -0.936056
0.188                   0.319236       -0.937618
0.189                   0.313998       -0.939138
0.19                    0.308772       -0.940616
0.191                   0.303557       -0.942053
0.192                   0.298356        -0.94345
0.193                   0.293168       -0.944806
0.194                   0.287995       -0.946122
0.195                   0.282837         -0.9474
0.196                   0.277694        -0.94864
0.197                   0.272567       -0.949842
0.198                   0.267457       -0.951008
0.199                   0.262365       -0.952138
0.2                     0.257289       -0.953233
0.201                   0.252233       -0.954293
0.202                   0.247194        -0.95532
0.203                   0.242175       -0.956315
0.204                   0.237174       -0.957277
0.205                   0.232193       -0.958209
0.206                   0.227233        -0.95911
0.207                   0.222291       -0.959983
0.208                    0.21737       -0.960827
0.209                    0.21247       -0.961643
0.21                    0.207589       -0.962433
0.211                   0.202729       -0.963197
0.212                   0.197889       -0.963936
0.213                   0.193069       -0.964651
0.214                   0.188269       -0.965343
0.215                    0.18349       -0.966012
0.216                    0.17873        -0.96666
0.217                    0.17399       -0.967287
0.218                   0.169269       -0.967893
0.219                   0.164568       -0.968481
0.22                    0.159885       -0.969049
0.221                    0.15522         -0.9696
0.222                   0.150573       -0.970134
0.223                   0.145945       -0.970651
0.224                   0.141333       -0.971152
0.225                   0.136738       -0.971637
0.226                   0.132159       -0.972107
0.227                   0.127596       -0.972563
0.228                   0.123048       -0.973005
0.229                   0.118515       -0.973433
0.23                    0.113995       -0.973849
0.231                   0.109489       -0.974251
0.232                   0.104996       -0.974641
0.233                   0.100515       -0.975018
0.234                  0.0960455       -0.975384
0.235                  0.0915872       -0.975737
0.236                  0.0871393       -0.976079
0.237                  0.0827011       -0.976409
0.238                   0.078272       -0.976728
0.239                  0.0738515       -0.977035
0.24                   0.0694386        -0.97733
0.241                  0.0650333       -0.977614
0.242                  0.0606348       -0.977886
0.243                  0.0562422       -0.978145
0.244                  0.0518554       -0.978393
0.245                  0.0474738       -0.978629
0.246                  0.0430969       -0.978851
0.247                  0.0387239       -0.979061
0.248                  0.0343543       -0.979258
0.249                  0.0299885       -0.979441
0.25                   0.0256252        -0.97961
0.251                  0.0212643       -0.979765
0.252                  0.0169053       -0.979905
0.253                  0.0125484       -0.980029
0.254                 0.00819318       -0.980138
0.255                 0.00383911        -0.98023
0.256               -0.000514039       -0.980306
0.257                -0.00486598       -0.980364
0.258                -0.00921711       -0.980404
0.259                 -0.0135674       -0.980426
0.26                  -0.0179171       -0.980429
0.261                 -0.0222661       -0.980413
0.262                 -0.0266143       -0.980376
0.263                 -0.0309615       -0.980318
0.264                 -0.0353077       -0.980239
0.265                 -0.0396529       -0.980138
0.266                 -0.0439964       -0.980015
0.267                 -0.0483385       -0.979868
0.268                 -0.0526786       -0.979698
0.269                 -0.0570163       -0.979504
0.27                  -0.0613517       -0.979286
0.271                 -0.0656838       -0.979042
0.272                 -0.0700122       -0.978773
0.273                 -0.0743367       -0.978478
0.274                 -0.0786569       -0.978157
0.275                 -0.0829718       -0.977808
0.276                 -0.0872815       -0.977433
0.277                 -0.0915846        -0.97703
0.278                 -0.0958808         -0.9766
0.279                   -0.10017       -0.976142
0.28                    -0.10445       -0.975655
0.281                  -0.108722        -0.97514
0.282                  -0.112985       -0.974597
0.283                  -0.117237       -0.974025
0.284                  -0.121477       -0.973424
0.285                  -0.125707       -0.972795
0.286                  -0.129923       -0.972137
0.287                  -0.134126       -0.971451
0.288                  -0.138316       -0.970736
0.289                   -0.14249       -0.969993
0.29                   -0.146649       -0.969222
0.291                  -0.150792       -0.968423
0.292                  -0.154917       -0.967597
0.293                  -0.159025       -0.966743
0.294                  -0.163114       -0.965863
0.295                  -0.167184       -0.964957
0.296                  -0.171234       -0.964025
0.297                  -0.175265       -0.963067
0.298                  -0.179273       -0.962084
0.299                   -0.18326       -0.961078
0.3                    -0.187225       -0.960048
0.301                  -0.191167       -0.958995
0.302                  -0.195085        -0.95792
0.303                   -0.19898       -0.956823
0.304                  -0.202851       -0.955705
0.305                  -0.206697       -0.954567
0.306                  -0.210518       -0.953411
0.307                  -0.214314       -0.952236
0.308                  -0.218085       -0.951043
0.309                   -0.22183       -0.949834
0.31                   -0.225549       -0.948608
0.311                  -0.229242       -0.947368
0.312                   -0.23291       -0.946114
0.313                  -0.236551       -0.944847
0.314                  -0.240166       -0.943567
0.315                  -0.243756       -0.942276
0.316                   -0.24732       -0.940974
0.317                  -0.250858       -0.939663
0.318                  -0.254371       -0.938342
0.319                  -0.257859       -0.937014
0.32                   -0.261323       -0.935679
0.321                  -0.264763       -0.934337
0.322                  -0.268178        -0.93299
0.323                  -0.271571       -0.931638
0.324                   -0.27494       -0.930282
0.325                  -0.278288       -0.928923
0.326                  -0.281615       -0.927561
0.327                   -0.28492       -0.926196
0.328                  -0.288205       -0.924831
0.329                  -0.291471       -0.923464
0.33                   -0.294719       -0.922097
0.331                  -0.297949       -0.920729
0.332                  -0.301161       -0.919362
0.333                  -0.304358       -0.917996
0.334                   -0.30754       -0.916631
0.335                  -0.310707       -0.915267
0.336                  -0.313861       -0.913904
0.337                  -0.317003       -0.912542
0.338                  -0.320134       -0.911183
0.339                  -0.323254       -0.909824
0.34                   -0.326365       -0.908467
0.341                  -0.329467       -0.907112
0.342                  -0.332561       -0.905757
0.343                  -0.335649       -0.904403
0.344                  -0.338732        -0.90305
0.345                   -0.34181       -0.901697
0.346                  -0.344883       -0.900343
0.347                  -0.347955       -0.898988
0.348                  -0.351024       -0.897632
0.349                  -0.354092       -0.896274
0.35                   -0.357159       -0.894913
0.351                  -0.360227       -0.893548
0.352                  -0.363296       -0.892179
0.353                  -0.366367       -0.890805
0.354                  -0.369441       -0.889424
0.355                  -0.372517       -0.888036
0.356                  -0.375597        -0.88664
0.357                   -0.37868       -0.885234
0.358                  -0.381769       -0.883818
0.359                  -0.384862        -0.88239
0.36                    -0.38796       -0.880949
0.361                  -0.391063       -0.879494
0.362                  -0.394172       -0.878024
0.363                  -0.397286       -0.876537
0.364                  -0.400405       -0.875033
0.365                   -0.40353       -0.873509
0.366                   -0.40666       -0.871964
0.367                  -0.409795       -0.870397
0.368                  -0.412934       -0.868807
0.369                  -0.416078       -0.867193
0.37                   -0.419225       -0.865552
0.371                  -0.422375       -0.863883
0.372                  -0.425528       -0.862186
0.373                  -0.428682       -0.860459
0.374                  -0.431837         -0.8587
0.375                  -0.434992       -0.856909
0.376                  -0.438146       -0.855083
0.377                  -0.441297       -0.853223
0.378                  -0.444445       -0.851326
0.379                  -0.447588       -0.849392
0.38                   -0.450726       -0.847419
0.381                  -0.453856       -0.845407
0.382                  -0.456976       -0.843354
0.383                  -0.460086       -0.841259
0.384                  -0.463185       -0.839122
0.385                   -0.46627       -0.836943
0.386                  -0.469338       -0.834719
0.387                   -0.47239       -0.832451
0.388                  -0.475422       -0.830138
0.389                  -0.478433        -0.82778
0.39                   -0.481421       -0.825376
0.391                  -0.484384       -0.822925
0.392                  -0.487319       -0.820429
0.393                  -0.490226       -0.817887
0.394                    -0.4931       -0.815298
0.395                  -0.495941       -0.812663
0.396                  -0.498747       -0.809982
0.397                  -0.501514       -0.807256
0.398                  -0.504241       -0.804484
0.399                  -0.506925       -0.801668
0.4                    -0.509565       -0.798808
0.401                  -0.512158       -0.795905
0.402                  -0.514702        -0.79296
0.403                  -0.517195       -0.789973
0.404                  -0.519634       -0.786946
0.405                  -0.522018       -0.783881
0.406                  -0.524344       -0.780778
0.407                  -0.526611       -0.777638
0.408                  -0.528815       -0.774464
0.409                  -0.530956       -0.771257
0.41                   -0.533031       -0.768019
0.411                  -0.535039       -0.764752
0.412                  -0.536977       -0.761457
0.413                  -0.538845       -0.758137
0.414                  -0.540639       -0.754794
0.415                  -0.542359        -0.75143
0.416                  -0.544004       -0.748047
0.417                  -0.545571       -0.744649
0.418                   -0.54706       -0.741237
0.419                  -0.548469       -0.737814
0.42                   -0.549797       -0.734383
0.421                  -0.551044       -0.730946
0.422                  -0.552207       -0.727507
0.423                  -0.553288       -0.724068
0.424                  -0.554284       -0.720632
0.425                  -0.555196       -0.717202
0.426                  -0.556022       -0.713781
0.427                  -0.556764       -0.710372
0.428                  -0.557419       -0.706978
0.429                  -0.557989       -0.703603
0.43                   -0.558474        -0.70025
0.431                  -0.558874       -0.696921
0.432                  -0.559189        -0.69362
0.433                  -0.559419       -0.690351
0.434                  -0.559567       -0.687115
0.435                  -0.559631       -0.683917
0.436                  -0.559613       -0.680759
0.437                  -0.559515       -0.677646
0.438                  -0.559337       -0.674579
0.439                  -0.559081       -0.671561
0.44                   -0.558748       -0.668597
0.441                  -0.558341       -0.665689
0.442                   -0.55786        -0.66284
0.443                  -0.557307       -0.660052
0.444                  -0.556685       -0.657329
0.445                  -0.555996       -0.654673
0.446                  -0.555241       -0.652087
0.447                  -0.554425       -0.649573
0.448                  -0.553548       -0.647135
0.449                  -0.552613       -0.644773
0.45                   -0.551624       -0.642492
0.451                  -0.550584       -0.640292
0.452                  -0.549494       -0.638176
0.453                  -0.548358       -0.636146
0.454                  -0.547179       -0.634203
0.455                  -0.545961        -0.63235
0.456                  -0.544707       -0.630588
0.457                   -0.54342       -0.628918
0.458                  -0.542103       -0.627342
0.459                   -0.54076       -0.625861
0.46                   -0.539395       -0.624476
0.461                  -0.538011       -0.623187
0.462                  -0.536613       -0.621996
0.463                  -0.535202       -0.620903
0.464                  -0.533784       -0.619909
0.465                  -0.532362       -0.619013
0.466                   -0.53094       -0.618216
0.467                  -0.529522       -0.617518
0.468                  -0.528111       -0.616918
0.469                  -0.526711       -0.616417
0.47                   -0.525326       -0.616014
0.471                  -0.523959       -0.615707
0.472                  -0.522615       -0.615497
0.473                  -0.521297       -0.615382
0.474                  -0.520009       -0.615362
0.475                  -0.518754       -0.615434
0.476                  -0.517536       -0.615597
0.477                  -0.516358       -0.615851
0.478                  -0.515224       -0.616192
0.479                  -0.514137       -0.616619
0.48                     -0.5131       -0.617131
0.481                  -0.512117       -0.617724
0.482                  -0.511191       -0.618398
0.483                  -0.510324       -0.619148
0.484                   -0.50952       -0.619974
0.485                  -0.508781       -0.620871
0.486                  -0.508109       -0.621838
0.487                  -0.507509       -0.622871
0.488                  -0.506981       -0.623967
0.489                  -0.506528       -0.625124
0.49                   -0.506152       -0.626339
0.491                  -0.505856       -0.627607
0.492                  -0.505641       -0.628926
0.493                  -0.505509       -0.630292
0.494                  -0.505461       -0.631702
0.495                    -0.5055       -0.633152
0.496                  -0.505625       -0.634639
0.497                  -0.505839       -0.636159
0.498                  -0.506141       -0.637708
0.499                  -0.506534       -0.639284
0.5                    -0.507018       -0.640881
0.501                  -0.507593       -0.642497
0.502                  -0.508259       -0.644127
0.503                  -0.509017       -0.645768
0.504                  -0.509867       -0.647417
0.505                  -0.510808       -0.649069
0.506                  -0.511841       -0.650721
0.507                  -0.512964       -0.652369
0.508                  -0.514178        -0.65401
0.509                  -0.515481       -0.655639
0.51                   -0.516873       -0.657255
0.511                  -0.518352       -0.658852
0.512                  -0.519918       -0.660428
0.513                  -0.521568       -0.661979
0.514                  -0.523302       -0.663502
0.515                  -0.525118       -0.664994
0.516                  -0.527014       -0.666452
0.517                  -0.528989       -0.667872
0.518                   -0.53104       -0.669253
0.519                  -0.533165        -0.67059
0.52                   -0.535363       -0.671882
0.521                   -0.53763       -0.673125
0.522                  -0.539965       -0.674318
0.523                  -0.542365       -0.675457
0.524                  -0.544827       -0.676542
0.525                  -0.547349       -0.677569
0.526                  -0.549929       -0.678536
0.527                  -0.552563       -0.679442
0.528                  -0.555248       -0.680286
0.529                  -0.557982       -0.681064
0.53                   -0.560762       -0.681777
0.531                  -0.563585       -0.682422
0.532                  -0.566447       -0.682999
0.533                  -0.569347       -0.683505
0.534                   -0.57228       -0.683942
0.535                  -0.575243       -0.684307
0.536                  -0.578234       -0.684601
0.537                   -0.58125       -0.684822
0.538                  -0.584287        -0.68497
0.539                  -0.587343       -0.685045
0.54                   -0.590414       -0.685048
0.541                  -0.593497       -0.684977
0.542                   -0.59659       -0.684834
0.543                  -0.599689       -0.684619
0.544                  -0.602792       -0.684331
0.545                  -0.605895       -0.683971
0.546                  -0.608996       -0.683542
0.547                  -0.612093       -0.683041
0.548                  -0.615182       -0.682472
0.549                   -0.61826       -0.681835
0.55                   -0.621327       -0.681131
0.551                  -0.624377       -0.680361
0.552                  -0.627411       -0.679527
0.553                  -0.630424       -0.678629
0.554                  -0.633415       -0.677671
0.555                  -0.636382       -0.676652
0.556                  -0.639323       -0.675575
0.557                  -0.642235       -0.674441
0.558                  -0.645117       -0.673252
0.559                  -0.647968       -0.672011
0.56                   -0.650785       -0.670718
0.561                  -0.653567       -0.669377
0.562                  -0.656313       -0.667988
0.563                  -0.659021       -0.666554
0.564                  -0.661689       -0.665078
0.565                  -0.664318        -0.66356
0.566                  -0.666906       -0.662004
0.567                  -0.669452       -0.660411
0.568                  -0.671955       -0.658784
0.569                  -0.674414       -0.657125
0.57                    -0.67683       -0.655435
0.571                  -0.679201       -0.653718
0.572                  -0.681527       -0.651975
0.573                  -0.683808       -0.650209
0.574                  -0.686044       -0.648421
0.575                  -0.688235       -0.646613
0.576                   -0.69038       -0.644789
0.577                  -0.692481       -0.642949
0.578                  -0.694536       -0.641097
0.579                  -0.696547       -0.639233
0.58                   -0.698514        -0.63736
0.581                  -0.700437       -0.635479
0.582                  -0.702318       -0.633593
0.583                  -0.704156       -0.631704
0.584                  -0.705953       -0.629812
0.585                  -0.707708        -0.62792
0.586                  -0.709424        -0.62603
0.587                  -0.711101       -0.624142
0.588                   -0.71274       -0.622259
0.589                  -0.714342       -0.620381
0.59                   -0.715909        -0.61851
0.591                  -0.717441       -0.616648
0.592                  -0.718939       -0.614795
0.593                  -0.720405       -0.612953
0.594                  -0.721841       -0.611122
0.595                  -0.723246       -0.609304
0.596                  -0.724624       -0.607499
0.597                  -0.725975       -0.605708
0.598                    -0.7273       -0.603932
0.599                  -0.728601       -0.602171
0.6                    -0.729879       -0.600427
0.601                  -0.731136       -0.598699
0.602                  -0.732373       -0.596988
0.603                  -0.733592       -0.595294
0.604                  -0.734793       -0.593617
0.605                  -0.735979       -0.591958
0.606                   -0.73715       -0.590316
0.607                  -0.738309       -0.588692
0.608                  -0.739455       -0.587085
0.609                  -0.740592       -0.585496
0.61                   -0.741719       -0.583924
0.611                  -0.742838       -0.582369
0.612                   -0.74395        -0.58083
0.613                  -0.745057       -0.579307
0.614                  -0.746159         -0.5778
0.615                  -0.747259       -0.576308
0.616                  -0.748355       -0.574831
0.617                  -0.749451       -0.573367
0.618                  -0.750546       -0.571917
0.619                  -0.751642       -0.570479
0.62                   -0.752739       -0.569053
0.621                  -0.753838       -0.567639
0.622                  -0.754939       -0.566234
0.623                  -0.756044       -0.564839
0.624                  -0.757154       -0.563453
0.625                  -0.758268       -0.562074
0.626                  -0.759387       -0.560702
0.627                  -0.760512       -0.559336
0.628                  -0.761642       -0.557975
0.629                  -0.762779       -0.556618
0.63                   -0.763922       -0.555264
0.631                  -0.765071       -0.553912
0.632                  -0.766228       -0.552561
0.633                  -0.767391        -0.55121
0.634                  -0.768561       -0.549859
0.635                  -0.769737       -0.548506
0.636                  -0.770921       -0.547151
0.637                  -0.772111       -0.545792
0.638                  -0.773307       -0.544429
0.639                  -0.774509       -0.543061
0.64                   -0.775718       -0.541687
0.641                  -0.776931       -0.540307
0.642                  -0.778149       -0.538918
0.643                  -0.779372       -0.537522
0.644                  -0.780599       -0.536117
0.645                   -0.78183       -0.534702
0.646                  -0.783063       -0.533278
0.647                  -0.784299       -0.531842
0.648                  -0.785537       -0.530395
0.649                  -0.786776       -0.528937
0.65                   -0.788015       -0.527466
0.651                  -0.789255       -0.525983
0.652                  -0.790493       -0.524487
0.653                   -0.79173       -0.522977
0.654                  -0.792965       -0.521454
0.655                  -0.794196       -0.519917
0.656                  -0.795423       -0.518366
0.657                  -0.796646       -0.516801
0.658                  -0.797864       -0.515222
0.659                  -0.799075       -0.513629
0.66                    -0.80028       -0.512021
0.661                  -0.801477         -0.5104
0.662                  -0.802666       -0.508764
0.663                  -0.803845       -0.507115
0.664                  -0.805015       -0.505451
0.665                  -0.806174       -0.503775
0.666                  -0.807322       -0.502085
0.667                  -0.808458       -0.500382
0.668                  -0.809582       -0.498667
0.669                  -0.810693       -0.496939
0.67                   -0.811789         -0.4952
0.671                  -0.812872       -0.493449
0.672                  -0.813939       -0.491687
0.673                  -0.814992       -0.489915
0.674                  -0.816028       -0.488134
0.675                  -0.817049       -0.486343
0.676                  -0.818052       -0.484543
0.677                  -0.819039       -0.482735
0.678                  -0.820009        -0.48092
0.679                  -0.820961       -0.479098
0.68                   -0.821895       -0.477269
0.681                  -0.822811       -0.475435
0.682                  -0.823708       -0.473597
0.683                  -0.824588       -0.471753
0.684                  -0.825449       -0.469907
0.685                  -0.826291       -0.468057
0.686                  -0.827115       -0.466205
0.687                   -0.82792       -0.464351
0.688                  -0.828707       -0.462497
0.689                  -0.829476       -0.460642
0.69                   -0.830226       -0.458787
0.691                  -0.830959       -0.456933
0.692                  -0.831673       -0.455081
0.693                   -0.83237       -0.453231
0.694                   -0.83305       -0.451384
0.695                  -0.833713       -0.449539
0.696                  -0.834359       -0.447699
0.697                  -0.834989       -0.445863
0.698                  -0.835603       -0.444031
0.699                  -0.836201       -0.442204
0.7                    -0.836784       -0.440384
0.701                  -0.837353       -0.438568
0.702                  -0.837908       -0.436759
0.703                  -0.838449       -0.434957
0.704                  -0.838977       -0.433162
0.705                  -0.839492       -0.431373
0.706                  -0.839995       -0.429592
0.707                  -0.840487       -0.427819
0.708                  -0.840968       -0.426053
0.709                  -0.841439       -0.424294
0.71                   -0.841899       -0.422544
0.711                  -0.842351       -0.420801
0.712                  -0.842794       -0.419066
0.713                  -0.843228       -0.417339
0.714                  -0.843655       -0.415619
0.715                  -0.844075       -0.413907
0.716                  -0.844488       -0.412203
0.717                  -0.844895       -0.410505
0.718                  -0.845297       -0.408814
0.719                  -0.845694        -0.40713
0.72                   -0.846086       -0.405453
0.721                  -0.846473       -0.403781
0.722                  -0.846857       -0.402115
0.723                  -0.847238       -0.400455
0.724                  -0.847615       -0.398799
0.725                   -0.84799       -0.397148
0.726                  -0.848362       -0.395501
0.727                  -0.848732       -0.393858
0.728                    -0.8491       -0.392217
0.729                  -0.849467       -0.390579
0.73                   -0.849832       -0.388943
0.731                  -0.850195       -0.387309
0.732                  -0.850557       -0.385676
0.733                  -0.850918       -0.384042
0.734                  -0.851277       -0.382409
0.735                  -0.851635       -0.380775
0.736                  -0.851992       -0.379139
0.737                  -0.852347       -0.377502
0.738                  -0.852701       -0.375861
0.739                  -0.853052       -0.374218
0.74                   -0.853402       -0.372571
0.741                  -0.853749        -0.37092
0.742                  -0.854093       -0.369264
0.743                  -0.854435       -0.367603
0.744                  -0.854773       -0.365936
0.745                  -0.855107       -0.364262
0.746                  -0.855437       -0.362582
0.747                  -0.855762       -0.360894
0.748                  -0.856082       -0.359199
0.749                  -0.856395       -0.357495
0.75                   -0.856703       -0.355784
0.751                  -0.857003       -0.354063
0.752                  -0.857295       -0.352333
0.753                  -0.857579       -0.350594
0.754                  -0.857853       -0.348845
0.755                  -0.858118       -0.347086
0.756                  -0.858372       -0.345317
0.757                  -0.858614       -0.343538
0.758                  -0.858845       -0.341748
0.759                  -0.859062       -0.339949
0.76                   -0.859264       -0.338139
0.761                  -0.859453       -0.336319
0.762                  -0.859625       -0.334488
0.763                  -0.859781       -0.332648
0.764                   -0.85992       -0.330798
0.765                   -0.86004       -0.328938
0.766                  -0.860141       -0.327069
0.767                  -0.860223       -0.325191
0.768                  -0.860283       -0.323304
0.769                  -0.860322        -0.32141
0.77                   -0.860338       -0.319507
0.771                   -0.86033       -0.317598
0.772                  -0.860299       -0.315682
0.773                  -0.860242        -0.31376
0.774                   -0.86016       -0.311832
0.775                  -0.860051         -0.3099
0.776                  -0.859915       -0.307965
0.777                  -0.859751       -0.306026
0.778                  -0.859558       -0.304085
0.779                  -0.859336       -0.302143
0.78                   -0.859084         -0.3002
0.781                  -0.858801       -0.298258
0.782                  -0.858488       -0.296318
0.783                  -0.858143        -0.29438
0.784                  -0.857766       -0.292447
0.785                  -0.857357       -0.290517
0.786                  -0.856915       -0.288594
0.787                  -0.856439       -0.286678
0.788                  -0.855931       -0.284771
0.789                  -0.855389       -0.282873
0.79                   -0.854813       -0.280985
0.791                  -0.854203        -0.27911
0.792                   -0.85356       -0.277248
0.793                  -0.852882         -0.2754
0.794                  -0.852171       -0.273568
0.795                  -0.851426       -0.271754
0.796                  -0.850647       -0.269958
0.797                  -0.849835       -0.268181
0.798                   -0.84899       -0.266426
0.799                  -0.848112       -0.264693
0.8                    -0.847202       -0.262984
0.801                  -0.846259         -0.2613
0.802                  -0.845285       -0.259642
0.803                  -0.844281       -0.258012
0.804                  -0.843246        -0.25641
0.805                  -0.842181       -0.254839
0.806                  -0.841088       -0.253299
0.807                  -0.839967       -0.251791
0.808                  -0.838818       -0.250317
0.809                  -0.837643       -0.248879
0.81                   -0.836443       -0.247475
0.811                  -0.835218        -0.24611
0.812                   -0.83397       -0.244782
0.813                  -0.832699       -0.243493
0.814                  -0.831408       -0.242245
0.815                  -0.830097       -0.241037
0.816                  -0.828767       -0.239872
0.817                  -0.827419       -0.238749
0.818                  -0.826055        -0.23767
0.819                  -0.824677       -0.236636
0.82                   -0.823285       -0.235646
0.821                  -0.821882       -0.234702
0.822                  -0.820468       -0.233804
0.823                  -0.819044       -0.232954
0.824                  -0.817614       -0.232151
0.825                  -0.816177       -0.231395
0.826                  -0.814736       -0.230688
0.827                  -0.813292       -0.230029
0.828                  -0.811846       -0.229419
0.829                  -0.810401       -0.228857
0.83                   -0.808958       -0.228345
0.831                  -0.807518       -0.227882
0.832                  -0.806084       -0.227468
0.833                  -0.804656       -0.227103
0.834                  -0.803237       -0.226787
0.835                  -0.801827        -0.22652
0.836                   -0.80043       -0.226301
0.837                  -0.799045        -0.22613
0.838                  -0.797676       -0.226007
0.839                  -0.796323       -0.225932
0.84                   -0.794988       -0.225903
0.841                  -0.793672       -0.225921
0.842                  -0.792377       -0.225984
0.843                  -0.791106       -0.226093
0.844                  -0.789858       -0.226246
0.845                  -0.788636       -0.226442
0.846                   -0.78744        -0.22668
0.847                  -0.786274       -0.226961
0.848                  -0.785137       -0.227283
0.849                   -0.78403       -0.227644
0.85                   -0.782957       -0.228044
0.851                  -0.781917       -0.228482
0.852                  -0.780911       -0.228956
0.853                  -0.779942       -0.229465
0.854                  -0.779009       -0.230009
0.855                  -0.778115       -0.230585
0.856                   -0.77726       -0.231194
0.857                  -0.776445       -0.231832
0.858                  -0.775671       -0.232499
0.859                  -0.774939       -0.233193
0.86                   -0.774249       -0.233914
0.861                  -0.773603       -0.234659
0.862                  -0.773001       -0.235427
0.863                  -0.772443       -0.236216
0.864                  -0.771931       -0.237026
0.865                  -0.771465       -0.237854
0.866                  -0.771045       -0.238699
0.867                  -0.770672       -0.239559
0.868                  -0.770346       -0.240433
0.869                  -0.770067       -0.241319
0.87                   -0.769835       -0.242216
0.871                  -0.769652       -0.243122
0.872                  -0.769516       -0.244035
0.873                  -0.769428       -0.244954
0.874                  -0.769387       -0.245878
0.875                  -0.769395       -0.246804
0.876                   -0.76945       -0.247731
0.877                  -0.769553       -0.248658
0.878                  -0.769702       -0.249583
0.879                  -0.769899       -0.250505
0.88                   -0.770142       -0.251421
0.881                  -0.770432       -0.252331
0.882                  -0.770767       -0.253233
0.883                  -0.771148       -0.254126
0.884                  -0.771573       -0.255008
0.885                  -0.772042       -0.255878
0.886                  -0.772554       -0.256735
0.887                   -0.77311       -0.257576
0.888                  -0.773707       -0.258402
0.889                  -0.774346        -0.25921
0.89                   -0.775025           -0.26
0.891                  -0.775744        -0.26077
0.892                  -0.776501        -0.26152
0.893                  -0.777296       -0.262247
0.894                  -0.778128       -0.262951
0.895                  -0.778996       -0.263632
0.896                  -0.779898       -0.264288
0.897                  -0.780835       -0.264917
0.898                  -0.781804        -0.26552
0.899                  -0.782805       -0.266095
0.9                    -0.783836       -0.266642
0.901                  -0.784897        -0.26716
0.902                  -0.785986       -0.267648
0.903                  -0.787102       -0.268105
0.904                  -0.788245       -0.268532
0.905                  -0.789412       -0.268926
0.906                  -0.790602       -0.269289
0.907                  -0.791815       -0.269619
0.908                   -0.79305       -0.269915
0.909                  -0.794304       -0.270179
0.91                   -0.795577       -0.270409
0.911                  -0.796867       -0.270604
0.912                  -0.798174       -0.270765
0.913                  -0.799496       -0.270892
0.914                  -0.800833       -0.270985
0.915                  -0.802182       -0.271042
0.916                  -0.803542       -0.271065
0.917                  -0.804913       -0.271053
0.918                  -0.806293       -0.271006
0.919                  -0.807682       -0.270924
0.92                   -0.809078       -0.270808
0.921                  -0.810479       -0.270657
0.922                  -0.811886       -0.270472
0.923                  -0.813296       -0.270253
0.924                  -0.814708           -0.27
0.925                  -0.816123       -0.269713
0.926                  -0.817538       -0.269393
0.927                  -0.818953        -0.26904
0.928                  -0.820367       -0.268654
0.929                  -0.821778       -0.268236
0.93                   -0.823186       -0.267787
0.931                   -0.82459       -0.267306
0.932                   -0.82599       -0.266794
0.933                  -0.827383       -0.266252
0.934                  -0.828771       -0.265679
0.935                   -0.83015       -0.265078
0.936                  -0.831522       -0.264448
0.937                  -0.832885       -0.263789
0.938                  -0.834238       -0.263103
0.939                  -0.835582       -0.262391
0.94                   -0.836915       -0.261651
0.941                  -0.838236       -0.260886
0.942                  -0.839545       -0.260096
0.943                  -0.840842       -0.259281
0.944                  -0.842126       -0.258443
0.945                  -0.843397       -0.257581
0.946                  -0.844653       -0.256697
0.947                  -0.845896       -0.255791
0.948                  -0.847124       -0.254864
0.949                  -0.848336       -0.253917
0.95                   -0.849533        -0.25295
0.951                  -0.850715       -0.251964
0.952                  -0.851881        -0.25096
0.953                   -0.85303       -0.249937
0.954                  -0.854163       -0.248899
0.955                  -0.855279       -0.247843
0.956                  -0.856378       -0.246772
0.957                  -0.857461       -0.245686
0.958                  -0.858527       -0.244585
0.959                  -0.859575       -0.243471
0.96                   -0.860606       -0.242343
0.961                   -0.86162       -0.241203
0.962                  -0.862616       -0.240052
0.963                  -0.863595       -0.238889
0.964                  -0.864557       -0.237715
0.965                  -0.865502       -0.236532
0.966                  -0.866429       -0.235339
0.967                  -0.867339       -0.234136
0.968                  -0.868233       -0.232926
0.969                  -0.869109       -0.231708
0.97                   -0.869968       -0.230482
0.971                  -0.870811       -0.229249
0.972                  -0.871637        -0.22801
0.973                  -0.872446       -0.226766
0.974                   -0.87324       -0.225515
0.975                  -0.874017        -0.22426
0.976                  -0.874778          -0.223
0.977                  -0.875524       -0.221736
0.978                  -0.876254       -0.220468
0.979                  -0.876969       -0.219197
0.98                   -0.877669       -0.217923
0.981                  -0.878355       -0.216645
0.982                  -0.879025       -0.215366
0.983                  -0.879681       -0.214084
0.984                  -0.880324       -0.212801
0.985                  -0.880952       -0.211516
0.986                  -0.881567        -0.21023
0.987                  -0.882168       -0.208942
0.988                  -0.882757       -0.207655
0.989                  -0.883333       -0.206366
0.99                   -0.883896       -0.205077
0.991                  -0.884447       -0.203788
0.992                  -0.884985       -0.202499
0.993                  -0.885513       -0.201209
0.994                  -0.886028       -0.199921
0.995                  -0.886532       -0.198632
0.996                  -0.887026       -0.197344
0.997                  -0.887508       -0.196057
0.998                   -0.88798       -0.194771
0.999                  -0.888441       -0.193485
1                      -0.888893       -0.192201
1.001                  -0.889334       -0.190917
1.002                  -0.889766       -0.189634
1.003                  -0.890188       -0.188352
1.004                  -0.890602       -0.187071
1.005                  -0.891006       -0.185791
1.006                  -0.891401       -0.184513
1.007                  -0.891788       -0.183235
1.008                  -0.892166       -0.181959
1.009                  -0.892536       -0.180683
1.01                   -0.892897       -0.179409
1.011                  -0.893251       -0.178136
1.012                  -0.893597       -0.176864
1.013                  -0.893935       -0.175593
1.014                  -0.894265       -0.174322
1.015                  -0.894588       -0.173053
1.016                  -0.894904       -0.171784
1.017                  -0.895213       -0.170516
1.018                  -0.895514       -0.169249
1.019                  -0.895808       -0.167983
1.02                   -0.896095       -0.166717
1.021                  -0.896376       -0.165452
1.022                  -0.896649       -0.164188
1.023                  -0.896916       -0.162923
1.024                  -0.897176       -0.161659
1.025                   -0.89743       -0.160396
1.026                  -0.897676       -0.159132
1.027                  -0.897917       -0.157869
1.028                   -0.89815       -0.156606
1.029                  -0.898377       -0.155343
1.03                   -0.898597        -0.15408
1.031                  -0.898811       -0.152816
1.032                  -0.899018       -0.151553
1.033                  -0.899219        -0.15029
1.034                  -0.899413       -0.149026
1.035                    -0.8996       -0.147762
1.036                   -0.89978       -0.146497
1.037                  -0.899954       -0.145232
1.038                  -0.900121       -0.143967
1.039                  -0.900281       -0.142701
1.04                   -0.900435       -0.141434
1.041                  -0.900581       -0.140167
1.042                   -0.90072         -0.1389
1.043                  -0.900852       -0.137632
1.044                  -0.900977       -0.136363
1.045                  -0.901095       -0.135093
1.046                  -0.901205       -0.133823
1.047                  -0.901308       -0.132552
1.048                  -0.901403       -0.131281
1.049                  -0.901491       -0.130009
1.05                   -0.901571       -0.128736
1.051                  -0.901643       -0.127463
1.052                  -0.901708       -0.126189
1.053                  -0.901764       -0.124914
1.054                  -0.901812       -0.123639
1.055                  -0.901852       -0.122364
1.056                  -0.901883       -0.121088
1.057                  -0.901906       -0.119812
1.058                  -0.901921       -0.118535
1.059                  -0.901926       -0.117258
1.06                   -0.901923       -0.115981
1.061                  -0.901911       -0.114704
1.062                   -0.90189       -0.113427
1.063                   -0.90186       -0.112149
1.064                   -0.90182       -0.110872
1.065                  -0.901772       -0.109596
1.066                  -0.901713       -0.108319
1.067                  -0.901645       -0.107043
1.068                  -0.901567       -0.105768
1.069                   -0.90148       -0.104493
1.07                   -0.901382       -0.103219
1.071                  -0.901275       -0.101946
1.072                  -0.901157       -0.100674
1.073                  -0.901029      -0.0994039
1.074                  -0.900891      -0.0981349
1.075                  -0.900742      -0.0968677
1.076                  -0.900583      -0.0956019
1.077                  -0.900413      -0.0943382
1.078                  -0.900232      -0.0930765
1.079                  -0.900041       -0.091817
1.08                   -0.899838      -0.0905602
1.081                  -0.899625      -0.0893057
1.082                  -0.899401      -0.0880543
1.083                  -0.899166      -0.0868059
1.084                  -0.898919      -0.0855608
1.085                  -0.898661      -0.0843192
1.086                  -0.898392      -0.0830812
1.087                  -0.898112      -0.0818471
1.088                  -0.897821      -0.0806172
1.089                  -0.897518      -0.0793916
1.09                   -0.897203      -0.0781705
1.091                  -0.896878      -0.0769545
1.092                   -0.89654      -0.0757433
1.093                  -0.896192      -0.0745375
1.094                  -0.895831      -0.0733373
1.095                   -0.89546      -0.0721427
1.096                  -0.895077      -0.0709545
1.097                  -0.894682      -0.0697725
1.098                  -0.894276      -0.0685967
1.099                  -0.893859      -0.0674281
1.1                     -0.89343      -0.0662665
1.101                   -0.89299      -0.0651122
1.102                  -0.892538      -0.0639657
1.103                  -0.892076       -0.062827
1.104                  -0.891602      -0.0616966
1.105                  -0.891117      -0.0605744
1.106                  -0.890621      -0.0594611
1.107                  -0.890114      -0.0583565
1.108                  -0.889596      -0.0572614
1.109                  -0.889068      -0.0561758
1.11                   -0.888529         -0.0551
1.111                  -0.887979      -0.0540342
1.112                  -0.887419       -0.052979
1.113                  -0.886849      -0.0519345
1.114                  -0.886268      -0.0509005
1.115                  -0.885678       -0.049878
1.116                  -0.885078      -0.0488669
1.117                  -0.884468      -0.0478675
1.118                  -0.883849      -0.0468801
1.119                   -0.88322      -0.0459049
1.12                   -0.882582      -0.0449427
1.121                  -0.881936      -0.0439929
1.122                  -0.881281       -0.043056
1.123                  -0.880617      -0.0421328
1.124                  -0.879945       -0.041223
1.125                  -0.879265       -0.040327
1.126                  -0.878578      -0.0394451
1.127                  -0.877883      -0.0385776
1.128                   -0.87718      -0.0377245
1.129                  -0.876471      -0.0368863
1.13                   -0.875755      -0.0360631
1.131                  -0.875033      -0.0352553
1.132                  -0.874304      -0.0344625
1.133                   -0.87357      -0.0336858
1.134                   -0.87283      -0.0329246
1.135                  -0.872085      -0.0321798
1.136                  -0.871336      -0.0314513
1.137                  -0.870582      -0.0307389
1.138                  -0.869823      -0.0300434
1.139                  -0.869061      -0.0293644
1.14                   -0.868295      -0.0287028
1.141                  -0.867527       -0.028058
1.142                  -0.866755      -0.0274305
1.143                  -0.865981      -0.0268205
1.144                  -0.865206      -0.0262278
1.145                  -0.864428       -0.025653
1.146                   -0.86365      -0.0250956
1.147                  -0.862871      -0.0245562
1.148                  -0.862091      -0.0240348
1.149                  -0.861311      -0.0235315
1.15                   -0.860532      -0.0230461
1.151                  -0.859754       -0.022579
1.152                  -0.858977      -0.0221298
1.153                  -0.858202      -0.0216991
1.154                  -0.857429      -0.0212867
1.155                  -0.856658      -0.0208925
1.156                  -0.855891      -0.0205165
1.157                  -0.855127      -0.0201584
1.158                  -0.854367       -0.019819
1.159                  -0.853612      -0.0194976
1.16                   -0.852861      -0.0191944
1.161                  -0.852115      -0.0189092
1.162                  -0.851375      -0.0186419
1.163                  -0.850642      -0.0183926
1.164                  -0.849915      -0.0181611
1.165                  -0.849195      -0.0179475
1.166                  -0.848483      -0.0177513
1.167                  -0.847778      -0.0175727
1.168                  -0.847082      -0.0174111
1.169                  -0.846395      -0.0172669
1.17                   -0.845718      -0.0171393
1.171                  -0.845049      -0.0170287
1.172                  -0.844392      -0.0169346
1.173                  -0.843744      -0.0168567
1.174                  -0.843108      -0.0167949
1.175                  -0.842484      -0.0167492
1.176                  -0.841871      -0.0167189
1.177                   -0.84127       -0.016704
1.178                  -0.840683      -0.0167039
1.179                  -0.840108      -0.0167186
1.18                   -0.839547      -0.0167479
1.181                     -0.839      -0.0167911
1.182                  -0.838467       -0.016848
1.183                  -0.837948      -0.0169186
1.184                  -0.837445       -0.017002
1.185                  -0.836957      -0.0170984
1.186                  -0.836485      -0.0172067
1.187                  -0.836029      -0.0173271
1.188                  -0.835589      -0.0174589
1.189                  -0.835166      -0.0176018
1.19                   -0.834759      -0.0177555
1.191                   -0.83437      -0.0179194
1.192                  -0.833999      -0.0180929
1.193                  -0.833645      -0.0182758
1.194                   -0.83331      -0.0184676
1.195                  -0.832993      -0.0186679
1.196                  -0.832694      -0.0188759
1.197                  -0.832414      -0.0190913
1.198                  -0.832153      -0.0193136
1.199                  -0.831911      -0.0195425
1.2                    -0.831688      -0.0197771
1.201                  -0.831485      -0.0200173
1.202                  -0.831302      -0.0202622
1.203                  -0.831138      -0.0205114
1.204                  -0.830994      -0.0207645
1.205                  -0.830869      -0.0210209
1.206                  -0.830765      -0.0212799
1.207                  -0.830681      -0.0215411
1.208                  -0.830617      -0.0218042
1.209                  -0.830573      -0.0220683
1.21                   -0.830549      -0.0223327
1.211                  -0.830545      -0.0225973
1.212                  -0.830562      -0.0228615
1.213                  -0.830598      -0.0231244
1.214                  -0.830655      -0.0233858
1.215                  -0.830731      -0.0236448
1.216                  -0.830827      -0.0239012
1.217                  -0.830943      -0.0241545
1.218                  -0.831079      -0.0244036
1.219                  -0.831234      -0.0246488
1.22                   -0.831408      -0.0248889
1.221                  -0.831601      -0.0251238
1.222                  -0.831814      -0.0253526
1.223                  -0.832045      -0.0255751
1.224                  -0.832295      -0.0257905
1.225                  -0.832563      -0.0259986
1.226                  -0.832849      -0.0261987
1.227                  -0.833152      -0.0263906
1.228                  -0.833474      -0.0265735
1.229                  -0.833812      -0.0267471
1.23                   -0.834168      -0.0269108
1.231                   -0.83454      -0.0270643
1.232                  -0.834928      -0.0272073
1.233                  -0.835332      -0.0273392
1.234                  -0.835751      -0.0274595
1.235                  -0.836186       -0.027568
1.236                  -0.836636      -0.0276642
1.237                    -0.8371      -0.0277478
1.238                  -0.837577      -0.0278184
1.239                  -0.838069      -0.0278757
1.24                   -0.838573      -0.0279192
1.241                  -0.839091      -0.0279488
1.242                   -0.83962      -0.0279641
1.243                  -0.840161       -0.027965
1.244                  -0.840714      -0.0279508
1.245                  -0.841277      -0.0279216
1.246                  -0.841851      -0.0278773
1.247                  -0.842435      -0.0278171
1.248                  -0.843028      -0.0277413
1.249                   -0.84363      -0.0276496
1.25                   -0.844241      -0.0275418
1.251                  -0.844859      -0.0274177
1.252                  -0.845485      -0.0272773
1.253                  -0.846118      -0.0271203
1.254                  -0.846757      -0.0269468
1.255                  -0.847402      -0.0267564
1.256                  -0.848053      -0.0265494
1.257                  -0.848708      -0.0263254
1.258                  -0.849368      -0.0260847
1.259                  -0.850032      -0.0258269
1.26                     -0.8507      -0.0255524
1.261                   -0.85137      -0.0252609
1.262                  -0.852043      -0.0249527
1.263                  -0.852717      -0.0246277
1.264                  -0.853393      -0.0242857
1.265                  -0.854071      -0.0239271
1.266                  -0.854748      -0.0235521
1.267                  -0.855426      -0.0231606
1.268                  -0.856103      -0.0227528
1.269                   -0.85678      -0.0223287
1.27                   -0.857455      -0.0218885
1.271                  -0.858128      -0.0214325
1.272                    -0.8588      -0.0209606
1.273                  -0.859469      -0.0204732
1.274                  -0.860134      -0.0199707
1.275                  -0.860797      -0.0194528
1.276                  -0.861456      -0.0189202
1.277                   -0.86211      -0.0183728
1.278                   -0.86276      -0.0178113
1.279                  -0.863406      -0.0172352
1.28                   -0.864046      -0.0166454
1.281                   -0.86468      -0.0160418
1.282                  -0.865309      -0.0154252
1.283                  -0.865932      -0.0147954
1.284                  -0.866548      -0.0141527
1.285                  -0.867158      -0.0134977
1.286                  -0.867761      -0.0128306
1.287                  -0.868356      -0.0121514
1.288                  -0.868944       -0.011461
1.289                  -0.869525       -0.010759
1.29                   -0.870098      -0.0100464
1.291                  -0.870662     -0.00932325
1.292                  -0.871219     -0.00858996
1.293                  -0.871767     -0.00784653
1.294                  -0.872307     -0.00709374
1.295                  -0.872838     -0.00633161
1.296                   -0.87336     -0.00556074
1.297                  -0.873873     -0.00478114
1.298                  -0.874378     -0.00399341
1.299                  -0.874873     -0.00319796
1.3                    -0.875359     -0.00239501
1.301                  -0.875836     -0.00158455
1.302                  -0.876304    -0.000767222
1.303                  -0.876762     5.63778e-05
1.304                  -0.877211     0.000886429
1.305                  -0.877651      0.00172252
1.306                  -0.878082      0.00256442
1.307                  -0.878503      0.00341153
1.308                  -0.878915      0.00426361
1.309                  -0.879318      0.00512046
1.31                   -0.879712      0.00598185
1.311                  -0.880096      0.00684736
1.312                  -0.880472      0.00771717
1.313                  -0.880838      0.00859026
1.314                  -0.881195      0.00946701
1.315                  -0.881544        0.010347
1.316                  -0.881884         0.01123
1.317                  -0.882215       0.0121156
1.318                  -0.882538       0.0130038
1.319                  -0.882852       0.0138943
1.32                   -0.883158        0.014787
1.321                  -0.883456       0.0156815
1.322                  -0.883745       0.0165778
1.323                  -0.884027       0.0174757
1.324                  -0.884301       0.0183751
1.325                  -0.884567       0.0192757
1.326                  -0.884825       0.0201776
1.327                  -0.885076       0.0210804
1.328                   -0.88532       0.0219842
1.329                  -0.885557       0.0228886
1.33                   -0.885786       0.0237937
1.331                  -0.886009       0.0246995
1.332                  -0.886225       0.0256059
1.333                  -0.886435       0.0265126
1.334                  -0.886638       0.0274193
1.335                  -0.886834       0.0283267
1.336                  -0.887025       0.0292342
1.337                  -0.887209       0.0301421
1.338                  -0.887387         0.03105
1.339                   -0.88756        0.031958
1.34                   -0.887727       0.0328663
1.341                  -0.887888       0.0337745
1.342                  -0.888043       0.0346828
1.343                  -0.888193       0.0355914
1.344                  -0.888338       0.0364998
1.345                  -0.888478       0.0374087
1.346                  -0.888612       0.0383174
1.347                  -0.888742       0.0392263
1.348                  -0.888866       0.0401354
1.349                  -0.888986       0.0410445
1.35                     -0.8891       0.0419541
1.351                   -0.88921       0.0428639
1.352                  -0.889315       0.0437739
1.353                  -0.889415       0.0446841
1.354                  -0.889511       0.0455949
1.355                  -0.889602       0.0465059
1.356                  -0.889688       0.0474173
1.357                   -0.88977       0.0483294
1.358                  -0.889847       0.0492419
1.359                  -0.889919       0.0501548
1.36                   -0.889986       0.0510685
1.361                  -0.890049       0.0519826
1.362                  -0.890108       0.0528976
1.363                  -0.890161       0.0538133
1.364                   -0.89021       0.0547294
1.365                  -0.890254       0.0556463
1.366                  -0.890293       0.0565641
1.367                  -0.890328       0.0574827
1.368                  -0.890357       0.0584023
1.369                  -0.890382       0.0593226
1.37                   -0.890401       0.0602437
1.371                  -0.890415       0.0611655
1.372                  -0.890425       0.0620883
1.373                  -0.890429       0.0630119
1.374                  -0.890427       0.0639363
1.375                   -0.89042       0.0648612
1.376                  -0.890408       0.0657875
1.377                   -0.89039       0.0667139
1.378                  -0.890367       0.0676414
1.379                  -0.890337       0.0685694
1.38                   -0.890302        0.069498
1.381                  -0.890261       0.0704275
1.382                  -0.890214       0.0713572
1.383                  -0.890161       0.0722874
1.384                  -0.890102       0.0732181
1.385                  -0.890036       0.0741488
1.386                  -0.889964       0.0750799
1.387                  -0.889885        0.076011
1.388                    -0.8898       0.0769424
1.389                  -0.889709       0.0778732
1.39                   -0.889611       0.0788042
1.391                  -0.889505       0.0797349
1.392                  -0.889394        0.080665
1.393                  -0.889275       0.0815944
1.394                  -0.889149       0.0825233
1.395                  -0.889016       0.0834513
1.396                  -0.888876       0.0843785
1.397                  -0.888729       0.0853043
1.398                  -0.888575        0.086229
1.399                  -0.888414       0.0871523
1.4                    -0.888245       0.0880739
1.401                  -0.888069       0.0889937
1.402                  -0.887886       0.0899116
1.403                  -0.887695       0.0908276
1.404                  -0.887498       0.0917413
1.405                  -0.887292       0.0926525
1.406                   -0.88708       0.0935611
1.407                   -0.88686       0.0944668
1.408                  -0.886633       0.0953696
1.409                  -0.886398       0.0962694
1.41                   -0.886157       0.0971658
1.411                  -0.885908       0.0980586
1.412                  -0.885652       0.0989479
1.413                  -0.885389       0.0998333
1.414                  -0.885119        0.100715
1.415                  -0.884841        0.101592
1.416                  -0.884557        0.102464
1.417                  -0.884267        0.103332
1.418                  -0.883969        0.104196
1.419                  -0.883665        0.105054
1.42                   -0.883354        0.105908
1.421                  -0.883037        0.106756
1.422                  -0.882713        0.107599
1.423                  -0.882383        0.108436
1.424                  -0.882048        0.109268
1.425                  -0.881706        0.110094
1.426                  -0.881358        0.110913
1.427                  -0.881005        0.111727
1.428                  -0.880646        0.112535
1.429                  -0.880282        0.113336
1.43                   -0.879913         0.11413
1.431                  -0.879538        0.114918
1.432                  -0.879159        0.115699
1.433                  -0.878774        0.116474
1.434                  -0.878386        0.117242
1.435                  -0.877992        0.118002
1.436                  -0.877595        0.118755
1.437                  -0.877193        0.119502
1.438                  -0.876788        0.120241
1.439                  -0.876379        0.120972
1.44                   -0.875966        0.121697
1.441                   -0.87555        0.122413
1.442                  -0.875131        0.123123
1.443                  -0.874709        0.123825
1.444                  -0.874284        0.124519
1.445                  -0.873856        0.125206
1.446                  -0.873426        0.125885
1.447                  -0.872993        0.126556
1.448                  -0.872559         0.12722
1.449                  -0.872123        0.127876
1.45                   -0.871684        0.128525
1.451                  -0.871245        0.129166
1.452                  -0.870803        0.129799
1.453                  -0.870361        0.130425
1.454                  -0.869917        0.131043
1.455                  -0.869473        0.131654
1.456                  -0.869028        0.132257
1.457                  -0.868582        0.132853
1.458                  -0.868136        0.133441
1.459                  -0.867689        0.134021
1.46                   -0.867242        0.134595
1.461                  -0.866796        0.135161
1.462                  -0.866349        0.135719
1.463                  -0.865903        0.136271
1.464                  -0.865456        0.136815
1.465                  -0.865011        0.137353
1.466                  -0.864566        0.137883
1.467                  -0.864122        0.138407
1.468                  -0.863679        0.138923
1.469                  -0.863236        0.139433
1.47                   -0.862795        0.139936
1.471                  -0.862355        0.140432
1.472                  -0.861916        0.140922
1.473                  -0.861479        0.141404
1.474                  -0.861043        0.141881
1.475                  -0.860608        0.142351
1.476                  -0.860175        0.142815
1.477                  -0.859744        0.143272
1.478                  -0.859315        0.143723
1.479                  -0.858888        0.144169
1.48                   -0.858462        0.144608
1.481                  -0.858039        0.145041
1.482                  -0.857617        0.145467
1.483                  -0.857198        0.145889
1.484                  -0.856781        0.146304
1.485                  -0.856366        0.146713
1.486                  -0.855954        0.147117
1.487                  -0.855544        0.147515
1.488                  -0.855136        0.147908
1.489                  -0.854731        0.148294
1.49                   -0.854329        0.148676
1.491                  -0.853929        0.149051
1.492                  -0.853532        0.149422
1.493                  -0.853137        0.149787
1.494                  -0.852746        0.150146
1.495                  -0.852357        0.150501
1.496                  -0.851971        0.150849
1.497                  -0.851588        0.151193
1.498                  -0.851208        0.151532
1.499                  -0.850831        0.151865
1.5                    -0.850458        0.152193
1.501                  -0.850088        0.152517
1.502                  -0.849721        0.152835
1.503                  -0.849357        0.153148
1.504                  -0.848997        0.153456
1.505                   -0.84864        0.153759
1.506                  -0.848287        0.154057
1.507                  -0.847937         0.15435
1.508                  -0.847591        0.154638
1.509                  -0.847249        0.154922
1.51                   -0.846911          0.1552
1.511                  -0.846578        0.155474
1.512                  -0.846248        0.155743
1.513                  -0.845922        0.156008
1.514                  -0.845601        0.156267
1.515                  -0.845283        0.156522
1.516                  -0.844971        0.156773
1.517                  -0.844663        0.157019
1.518                   -0.84436        0.157261
1.519                  -0.844061        0.157498
1.52                   -0.843768         0.15773
1.521                  -0.843479        0.157959
1.522                  -0.843196        0.158183
1.523                  -0.842918        0.158403
1.524                  -0.842645        0.158619
1.525                  -0.842378        0.158831
1.526                  -0.842117        0.159039
1.527                  -0.841861        0.159244
1.528                  -0.841611        0.159444
1.529                  -0.841367        0.159641
1.53                   -0.841129        0.159835
1.531                  -0.840897        0.160025
1.532                  -0.840672        0.160212
1.533                  -0.840453        0.160396
1.534                   -0.84024        0.160576
1.535                  -0.840034        0.160754
1.536                  -0.839835        0.160929
1.537                  -0.839643        0.161102
1.538                  -0.839458        0.161272
1.539                   -0.83928         0.16144
1.54                   -0.839109        0.161606
1.541                  -0.838946        0.161769
1.542                  -0.838789        0.161932
1.543                  -0.838641        0.162092
1.544                  -0.838499        0.162251
1.545                  -0.838366        0.162409
1.546                   -0.83824        0.162567
1.547                  -0.838121        0.162723
1.548                  -0.838011        0.162878
1.549                  -0.837908        0.163034
1.55                   -0.837813        0.163189
1.551                  -0.837726        0.163345
1.552                  -0.837647          0.1635
1.553                  -0.837576        0.163657
1.554                  -0.837513        0.163814
1.555                  -0.837458        0.163972
1.556                  -0.837411        0.164132
1.557                  -0.837372        0.164293
1.558                   -0.83734        0.164455
1.559                  -0.837317         0.16462
1.56                   -0.837301        0.164787
1.561                  -0.837293        0.164956
1.562                  -0.837293        0.165128
1.563                    -0.8373        0.165304
1.564                  -0.837316        0.165482
1.565                  -0.837338        0.165664
1.566                  -0.837368        0.165849
1.567                  -0.837405        0.166038
1.568                  -0.837449        0.166232
1.569                  -0.837501         0.16643
1.57                   -0.837559        0.166632
1.571                  -0.837624        0.166839
1.572                  -0.837695        0.167051
1.573                  -0.837773        0.167269
1.574                  -0.837857        0.167492
1.575                  -0.837947         0.16772
1.576                  -0.838043        0.167954
1.577                  -0.838145        0.168194
1.578                  -0.838252        0.168441
1.579                  -0.838364        0.168694
1.58                   -0.838481        0.168953
1.581                  -0.838604        0.169219
1.582                   -0.83873        0.169491
1.583                  -0.838861        0.169771
1.584                  -0.838996        0.170057
1.585                  -0.839135        0.170351
1.586                  -0.839278        0.170652
1.587                  -0.839424         0.17096
1.588                  -0.839573        0.171276
1.589                  -0.839725        0.171599
1.59                   -0.839879         0.17193
1.591                  -0.840035        0.172268
1.592                  -0.840194        0.172614
1.593                  -0.840354        0.172967
1.594                  -0.840516        0.173329
1.595                  -0.840679        0.173698
1.596                  -0.840843        0.174074
1.597                  -0.841008        0.174458
1.598                  -0.841173         0.17485
1.599                  -0.841339        0.175249
1.6                    -0.841504        0.175656
1.601                  -0.841669         0.17607
1.602                  -0.841833        0.176492
1.603                  -0.841996        0.176921
1.604                  -0.842159        0.177357
1.605                   -0.84232          0.1778
1.606                  -0.842479         0.17825
1.607                  -0.842637        0.178707
1.608                  -0.842793        0.179171
1.609                  -0.842947        0.179642
1.61                   -0.843098        0.180118
1.611                  -0.843247        0.180602
1.612                  -0.843392        0.181091
1.613                  -0.843535        0.181586
1.614                  -0.843675        0.182087
1.615                  -0.843812        0.182594
1.616                  -0.843945        0.183106
1.617                  -0.844075        0.183623
1.618                  -0.844201        0.184146
1.619                  -0.844324        0.184673
1.62                   -0.844442        0.185205
1.621                  -0.844557        0.185741
1.622                  -0.844667        0.186282
1.623                  -0.844773        0.186827
1.624                  -0.844876        0.187375
1.625                  -0.844974        0.187927
1.626                  -0.845067        0.188483
1.627                  -0.845157        0.189042
1.628                  -0.845242        0.189604
1.629                  -0.845322        0.190168
1.63                   -0.845399        0.190735
1.631                  -0.845471        0.191305
1.632                  -0.845539        0.191877
1.633                  -0.845602        0.192451
1.634                  -0.845661        0.193027
1.635                  -0.845716        0.193604
1.636                  -0.845767        0.194184
1.637                  -0.845814        0.194764
1.638                  -0.845857        0.195345
1.639                  -0.845896        0.195928
1.64                   -0.845931        0.196511
1.641                  -0.845962        0.197095
1.642                   -0.84599         0.19768
1.643                  -0.846014        0.198265
1.644                  -0.846034        0.198851
1.645                  -0.846052        0.199437
1.646                  -0.846066        0.200023
1.647                  -0.846077        0.200609
1.648                  -0.846085        0.201195
1.649                   -0.84609        0.201781
1.65                   -0.846093        0.202367
1.651                  -0.846093        0.202952
1.652                  -0.846091        0.203538
1.653                  -0.846086        0.204123
1.654                  -0.846079        0.204708
1.655                   -0.84607        0.205292
1.656                  -0.846059        0.205876
1.657                  -0.846046         0.20646
1.658                  -0.846032        0.207043
1.659                  -0.846016        0.207627
1.66                   -0.845999         0.20821
1.661                   -0.84598        0.208792
1.662                   -0.84596        0.209375
1.663                  -0.845939        0.209957
1.664                  -0.845917        0.210539
1.665                  -0.845894        0.211121
1.666                  -0.845871        0.211703
1.667                  -0.845846        0.212286
1.668                  -0.845821        0.212869
1.669                  -0.845795        0.213452
1.67                   -0.845769        0.214035
1.671                  -0.845743        0.214618
1.672                  -0.845715        0.215203
1.673                  -0.845688        0.215788
1.674                   -0.84566        0.216374
1.675                  -0.845632         0.21696
1.676                  -0.845603        0.217548
1.677                  -0.845574        0.218137
1.678                  -0.845545        0.218727
1.679                  -0.845515        0.219319
1.68                   -0.845485        0.219912
1.681                  -0.845454        0.220506
1.682                  -0.845423        0.221103
1.683                  -0.845392        0.221701
1.684                   -0.84536          0.2223
1.685                  -0.845327        0.222902
1.686                  -0.845294        0.223506
1.687                   -0.84526        0.224112
1.688                  -0.845225        0.224721
1.689                  -0.845189        0.225332
1.69                   -0.845152        0.225945
1.691                  -0.845114        0.226561
1.692                  -0.845074        0.227179
1.693                  -0.845033          0.2278
1.694                   -0.84499        0.228424
1.695                  -0.844946         0.22905
1.696                    -0.8449         0.22968
1.697                  -0.844852        0.230311
1.698                  -0.844802        0.230946
1.699                   -0.84475        0.231584
1.7                    -0.844695        0.232224
1.701                  -0.844638        0.232867
1.702                  -0.844578        0.233513
1.703                  -0.844515        0.234162
1.704                  -0.844449        0.234814
1.705                   -0.84438        0.235468
1.706                  -0.844308        0.236125
1.707                  -0.844232        0.236784
1.708                  -0.844153        0.237446
1.709                   -0.84407        0.238111
1.71                   -0.843983        0.238777
1.711                  -0.843892        0.239446
1.712                  -0.843797        0.240117
1.713                  -0.843698         0.24079
1.714                  -0.843594        0.241466
1.715                  -0.843486        0.242143
1.716                  -0.843373        0.242821
1.717                  -0.843255        0.243501
1.718                  -0.843133        0.244182
1.719                  -0.843006        0.244865
1.72                   -0.842873        0.245548
1.721                  -0.842736        0.246232
1.722                  -0.842593        0.246917
1.723                  -0.842446        0.247603
1.724                  -0.842292        0.248289
1.725                  -0.842134        0.248975
1.726                  -0.841971         0.24966
1.727                  -0.841802        0.250346
1.728                  -0.841628        0.251031
1.729                  -0.841448        0.251716
1.73                   -0.841263          0.2524
1.731                  -0.841073        0.253082
1.732                  -0.840877        0.253764
1.733                  -0.840677        0.254444
1.734                  -0.840471        0.255123
1.735                   -0.84026          0.2558
1.736                  -0.840044        0.256475
1.737                  -0.839823        0.257147
1.738                  -0.839597        0.257818
1.739                  -0.839367        0.258486
1.74                   -0.839131        0.259152
1.741                  -0.838892        0.259814
1.742                  -0.838648        0.260474
1.743                  -0.838399        0.261131
1.744                  -0.838147        0.261784
1.745                   -0.83789        0.262434
1.746                   -0.83763        0.263081
1.747                  -0.837366        0.263724
1.748                  -0.837098        0.264363
1.749                  -0.836828        0.264998
1.75                   -0.836554         0.26563
1.751                  -0.836277        0.266258
1.752                  -0.835997        0.266882
1.753                  -0.835715        0.267501
1.754                  -0.835431        0.268117
1.755                  -0.835144        0.268728
1.756                  -0.834855        0.269336
1.757                  -0.834564        0.269939
1.758                  -0.834272        0.270538
1.759                  -0.833979        0.271133
1.76                   -0.833684        0.271724
1.761                  -0.833388         0.27231
1.762                  -0.833091        0.272893
1.763                  -0.832794        0.273472
1.764                  -0.832496        0.274046
1.765                  -0.832197        0.274617
1.766                  -0.831899        0.275184
1.767                    -0.8316        0.275748
1.768                  -0.831302        0.276307
1.769                  -0.831004        0.276864
1.77                   -0.830706        0.277417
1.771                   -0.83041        0.277967
1.772                  -0.830113        0.278513
1.773                  -0.829818        0.279057
1.774                  -0.829523        0.279598
1.775                   -0.82923        0.280136
1.776                  -0.828937        0.280672
1.777                  -0.828646        0.281206
1.778                  -0.828356        0.281737
1.779                  -0.828067        0.282266
1.78                    -0.82778        0.282794
1.781                  -0.827494         0.28332
1.782                   -0.82721        0.283844
1.783                  -0.826927        0.284367
1.784                  -0.826645        0.284889
1.785                  -0.826365         0.28541
1.786                  -0.826086        0.285931
1.787                  -0.825808        0.286451
1.788                  -0.825532         0.28697
1.789                  -0.825257        0.287489
1.79                   -0.824983        0.288008
1.791                   -0.82471        0.288527
1.792                  -0.824438        0.289046
1.793                  -0.824167        0.289566
1.794                  -0.823897        0.290086
1.795                  -0.823628        0.290606
1.796                  -0.823359        0.291128
1.797                  -0.823091         0.29165
1.798                  -0.822822        0.292174
1.799                  -0.822554        0.292698
1.8                    -0.822286        0.293223
1.801                  -0.822018         0.29375
1.802                  -0.821749        0.294278
1.803                   -0.82148        0.294807
1.804                   -0.82121        0.295338
1.805                  -0.820939         0.29587
1.806                  -0.820667        0.296403
1.807                  -0.820394        0.296938
1.808                  -0.820119        0.297475
1.809                  -0.819843        0.298012
1.81                   -0.819565        0.298551
1.811                  -0.819284        0.299092
1.812                  -0.819002        0.299633
1.813                  -0.818717        0.300176
1.814                   -0.81843         0.30072
1.815                   -0.81814        0.301265
1.816                  -0.817847        0.301811
1.817                  -0.817551        0.302358
1.818                  -0.817251        0.302905
1.819                  -0.816949        0.303453
1.82                   -0.816642        0.304001
1.821                  -0.816332         0.30455
1.822                  -0.816019        0.305099
1.823                  -0.815701        0.305647
1.824                   -0.81538        0.306195
1.825                  -0.815054        0.306743
1.826                  -0.814724        0.307289
1.827                   -0.81439        0.307835
1.828                  -0.814052         0.30838
1.829                  -0.813709        0.308924
1.83                   -0.813362        0.309465
1.831                   -0.81301        0.310005
1.832                  -0.812654        0.310543
1.833                  -0.812294        0.311079
1.834                  -0.811929        0.311612
1.835                   -0.81156        0.312142
1.836                  -0.811186        0.312669
1.837                  -0.810808        0.313194
1.838                  -0.810426        0.313714
1.839                   -0.81004        0.314231
1.84                    -0.80965        0.314744
1.841                  -0.809256        0.315252
1.842                  -0.808859        0.315756
1.843                  -0.808457        0.316256
1.844                  -0.808053        0.316751
1.845                  -0.807645        0.317241
1.846                  -0.807234        0.317725
1.847                   -0.80682        0.318204
1.848                  -0.806404        0.318678
1.849                  -0.805985        0.319146
1.85                   -0.805564        0.319607
1.851                  -0.805141        0.320063
1.852                  -0.804716        0.320513
1.853                   -0.80429        0.320957
1.854                  -0.803863        0.321394
1.855                  -0.803435        0.321825
1.856                  -0.803006        0.322249
1.857                  -0.802577        0.322666
1.858                  -0.802147        0.323077
1.859                  -0.801719        0.323482
1.86                    -0.80129        0.323879
1.861                  -0.800863         0.32427
1.862                  -0.800436        0.324655
1.863                  -0.800011        0.325033
1.864                  -0.799588        0.325404
1.865                  -0.799167        0.325769
1.866                  -0.798748        0.326128
1.867                  -0.798332         0.32648
1.868                  -0.797918        0.326826
1.869                  -0.797508        0.327166
1.87                   -0.797101          0.3275
1.871                  -0.796698        0.327829
1.872                  -0.796299        0.328152
1.873                  -0.795905         0.32847
1.874                  -0.795514        0.328783
1.875                  -0.795129        0.329091
1.876                  -0.794748        0.329394
1.877                  -0.794372        0.329693
1.878                  -0.794002        0.329988
1.879                  -0.793637         0.33028
1.88                   -0.793278        0.330567
1.881                  -0.792924        0.330851
1.882                  -0.792577        0.331133
1.883                  -0.792235        0.331412
1.884                    -0.7919        0.331688
1.885                  -0.791571        0.331963
1.886                  -0.791248        0.332235
1.887                  -0.790931        0.332507
1.888                  -0.790621        0.332777
1.889                  -0.790317        0.333047
1.89                   -0.790019        0.333316
1.891                  -0.789727        0.333586
1.892                  -0.789442        0.333856
1.893                  -0.789163        0.334126
1.894                   -0.78889        0.334397
1.895                  -0.788623         0.33467
1.896                  -0.788363        0.334944
1.897                  -0.788107         0.33522
1.898                  -0.787858        0.335499
1.899                  -0.787613         0.33578
1.9                    -0.787374        0.336063
1.901                   -0.78714         0.33635
1.902                  -0.786911         0.33664
1.903                  -0.786686        0.336934
1.904                  -0.786466        0.337231
1.905                   -0.78625        0.337533
1.906                  -0.786037        0.337838
1.907                  -0.785828        0.338149
1.908                  -0.785623        0.338463
1.909                   -0.78542        0.338783
1.91                    -0.78522        0.339107
1.911                  -0.785022        0.339436
1.912                  -0.784826        0.339771
1.913                  -0.784632         0.34011
1.914                  -0.784439        0.340455
1.915                  -0.784247        0.340805
1.916                  -0.784056        0.341161
1.917                  -0.783865        0.341521
1.918                  -0.783674        0.341888
1.919                  -0.783483        0.342259
1.92                   -0.783291        0.342636
1.921                  -0.783098        0.343017
1.922                  -0.782904        0.343404
1.923                  -0.782707        0.343796
1.924                  -0.782509        0.344193
1.925                  -0.782309        0.344594
1.926                  -0.782106           0.345
1.927                    -0.7819         0.34541
1.928                  -0.781691        0.345825
1.929                  -0.781479        0.346243
1.93                   -0.781263        0.346665
1.931                  -0.781043        0.347091
1.932                  -0.780819         0.34752
1.933                   -0.78059        0.347951
1.934                  -0.780357        0.348386
1.935                  -0.780119        0.348822
1.936                  -0.779877        0.349261
1.937                  -0.779629        0.349702
1.938                  -0.779377        0.350144
1.939                  -0.779119        0.350587
1.94                   -0.778856        0.351031
1.941                  -0.778587        0.351475
1.942                  -0.778314         0.35192
1.943                  -0.778034        0.352364
1.944                   -0.77775        0.352808
1.945                   -0.77746         0.35325
1.946                  -0.777165        0.353692
1.947                  -0.776864        0.354132
1.948                  -0.776559         0.35457
1.949                  -0.776248        0.355005
1.95                   -0.775932        0.355439
1.951                  -0.775612        0.355869
1.952                  -0.775287        0.356296
1.953                  -0.774958         0.35672
1.954                  -0.774624         0.35714
1.955                  -0.774286        0.357556
1.956                  -0.773945        0.357967
1.957                  -0.773599        0.358375
1.958                  -0.773251        0.358777
1.959                    -0.7729        0.359175
1.96                   -0.772546        0.359567
1.961                   -0.77219        0.359954
1.962                  -0.771831        0.360336
1.963                  -0.771471        0.360712
1.964                  -0.771109        0.361082
1.965                  -0.770747        0.361447
1.966                  -0.770383        0.361805
1.967                  -0.770019        0.362158
1.968                  -0.769655        0.362505
1.969                  -0.769292        0.362846
1.97                   -0.768929         0.36318
1.971                  -0.768567        0.363509
1.972                  -0.768207        0.363832
1.973                  -0.767848         0.36415
1.974                  -0.767491        0.364461
1.975                  -0.767137        0.364767
1.976                  -0.766786        0.365068
1.977                  -0.766437        0.365363
1.978                  -0.766093        0.365653
1.979                  -0.765752        0.365938
1.98                   -0.765414        0.366219
1.981                  -0.765081        0.366495
1.982                  -0.764753        0.366768
1.983                   -0.76443        0.367036
1.984                  -0.764112          0.3673
1.985                  -0.763799        0.367562
1.986                  -0.763491         0.36782
1.987                  -0.763189        0.368076
1.988                  -0.762893         0.36833
1.989                  -0.762603        0.368581
1.99                   -0.762319        0.368831
1.991                  -0.762041         0.36908
1.992                   -0.76177        0.369328
1.993                  -0.761504        0.369576
1.994                  -0.761246        0.369824
1.995                  -0.760993        0.370072
1.996                  -0.760747        0.370321
1.997                  -0.760507        0.370571
1.998                  -0.760273        0.370823
1.999                  -0.760045        0.371077
2                      -0.759823        0.371333
