! TOUCHSTONE file generated by CST MICROWAVE STUDIO
! Date and time: Tue Jul 28 22:02:06 2026
! Project name: Sonda-Coaxial_21mm_DisifixB_v2.cst
! Parameters = {h_recipiente=5; l_conector=50; r_arandela=35; r_ext=10.5; r_int=3; r_recipiente=100; z_recipiente=-10}
! Header version: 2018
! Port assignment regex: !\s*Touchstone port\s*([0-9]+)\s*=\s*(CST MWS port|CST DS port)\s*([0-9]+|Zmin|Zmax)\s*\(\"(.*)\"\)(\s*mode\s*([0-9]+))?.*
! Touchstone port assignment:
! Touchstone port 1 = CST MWS port 1 ("")
# GHz S RI R 50
0                       0.999884               0
0.002                   0.999862     -0.00656682
0.004                   0.999797      -0.0131333
0.006                    0.99969      -0.0196993
0.008                   0.999539      -0.0262643
0.01                    0.999345      -0.0328282
0.012                   0.999107      -0.0393906
0.014                   0.998827      -0.0459512
0.016                   0.998504      -0.0525098
0.018                   0.998138      -0.0590661
0.02                    0.997728      -0.0656196
0.022                   0.997276      -0.0721703
0.024                    0.99678      -0.0787177
0.026                   0.996242      -0.0852616
0.028                   0.995661      -0.0918017
0.03                    0.995036      -0.0983376
0.032                   0.994369       -0.104869
0.034                   0.993659       -0.111396
0.036                   0.992906       -0.117918
0.038                   0.992111       -0.124435
0.04                    0.991273       -0.130946
0.042                   0.990392       -0.137451
0.044                   0.989468        -0.14395
0.046                   0.988502       -0.150442
0.048                   0.987493       -0.156928
0.05                    0.986442       -0.163407
0.052                   0.985348       -0.169879
0.054                   0.984211       -0.176343
0.056                   0.983033       -0.182799
0.058                   0.981812       -0.189247
0.06                    0.980549       -0.195686
0.062                   0.979244       -0.202117
0.064                   0.977896       -0.208538
0.066                   0.976507       -0.214951
0.068                   0.975076       -0.221353
0.07                    0.973602       -0.227746
0.072                   0.972087       -0.234129
0.074                   0.970531       -0.240501
0.076                   0.968932       -0.246863
0.078                   0.967292       -0.253213
0.08                     0.96561       -0.259552
0.082                   0.963887        -0.26588
0.084                   0.962123       -0.272196
0.086                   0.960317       -0.278499
0.088                   0.958471       -0.284791
0.09                    0.956583       -0.291069
0.092                   0.954654       -0.297335
0.094                   0.952684       -0.303587
0.096                   0.950674       -0.309826
0.098                   0.948623       -0.316051
0.1                     0.946531       -0.322261
0.102                   0.944398       -0.328458
0.104                   0.942226        -0.33464
0.106                   0.940013       -0.340807
0.108                    0.93776       -0.346959
0.11                    0.935467       -0.353095
0.112                   0.933133       -0.359216
0.114                   0.930761       -0.365321
0.116                   0.928348       -0.371409
0.118                   0.925896       -0.377481
0.12                    0.923404       -0.383537
0.122                   0.920873       -0.389575
0.124                   0.918303       -0.395596
0.126                   0.915693       -0.401599
0.128                   0.913045       -0.407585
0.13                    0.910358       -0.413552
0.132                   0.907632       -0.419501
0.134                   0.904867       -0.425432
0.136                   0.902064       -0.431344
0.138                   0.899223       -0.437236
0.14                    0.896343        -0.44311
0.142                   0.893426       -0.448963
0.144                   0.890471       -0.454797
0.146                   0.887478       -0.460611
0.148                   0.884447       -0.466404
0.15                    0.881379       -0.472177
0.152                   0.878273       -0.477929
0.154                   0.875131       -0.483659
0.156                   0.871951       -0.489369
0.158                   0.868734       -0.495056
0.16                    0.865481       -0.500722
0.162                   0.862192       -0.506366
0.164                   0.858866       -0.511988
0.166                   0.855503       -0.517586
0.168                   0.852105       -0.523163
0.17                    0.848671       -0.528716
0.172                   0.845201       -0.534246
0.174                   0.841695       -0.539752
0.176                   0.838155       -0.545234
0.178                   0.834578       -0.550693
0.18                    0.830967       -0.556127
0.182                   0.827321       -0.561537
0.184                    0.82364       -0.566922
0.186                   0.819925       -0.572283
0.188                   0.816176       -0.577618
0.19                    0.812392       -0.582928
0.192                   0.808574       -0.588212
0.194                   0.804723       -0.593471
0.196                   0.800838       -0.598704
0.198                   0.796919        -0.60391
0.2                     0.792967        -0.60909
0.202                   0.788982       -0.614243
0.204                   0.784965        -0.61937
0.206                   0.780914       -0.624469
0.208                   0.776831       -0.629541
0.21                    0.772716       -0.634586
0.212                   0.768569       -0.639602
0.214                    0.76439       -0.644591
0.216                   0.760179       -0.649552
0.218                   0.755937       -0.654485
0.22                    0.751663       -0.659389
0.222                   0.747358       -0.664264
0.224                   0.743023       -0.669111
0.226                   0.738656       -0.673928
0.228                    0.73426       -0.678716
0.23                    0.729832       -0.683475
0.232                   0.725375       -0.688203
0.234                   0.720888       -0.692902
0.236                   0.716372       -0.697571
0.238                   0.711826        -0.70221
0.24                     0.70725       -0.706818
0.242                   0.702646       -0.711396
0.244                   0.698013       -0.715943
0.246                   0.693351       -0.720458
0.248                   0.688661       -0.724943
0.25                    0.683943       -0.729396
0.252                   0.679197       -0.733818
0.254                   0.674423       -0.738208
0.256                   0.669622       -0.742566
0.258                   0.664793       -0.746893
0.26                    0.659938       -0.751187
0.262                   0.655055       -0.755448
0.264                   0.650146       -0.759677
0.266                   0.645211       -0.763874
0.268                   0.640249       -0.768037
0.27                    0.635262       -0.772168
0.272                   0.630249       -0.776265
0.274                    0.62521       -0.780329
0.276                   0.620147       -0.784359
0.278                   0.615058       -0.788356
0.28                    0.609944        -0.79232
0.282                   0.604807       -0.796249
0.284                   0.599644       -0.800144
0.286                   0.594458       -0.804004
0.288                   0.589248       -0.807831
0.29                    0.584014       -0.811623
0.292                   0.578757        -0.81538
0.294                   0.573478       -0.819102
0.296                   0.568175        -0.82279
0.298                   0.562849       -0.826442
0.3                     0.557501       -0.830059
0.302                   0.552131       -0.833641
0.304                    0.54674       -0.837187
0.306                   0.541326       -0.840698
0.308                   0.535891       -0.844173
0.31                    0.530435       -0.847612
0.312                   0.524958       -0.851015
0.314                    0.51946       -0.854382
0.316                   0.513942       -0.857713
0.318                   0.508404       -0.861008
0.32                    0.502846       -0.864266
0.322                   0.497268       -0.867487
0.324                   0.491671       -0.870672
0.326                   0.486055        -0.87382
0.328                    0.48042       -0.876931
0.33                    0.474766       -0.880005
0.332                   0.469093       -0.883042
0.334                   0.463403       -0.886041
0.336                   0.457695       -0.889004
0.338                   0.451969       -0.891929
0.34                    0.446225       -0.894816
0.342                   0.440464       -0.897666
0.344                   0.434687       -0.900478
0.346                   0.428893       -0.903252
0.348                   0.423082       -0.905989
0.35                    0.417255       -0.908687
0.352                   0.411413       -0.911347
0.354                   0.405555       -0.913969
0.356                   0.399681       -0.916553
0.358                   0.393793       -0.919099
0.36                    0.387889       -0.921606
0.362                   0.381972       -0.924075
0.364                   0.376039       -0.926505
0.366                   0.370093       -0.928896
0.368                   0.364132       -0.931249
0.37                    0.358158       -0.933563
0.372                   0.352171       -0.935838
0.374                   0.346171       -0.938074
0.376                   0.340158       -0.940272
0.378                   0.334132        -0.94243
0.38                    0.328094       -0.944549
0.382                   0.322045       -0.946629
0.384                   0.315983       -0.948669
0.386                    0.30991       -0.950671
0.388                   0.303826       -0.952633
0.39                    0.297731       -0.954555
0.392                   0.291625       -0.956438
0.394                   0.285508       -0.958282
0.396                   0.279382       -0.960086
0.398                   0.273245       -0.961851
0.4                     0.267099       -0.963576
0.402                   0.260943       -0.965261
0.404                   0.254779       -0.966907
0.406                   0.248605       -0.968512
0.408                   0.242423       -0.970078
0.41                    0.236232       -0.971604
0.412                   0.230033       -0.973091
0.414                   0.223828       -0.974537
0.416                   0.217613       -0.975944
0.418                   0.211392        -0.97731
0.42                    0.205163       -0.978637
0.422                   0.198928       -0.979923
0.424                   0.192686        -0.98117
0.426                   0.186438       -0.982376
0.428                   0.180184       -0.983542
0.43                    0.173924       -0.984669
0.432                   0.167659       -0.985755
0.434                   0.161388       -0.986801
0.436                   0.155113       -0.987807
0.438                   0.148832       -0.988773
0.44                    0.142548       -0.989698
0.442                   0.136259       -0.990584
0.444                   0.129966       -0.991429
0.446                   0.123669       -0.992234
0.448                   0.117369       -0.992999
0.45                    0.111066       -0.993724
0.452                    0.10476       -0.994408
0.454                  0.0984515       -0.995053
0.456                  0.0921405       -0.995657
0.458                  0.0858269       -0.996221
0.46                    0.079512       -0.996745
0.462                  0.0731951       -0.997228
0.464                   0.066877       -0.997672
0.466                  0.0605578       -0.998076
0.468                  0.0542378       -0.998439
0.47                   0.0479173       -0.998762
0.472                  0.0415956       -0.999045
0.474                  0.0352749       -0.999288
0.476                  0.0289534       -0.999491
0.478                  0.0226334       -0.999654
0.48                   0.0163137       -0.999777
0.482                 0.00999445        -0.99986
0.484                  0.0036765       -0.999904
0.486                -0.00263992       -0.999907
0.488                -0.00895412        -0.99987
0.49                  -0.0152672       -0.999794
0.492                 -0.0215781       -0.999677
0.494                  -0.027886       -0.999521
0.496                 -0.0341915       -0.999325
0.498                 -0.0404941       -0.999089
0.5                   -0.0467934       -0.998814
0.502                 -0.0530897       -0.998499
0.504                 -0.0593817       -0.998144
0.506                 -0.0656702        -0.99775
0.508                 -0.0719544       -0.997317
0.51                  -0.0782346       -0.996844
0.512                 -0.0845091       -0.996331
0.514                 -0.0907796       -0.995779
0.516                 -0.0970448       -0.995188
0.518                  -0.103305       -0.994557
0.52                   -0.109559       -0.993888
0.522                  -0.115807       -0.993179
0.524                  -0.122048       -0.992431
0.526                  -0.128284       -0.991644
0.528                  -0.134514       -0.990818
0.53                   -0.140736       -0.989953
0.532                  -0.146951        -0.98905
0.534                  -0.153159       -0.988107
0.536                  -0.159359       -0.987126
0.538                  -0.165552       -0.986106
0.54                   -0.171736       -0.985047
0.542                  -0.177912        -0.98395
0.544                   -0.18408       -0.982815
0.546                  -0.190239       -0.981641
0.548                   -0.19639       -0.980429
0.55                    -0.20253       -0.979179
0.552                  -0.208662        -0.97789
0.554                  -0.214783       -0.976564
0.556                  -0.220894       -0.975199
0.558                  -0.226996       -0.973797
0.56                   -0.233088       -0.972356
0.562                  -0.239168       -0.970878
0.564                  -0.245238       -0.969362
0.566                  -0.251297       -0.967809
0.568                  -0.257344       -0.966218
0.57                   -0.263381        -0.96459
0.572                  -0.269405       -0.962925
0.574                  -0.275417       -0.961222
0.576                  -0.281417       -0.959482
0.578                  -0.287405       -0.957705
0.58                    -0.29338       -0.955891
0.582                  -0.299342        -0.95404
0.584                  -0.305291       -0.952153
0.586                  -0.311227       -0.950229
0.588                   -0.31715       -0.948268
0.59                   -0.323058       -0.946271
0.592                  -0.328953       -0.944238
0.594                  -0.334834       -0.942168
0.596                    -0.3407       -0.940062
0.598                  -0.346551        -0.93792
0.6                    -0.352388       -0.935743
0.602                   -0.35821       -0.933529
0.604                  -0.364016        -0.93128
0.606                  -0.369807       -0.928995
0.608                  -0.375583       -0.926674
0.61                   -0.381342       -0.924319
0.612                  -0.387085       -0.921928
0.614                  -0.392813       -0.919501
0.616                  -0.398523        -0.91704
0.618                  -0.404217       -0.914544
0.62                   -0.409895       -0.912013
0.622                  -0.415554       -0.909448
0.624                  -0.421197       -0.906848
0.626                  -0.426822       -0.904213
0.628                   -0.43243       -0.901544
0.63                   -0.438019       -0.898841
0.632                   -0.44359       -0.896104
0.634                  -0.449143       -0.893333
0.636                  -0.454678       -0.890528
0.638                  -0.460194        -0.88769
0.64                   -0.465691       -0.884818
0.642                  -0.471169       -0.881912
0.644                  -0.476627       -0.878973
0.646                  -0.482066       -0.876002
0.648                  -0.487485       -0.872997
0.65                   -0.492885       -0.869959
0.652                  -0.498264       -0.866888
0.654                  -0.503623       -0.863785
0.656                  -0.508962       -0.860649
0.658                   -0.51428       -0.857482
0.66                   -0.519577       -0.854281
0.662                  -0.524853       -0.851049
0.664                  -0.530108       -0.847785
0.666                  -0.535342       -0.844489
0.668                  -0.540554       -0.841161
0.67                   -0.545744       -0.837802
0.672                  -0.550912       -0.834412
0.674                  -0.556059        -0.83099
0.676                  -0.561183       -0.827538
0.678                  -0.566284       -0.824054
0.68                   -0.571363        -0.82054
0.682                  -0.576419       -0.816995
0.684                  -0.581452        -0.81342
0.686                  -0.586462       -0.809814
0.688                  -0.591449       -0.806178
0.69                   -0.596412       -0.802512
0.692                  -0.601352       -0.798817
0.694                  -0.606267       -0.795091
0.696                  -0.611159       -0.791336
0.698                  -0.616026       -0.787552
0.7                    -0.620869       -0.783739
0.702                  -0.625687       -0.779896
0.704                  -0.630481       -0.776025
0.706                   -0.63525       -0.772124
0.708                  -0.639994       -0.768196
0.71                   -0.644713       -0.764238
0.712                  -0.649406       -0.760253
0.714                  -0.654074       -0.756239
0.716                  -0.658716       -0.752198
0.718                  -0.663333       -0.748129
0.72                   -0.667923       -0.744032
0.722                  -0.672488       -0.739907
0.724                  -0.677026       -0.735756
0.726                  -0.681538       -0.731577
0.728                  -0.686023       -0.727372
0.73                   -0.690481       -0.723139
0.732                  -0.694913        -0.71888
0.734                  -0.699317       -0.714595
0.736                  -0.703695       -0.710283
0.738                  -0.708045       -0.705945
0.74                   -0.712367       -0.701581
0.742                  -0.716662       -0.697192
0.744                   -0.72093       -0.692777
0.746                  -0.725169       -0.688337
0.748                   -0.72938       -0.683871
0.75                   -0.733563        -0.67938
0.752                  -0.737718       -0.674865
0.754                  -0.741844       -0.670325
0.756                  -0.745941        -0.66576
0.758                  -0.750011       -0.661171
0.76                   -0.754051       -0.656557
0.762                  -0.758062        -0.65192
0.764                  -0.762043       -0.647259
0.766                  -0.765996       -0.642575
0.768                   -0.76992       -0.637867
0.77                   -0.773813       -0.633135
0.772                  -0.777678       -0.628381
0.774                  -0.781512       -0.623604
0.776                  -0.785316       -0.618803
0.778                  -0.789091       -0.613981
0.78                   -0.792835       -0.609136
0.782                  -0.796549       -0.604269
0.784                  -0.800232        -0.59938
0.786                  -0.803885        -0.59447
0.788                  -0.807508       -0.589537
0.79                   -0.811099       -0.584583
0.792                   -0.81466       -0.579608
0.794                   -0.81819       -0.574612
0.796                  -0.821689       -0.569596
0.798                  -0.825156       -0.564558
0.8                    -0.828592         -0.5595
0.802                  -0.831997       -0.554422
0.804                   -0.83537       -0.549324
0.806                  -0.838711       -0.544206
0.808                  -0.842021       -0.539068
0.81                   -0.845299       -0.533911
0.812                  -0.848544       -0.528734
0.814                  -0.851758       -0.523538
0.816                   -0.85494       -0.518324
0.818                  -0.858089        -0.51309
0.82                   -0.861206       -0.507838
0.822                   -0.86429       -0.502568
0.824                  -0.867341       -0.497279
0.826                  -0.870361       -0.491973
0.828                  -0.873347       -0.486649
0.83                     -0.8763       -0.481307
0.832                   -0.87922       -0.475948
0.834                  -0.882107       -0.470572
0.836                  -0.884961       -0.465179
0.838                  -0.887782       -0.459769
0.84                   -0.890569       -0.454343
0.842                  -0.893323         -0.4489
0.844                  -0.896043       -0.443441
0.846                   -0.89873       -0.437966
0.848                  -0.901383       -0.432476
0.85                   -0.904002       -0.426969
0.852                  -0.906588       -0.421448
0.854                  -0.909139       -0.415911
0.856                  -0.911656        -0.41036
0.858                  -0.914139       -0.404793
0.86                   -0.916588       -0.399212
0.862                  -0.919003       -0.393617
0.864                  -0.921383       -0.388008
0.866                  -0.923729       -0.382384
0.868                  -0.926041       -0.376747
0.87                   -0.928317       -0.371096
0.872                  -0.930559       -0.365433
0.874                  -0.932767       -0.359756
0.876                  -0.934939       -0.354066
0.878                  -0.937077       -0.348363
0.88                   -0.939179       -0.342648
0.882                  -0.941247        -0.33692
0.884                   -0.94328       -0.331181
0.886                  -0.945277        -0.32543
0.888                  -0.947239       -0.319666
0.89                   -0.949166       -0.313892
0.892                  -0.951058       -0.308106
0.894                  -0.952914       -0.302309
0.896                  -0.954735       -0.296501
0.898                   -0.95652       -0.290683
0.9                     -0.95827       -0.284855
0.902                  -0.959984       -0.279016
0.904                  -0.961662       -0.273167
0.906                  -0.963305       -0.267308
0.908                  -0.964912        -0.26144
0.91                   -0.966483       -0.255562
0.912                  -0.968018       -0.249675
0.914                  -0.969517       -0.243779
0.916                  -0.970981       -0.237875
0.918                  -0.972408       -0.231962
0.92                   -0.973799        -0.22604
0.922                  -0.975154       -0.220111
0.924                  -0.976473       -0.214173
0.926                  -0.977755       -0.208229
0.928                  -0.979002       -0.202276
0.93                   -0.980212       -0.196316
0.932                  -0.981385       -0.190349
0.934                  -0.982523       -0.184375
0.936                  -0.983624       -0.178395
0.938                  -0.984688       -0.172408
0.94                   -0.985716       -0.166415
0.942                  -0.986708       -0.160416
0.944                  -0.987663       -0.154412
0.946                  -0.988581       -0.148402
0.948                  -0.989463       -0.142386
0.95                   -0.990308       -0.136365
0.952                  -0.991117       -0.130339
0.954                  -0.991888       -0.124309
0.956                  -0.992623       -0.118274
0.958                  -0.993322       -0.112235
0.96                   -0.993983       -0.106192
0.962                  -0.994608       -0.100145
0.964                  -0.995196      -0.0940942
0.966                  -0.995747      -0.0880404
0.968                  -0.996262       -0.081983
0.97                   -0.996739      -0.0759227
0.972                   -0.99718      -0.0698594
0.974                  -0.997583      -0.0637938
0.976                   -0.99795      -0.0577258
0.978                   -0.99828      -0.0516558
0.98                   -0.998573      -0.0455837
0.982                  -0.998829      -0.0395098
0.984                  -0.999048      -0.0334348
0.986                   -0.99923      -0.0273585
0.988                  -0.999375      -0.0212807
0.99                   -0.999483      -0.0152022
0.992                  -0.999554     -0.00912345
0.994                  -0.999588     -0.00304394
0.996                  -0.999585      0.00303587
0.998                  -0.999545      0.00911531
1                      -0.999469       0.0151946
1.002                  -0.999355       0.0212736
1.004                  -0.999204       0.0273517
1.006                  -0.999016       0.0334291
1.008                  -0.998791       0.0395053
1.01                   -0.998529       0.0455803
1.012                  -0.998231       0.0516536
1.014                  -0.997895       0.0577255
1.016                  -0.997522       0.0637951
1.018                  -0.997113       0.0698626
1.02                   -0.996666       0.0759279
1.022                  -0.996182       0.0819904
1.024                  -0.995662       0.0880502
1.026                  -0.995104       0.0941068
1.028                   -0.99451         0.10016
1.03                   -0.993879         0.10621
1.032                  -0.993211        0.112256
1.034                  -0.992507        0.118299
1.036                  -0.991765        0.124337
1.038                  -0.990986        0.130371
1.04                   -0.990171          0.1364
1.042                  -0.989319        0.142425
1.044                  -0.988431        0.148445
1.046                  -0.987505        0.154459
1.048                  -0.986543        0.160468
1.05                   -0.985545        0.166472
1.052                  -0.984509        0.172469
1.054                  -0.983438        0.178461
1.056                  -0.982329        0.184446
1.058                  -0.981184        0.190425
1.06                   -0.980003        0.196397
1.062                  -0.978785        0.202362
1.064                  -0.977531        0.208321
1.066                   -0.97624        0.214271
1.068                  -0.974913        0.220215
1.07                    -0.97355         0.22615
1.072                   -0.97215        0.232078
1.074                  -0.970714        0.237997
1.076                  -0.969242        0.243908
1.078                  -0.967734         0.24981
1.08                    -0.96619        0.255704
1.082                   -0.96461        0.261589
1.084                  -0.962993        0.267464
1.086                  -0.961341         0.27333
1.088                  -0.959653        0.279186
1.09                   -0.957929        0.285032
1.092                  -0.956169        0.290868
1.094                  -0.954374        0.296694
1.096                  -0.952542        0.302509
1.098                  -0.950676        0.308314
1.1                    -0.948773        0.314108
1.102                  -0.946835         0.31989
1.104                  -0.944862        0.325661
1.106                  -0.942853        0.331421
1.108                  -0.940809        0.337169
1.11                   -0.938729        0.342905
1.112                  -0.936615        0.348628
1.114                  -0.934465        0.354339
1.116                   -0.93228        0.360038
1.118                   -0.93006        0.365724
1.12                   -0.927805        0.371397
1.122                  -0.925515        0.377056
1.124                  -0.923191        0.382702
1.126                  -0.920831        0.388335
1.128                  -0.918437        0.393953
1.13                   -0.916009        0.399557
1.132                  -0.913545        0.405148
1.134                  -0.911048        0.410723
1.136                  -0.908516        0.416285
1.138                   -0.90595        0.421831
1.14                   -0.903349        0.427362
1.142                  -0.900715        0.432877
1.144                  -0.898046        0.438378
1.146                  -0.895343        0.443862
1.148                  -0.892607        0.449331
1.15                   -0.889836        0.454783
1.152                  -0.887033        0.460219
1.154                  -0.884195        0.465639
1.156                  -0.881324        0.471042
1.158                  -0.878419        0.476428
1.16                   -0.875481        0.481797
1.162                   -0.87251        0.487148
1.164                  -0.869505        0.492482
1.166                  -0.866468        0.497798
1.168                  -0.863397        0.503097
1.17                   -0.860294        0.508377
1.172                  -0.857158        0.513638
1.174                  -0.853989        0.518882
1.176                  -0.850788        0.524106
1.178                  -0.847554        0.529312
1.18                   -0.844287        0.534498
1.182                  -0.840989        0.539665
1.184                  -0.837658        0.544813
1.186                  -0.834295        0.549941
1.188                    -0.8309        0.555048
1.19                   -0.827474        0.560136
1.192                  -0.824015        0.565204
1.194                  -0.820525        0.570251
1.196                  -0.817004        0.575277
1.198                  -0.813451        0.580282
1.2                    -0.809866        0.585266
1.202                  -0.806251         0.59023
1.204                  -0.802604        0.595171
1.206                  -0.798927        0.600091
1.208                  -0.795219        0.604989
1.21                   -0.791479        0.609865
1.212                   -0.78771        0.614719
1.214                   -0.78391         0.61955
1.216                  -0.780079        0.624358
1.218                  -0.776219        0.629144
1.22                   -0.772328        0.633907
1.222                  -0.768407        0.638647
1.224                  -0.764457        0.643363
1.226                  -0.760477        0.648056
1.228                  -0.756467        0.652725
1.23                   -0.752427         0.65737
1.232                  -0.748359        0.661991
1.234                  -0.744261        0.666587
1.236                  -0.740134         0.67116
1.238                  -0.735978        0.675707
1.24                   -0.731794         0.68023
1.242                   -0.72758        0.684727
1.244                  -0.723339          0.6892
1.246                  -0.719069        0.693647
1.248                   -0.71477        0.698068
1.25                   -0.710444        0.702464
1.252                   -0.70609        0.706834
1.254                  -0.701708        0.711177
1.256                  -0.697298        0.715495
1.258                  -0.692861        0.719786
1.26                   -0.688396         0.72405
1.262                  -0.683904        0.728287
1.264                  -0.679385        0.732498
1.266                   -0.67484        0.736681
1.268                  -0.670267        0.740837
1.27                   -0.665668        0.744966
1.272                  -0.661043        0.749067
1.274                  -0.656391         0.75314
1.276                  -0.651713        0.757185
1.278                  -0.647009        0.761202
1.28                   -0.642279         0.76519
1.282                  -0.637524         0.76915
1.284                  -0.632743        0.773081
1.286                  -0.627937        0.776983
1.288                  -0.623106        0.780857
1.29                   -0.618249        0.784701
1.292                  -0.613368        0.788516
1.294                  -0.608462        0.792301
1.296                  -0.603532        0.796057
1.298                  -0.598577        0.799783
1.3                    -0.593599        0.803478
1.302                  -0.588596        0.807144
1.304                  -0.583569        0.810779
1.306                  -0.578519        0.814384
1.308                  -0.573445        0.817959
1.31                   -0.568348        0.821502
1.312                  -0.563228        0.825014
1.314                  -0.558085        0.828496
1.316                  -0.552919        0.831946
1.318                  -0.547731        0.835365
1.32                    -0.54252        0.838752
1.322                  -0.537288        0.842108
1.324                  -0.532032        0.845431
1.326                  -0.526756        0.848723
1.328                  -0.521457        0.851982
1.33                   -0.516137         0.85521
1.332                  -0.510796        0.858404
1.334                  -0.505433        0.861567
1.336                  -0.500051        0.864696
1.338                  -0.494646        0.867793
1.34                   -0.489222        0.870856
1.342                  -0.483777        0.873887
1.344                  -0.478312        0.876884
1.346                  -0.472827        0.879847
1.348                  -0.467323        0.882777
1.35                   -0.461798        0.885674
1.352                  -0.456255        0.888536
1.354                  -0.450692        0.891365
1.356                   -0.44511        0.894159
1.358                   -0.43951        0.896919
1.36                   -0.433891        0.899645
1.362                  -0.428253        0.902336
1.364                  -0.422598        0.904993
1.366                  -0.416924        0.907615
1.368                  -0.411233        0.910201
1.37                   -0.405524        0.912753
1.372                  -0.399798         0.91527
1.374                  -0.394055        0.917751
1.376                  -0.388295        0.920197
1.378                  -0.382518        0.922608
1.38                   -0.376725        0.924983
1.382                  -0.370915        0.927322
1.384                   -0.36509        0.929625
1.386                  -0.359248        0.931892
1.388                  -0.353391        0.934123
1.39                   -0.347518        0.936318
1.392                  -0.341631        0.938476
1.394                  -0.335728        0.940598
1.396                   -0.32981        0.942684
1.398                  -0.323878        0.944733
1.4                    -0.317932        0.946745
1.402                  -0.311972         0.94872
1.404                  -0.305997        0.950658
1.406                  -0.300009        0.952559
1.408                  -0.294008        0.954422
1.41                   -0.287993        0.956249
1.412                  -0.281966        0.958038
1.414                  -0.275925        0.959789
1.416                  -0.269872        0.961503
1.418                  -0.263807        0.963179
1.42                    -0.25773        0.964818
1.422                  -0.251641        0.966418
1.424                   -0.24554         0.96798
1.426                  -0.239428        0.969505
1.428                  -0.233305        0.970991
1.43                    -0.22717        0.972439
1.432                  -0.221026        0.973848
1.434                   -0.21487        0.975219
1.436                  -0.208705        0.976552
1.438                  -0.202529        0.977846
1.44                   -0.196344        0.979101
1.442                   -0.19015        0.980317
1.444                  -0.183946        0.981495
1.446                  -0.177733        0.982633
1.448                  -0.171511        0.983733
1.45                   -0.165281        0.984793
1.452                  -0.159042        0.985814
1.454                  -0.152795        0.986796
1.456                  -0.146541        0.987739
1.458                  -0.140279        0.988642
1.46                    -0.13401        0.989506
1.462                  -0.127733        0.990331
1.464                   -0.12145        0.991115
1.466                   -0.11516         0.99186
1.468                  -0.108864        0.992566
1.47                   -0.102562        0.993231
1.472                 -0.0962539        0.993857
1.474                 -0.0899404        0.994443
1.476                 -0.0836212        0.994989
1.478                  -0.077297        0.995495
1.48                  -0.0709683        0.995961
1.482                 -0.0646346        0.996387
1.484                 -0.0582968        0.996772
1.486                 -0.0519549        0.997118
1.488                 -0.0456092        0.997423
1.49                  -0.0392599        0.997687
1.492                 -0.0329073        0.997912
1.494                 -0.0265516        0.998096
1.496                 -0.0201931         0.99824
1.498                 -0.0138321        0.998343
1.5                  -0.00746865        0.998406
1.502                -0.00110331        0.998428
1.504                 0.00526394        0.998409
1.506                  0.0116326         0.99835
1.508                  0.0180026         0.99825
1.51                   0.0243735         0.99811
1.512                  0.0307451        0.997929
1.514                  0.0371173        0.997707
1.516                  0.0434895        0.997444
1.518                  0.0498621        0.997141
1.52                   0.0562341        0.996797
1.522                  0.0626056        0.996412
1.524                  0.0689764        0.995986
1.526                   0.075346        0.995519
1.528                  0.0817141        0.995012
1.53                   0.0880805        0.994463
1.532                  0.0944454        0.993874
1.534                   0.100808        0.993244
1.536                   0.107168        0.992573
1.538                   0.113526        0.991861
1.54                     0.11988        0.991108
1.542                   0.126232        0.990314
1.544                    0.13258        0.989479
1.546                   0.138924        0.988603
1.548                   0.145264        0.987687
1.55                      0.1516        0.986729
1.552                   0.157931        0.985731
1.554                   0.164258        0.984691
1.556                   0.170579        0.983611
1.558                   0.176895         0.98249
1.56                    0.183206        0.981328
1.562                   0.189511        0.980125
1.564                   0.195809        0.978881
1.566                   0.202101        0.977597
1.568                   0.208387        0.976272
1.57                    0.214665        0.974906
1.572                   0.220937        0.973499
1.574                     0.2272        0.972051
1.576                   0.233457        0.970563
1.578                   0.239705        0.969034
1.58                    0.245945        0.967465
1.582                   0.252176        0.965854
1.584                   0.258398        0.964204
1.586                   0.264611        0.962512
1.588                   0.270815        0.960781
1.59                    0.277009        0.959009
1.592                   0.283194        0.957196
1.594                   0.289368        0.955343
1.596                   0.295532         0.95345
1.598                   0.301685        0.951516
1.6                     0.307827        0.949542
1.602                   0.313958        0.947528
1.604                   0.320077        0.945474
1.606                   0.326185         0.94338
1.608                   0.332281        0.941246
1.61                    0.338364        0.939072
1.612                   0.344434        0.936858
1.614                   0.350492        0.934604
1.616                   0.356537        0.932311
1.618                   0.362568        0.929978
1.62                    0.368585        0.927605
1.622                   0.374589        0.925192
1.624                   0.380578        0.922741
1.626                   0.386553        0.920249
1.628                   0.392513        0.917719
1.63                    0.398459        0.915149
1.632                   0.404389         0.91254
1.634                   0.410303        0.909892
1.636                   0.416202        0.907205
1.638                   0.422084        0.904479
1.64                    0.427951        0.901714
1.642                     0.4338         0.89891
1.644                   0.439633        0.896068
1.646                   0.445449        0.893187
1.648                   0.451247        0.890268
1.65                    0.457028         0.88731
1.652                   0.462791        0.884314
1.654                   0.468535         0.88128
1.656                   0.474262        0.878208
1.658                   0.479969        0.875098
1.66                    0.485658         0.87195
1.662                   0.491327        0.868764
1.664                   0.496977        0.865541
1.666                   0.502607         0.86228
1.668                   0.508217        0.858982
1.67                    0.513807        0.855646
1.672                   0.519377        0.852274
1.674                   0.524925        0.848864
1.676                   0.530453        0.845417
1.678                   0.535959        0.841933
1.68                    0.541444        0.838413
1.682                   0.546907        0.834857
1.684                   0.552348        0.831263
1.686                   0.557767        0.827634
1.688                   0.563164        0.823968
1.69                    0.568537        0.820266
1.692                   0.573888        0.816529
1.694                   0.579215        0.812755
1.696                   0.584518        0.808946
1.698                   0.589798        0.805102
1.7                     0.595053        0.801222
1.702                   0.600285        0.797307
1.704                   0.605492        0.793358
1.706                   0.610674        0.789372
1.708                   0.615832        0.785353
1.71                    0.620963        0.781299
1.712                    0.62607         0.77721
1.714                   0.631151        0.773087
1.716                   0.636205         0.76893
1.718                   0.641234        0.764739
1.72                    0.646235        0.760515
1.722                   0.651211        0.756256
1.724                   0.656159        0.751964
1.726                    0.66108        0.747639
1.728                   0.665974        0.743281
1.73                     0.67084         0.73889
1.732                   0.675679        0.734466
1.734                   0.680489        0.730009
1.736                    0.68527         0.72552
1.738                   0.690024        0.720999
1.74                    0.694748        0.716446
1.742                   0.699444        0.711861
1.744                    0.70411        0.707244
1.746                   0.708747        0.702595
1.748                   0.713354        0.697915
1.75                    0.717931        0.693205
1.752                   0.722478        0.688463
1.754                   0.726994         0.68369
1.756                    0.73148        0.678887
1.758                   0.735936        0.674053
1.76                     0.74036         0.66919
1.762                   0.744753        0.664296
1.764                   0.749114        0.659373
1.766                   0.753444         0.65442
1.768                   0.757742        0.649437
1.77                    0.762008        0.644426
1.772                   0.766242        0.639385
1.774                   0.770443        0.634316
1.776                   0.774612        0.629218
1.778                   0.778747        0.624092
1.78                     0.78285        0.618938
1.782                   0.786919        0.613756
1.784                   0.790954        0.608546
1.786                   0.794956        0.603309
1.788                   0.798925        0.598044
1.79                    0.802858        0.592753
1.792                   0.806757        0.587435
1.794                   0.810623         0.58209
1.796                   0.814453        0.576719
1.798                   0.818249        0.571321
1.8                     0.822009        0.565898
1.802                   0.825735        0.560449
1.804                   0.829425        0.554975
1.806                   0.833079        0.549476
1.808                   0.836697        0.543951
1.81                    0.840279        0.538402
1.812                   0.843826        0.532829
1.814                   0.847336        0.527231
1.816                   0.850809        0.521609
1.818                   0.854246        0.515963
1.82                    0.857646        0.510294
1.822                   0.861008        0.504602
1.824                   0.864334        0.498887
1.826                   0.867622        0.493149
1.828                   0.870873        0.487388
1.83                    0.874086        0.481605
1.832                   0.877261          0.4758
1.834                   0.880398        0.469973
1.836                   0.883497        0.464125
1.838                   0.886558        0.458255
1.84                     0.88958        0.452365
1.842                   0.892564        0.446454
1.844                   0.895508        0.440522
1.846                   0.898414         0.43457
1.848                   0.901281        0.428598
1.85                    0.904108        0.422606
1.852                   0.906896        0.416595
1.854                   0.909645        0.410565
1.856                   0.912353        0.404516
1.858                   0.915023        0.398448
1.86                    0.917652        0.392362
1.862                   0.920241        0.386258
1.864                   0.922789        0.380136
1.866                   0.925298        0.373996
1.868                   0.927766        0.367839
1.87                    0.930193        0.361665
1.872                    0.93258        0.355474
1.874                   0.934926        0.349267
1.876                    0.93723        0.343044
1.878                   0.939494        0.336805
1.88                    0.941717         0.33055
1.882                   0.943898         0.32428
1.884                   0.946038        0.317994
1.886                   0.948136        0.311694
1.888                   0.950193         0.30538
1.89                    0.952207        0.299051
1.892                    0.95418        0.292708
1.894                   0.956111        0.286352
1.896                      0.958        0.279982
1.898                   0.959847        0.273599
1.9                     0.961651        0.267204
1.902                   0.963413        0.260796
1.904                   0.965133        0.254375
1.906                    0.96681        0.247943
1.908                   0.968444        0.241499
1.91                    0.970036        0.235044
1.912                   0.971585        0.228578
1.914                   0.973091        0.222101
1.916                   0.974554        0.215613
1.918                   0.975974        0.209116
1.92                    0.977351        0.202608
1.922                   0.978685        0.196091
1.924                   0.979975        0.189565
1.926                   0.981222         0.18303
1.928                   0.982426        0.176486
1.93                    0.983586        0.169933
1.932                   0.984703        0.163373
1.934                   0.985776        0.156805
1.936                   0.986805        0.150229
1.938                   0.987791        0.143646
1.94                    0.988733        0.137056
1.942                   0.989631         0.13046
1.944                   0.990485        0.123857
1.946                   0.991295        0.117248
1.948                   0.992062        0.110634
1.95                    0.992784        0.104014
1.952                   0.993462       0.0973895
1.954                   0.994097         0.09076
1.956                   0.994687       0.0841259
1.958                   0.995232       0.0774877
1.96                    0.995734       0.0708456
1.962                   0.996192       0.0641999
1.964                   0.996605        0.057551
1.966                   0.996974       0.0508991
1.968                   0.997299       0.0442446
1.97                    0.997579       0.0375878
1.972                   0.997815       0.0309289
1.974                   0.998007       0.0242683
1.976                   0.998154       0.0176063
1.978                   0.998257       0.0109431
1.98                    0.998316      0.00427918
1.982                    0.99833     -0.00238528
1.984                     0.9983     -0.00904994
1.986                   0.998225      -0.0157145
1.988                   0.998106      -0.0223786
1.99                    0.997943      -0.0290421
1.992                   0.997735      -0.0357044
1.994                   0.997483      -0.0423655
1.996                   0.997186      -0.0490249
1.998                   0.996845      -0.0556824
2                        0.99646      -0.0623376
