! TOUCHSTONE file generated by CST MICROWAVE STUDIO
! Date and time: Tue Jul 28 21:58:49 2026
! Project name: Sonda-Coaxial_21mm_DisifixB_v2.cst
! Parameters = {h_recipiente=5; l_conector=50; r_arandela=35; r_ext=10.5; r_int=3; r_recipiente=100; z_recipiente=-10}
! Header version: 2018
! Port assignment regex: !\s*Touchstone port\s*([0-9]+)\s*=\s*(CST MWS port|CST DS port)\s*([0-9]+|Zmin|Zmax)\s*\(\"(.*)\"\)(\s*mode\s*([0-9]+))?.*
! Touchstone port assignment:
! Touchstone port 1 = CST MWS port 1 ("")
# GHz S RI R 50
0                       0.998052               0
0.002                   0.997973      -0.0118707
0.004                   0.997735      -0.0237389
0.006                    0.99734      -0.0356021
0.008                   0.996787      -0.0474579
0.01                    0.996077      -0.0593038
0.012                   0.995208      -0.0711373
0.014                   0.994183       -0.082956
0.016                   0.993001      -0.0947573
0.018                   0.991662       -0.106539
0.02                    0.990166       -0.118298
0.022                   0.988515       -0.130033
0.024                   0.986709       -0.141741
0.026                   0.984748       -0.153419
0.028                   0.982633       -0.165065
0.03                    0.980364       -0.176677
0.032                   0.977942       -0.188252
0.034                   0.975368       -0.199789
0.036                   0.972642       -0.211284
0.038                   0.969766       -0.222735
0.04                     0.96674        -0.23414
0.042                   0.963565       -0.245497
0.044                   0.960241       -0.256804
0.046                   0.956771       -0.268057
0.048                   0.953154       -0.279256
0.05                    0.949393       -0.290397
0.052                   0.945487       -0.301479
0.054                   0.941438       -0.312499
0.056                   0.937248       -0.323455
0.058                   0.932917       -0.334346
0.06                    0.928447       -0.345168
0.062                   0.923838       -0.355921
0.064                   0.919093       -0.366601
0.066                   0.914212       -0.377208
0.068                   0.909197       -0.387738
0.07                     0.90405       -0.398191
0.072                   0.898771       -0.408563
0.074                   0.893362       -0.418853
0.076                   0.887825        -0.42906
0.078                   0.882161       -0.439182
0.08                    0.876372       -0.449216
0.082                    0.87046       -0.459161
0.084                   0.864425       -0.469015
0.086                    0.85827       -0.478777
0.088                   0.851996       -0.488445
0.09                    0.845605       -0.498016
0.092                   0.839099       -0.507491
0.094                   0.832478       -0.516867
0.096                   0.825747       -0.526142
0.098                   0.818905       -0.535315
0.1                     0.811955       -0.544385
0.102                   0.804898        -0.55335
0.104                   0.797737       -0.562209
0.106                   0.790474       -0.570961
0.108                   0.783109       -0.579603
0.11                    0.775646       -0.588136
0.112                   0.768085       -0.596558
0.114                    0.76043       -0.604867
0.116                   0.752681       -0.613062
0.118                   0.744842       -0.621143
0.12                    0.736913       -0.629109
0.122                   0.728897       -0.636957
0.124                   0.720795       -0.644688
0.126                   0.712611         -0.6523
0.128                   0.704346       -0.659792
0.13                    0.696001       -0.667164
0.132                   0.687579       -0.674415
0.134                   0.679082       -0.681544
0.136                   0.670513        -0.68855
0.138                   0.661872       -0.695432
0.14                    0.653162        -0.70219
0.142                   0.644386       -0.708824
0.144                   0.635545       -0.715332
0.146                   0.626641       -0.721714
0.148                   0.617676        -0.72797
0.15                    0.608654       -0.734098
0.152                   0.599574         -0.7401
0.154                    0.59044       -0.745973
0.156                   0.581254       -0.751719
0.158                   0.572017       -0.757336
0.16                    0.562732       -0.762824
0.162                   0.553401       -0.768183
0.164                   0.544026       -0.773413
0.166                   0.534608       -0.778514
0.168                   0.525151       -0.783485
0.17                    0.515655       -0.788327
0.172                   0.506124       -0.793039
0.174                   0.496558       -0.797621
0.176                    0.48696       -0.802073
0.178                   0.477333       -0.806396
0.18                    0.467677       -0.810589
0.182                   0.457995       -0.814653
0.184                   0.448289       -0.818587
0.186                    0.43856       -0.822392
0.188                   0.428812       -0.826068
0.19                    0.419045       -0.829616
0.192                   0.409262       -0.833034
0.194                   0.399464       -0.836325
0.196                   0.389653       -0.839488
0.198                   0.379831       -0.842523
0.2                     0.370001       -0.845432
0.202                   0.360163       -0.848213
0.204                    0.35032       -0.850868
0.206                   0.340474       -0.853398
0.208                   0.330625       -0.855802
0.21                    0.320776       -0.858081
0.212                    0.31093       -0.860237
0.214                   0.301086       -0.862268
0.216                   0.291248       -0.864177
0.218                   0.281416       -0.865963
0.22                    0.271593       -0.867627
0.222                   0.261779        -0.86917
0.224                   0.251977       -0.870593
0.226                   0.242189       -0.871896
0.228                   0.232415       -0.873081
0.23                    0.222658       -0.874147
0.232                   0.212918       -0.875096
0.234                   0.203198       -0.875928
0.236                   0.193499       -0.876644
0.238                   0.183822       -0.877246
0.24                    0.174168       -0.877733
0.242                    0.16454       -0.878107
0.244                   0.154939       -0.878369
0.246                   0.145365       -0.878519
0.248                    0.13582       -0.878559
0.25                    0.126306        -0.87849
0.252                   0.116824       -0.878312
0.254                   0.107375       -0.878026
0.256                    0.09796       -0.877634
0.258                  0.0885807       -0.877136
0.26                   0.0792383       -0.876534
0.262                  0.0699334       -0.875827
0.264                  0.0606679       -0.875019
0.266                  0.0514426       -0.874108
0.268                  0.0422585       -0.873098
0.27                   0.0331165       -0.871988
0.272                  0.0240182       -0.870779
0.274                  0.0149644       -0.869474
0.276                  0.0059556       -0.868072
0.278                -0.00300637       -0.866575
0.28                  -0.0119213       -0.864984
0.282                 -0.0207879         -0.8633
0.284                 -0.0296049       -0.861524
0.286                 -0.0383723       -0.859658
0.288                 -0.0470886       -0.857702
0.29                  -0.0557537       -0.855658
0.292                 -0.0643657       -0.853527
0.294                 -0.0729245       -0.851309
0.296                  -0.081429       -0.849007
0.298                  -0.089879        -0.84662
0.3                   -0.0982733       -0.844151
0.302                  -0.106612       -0.841601
0.304                  -0.114893        -0.83897
0.306                  -0.123117       -0.836259
0.308                  -0.131282       -0.833471
0.31                   -0.139389       -0.830606
0.312                  -0.147436       -0.827664
0.314                  -0.155424       -0.824649
0.316                   -0.16335       -0.821559
0.318                  -0.171216       -0.818397
0.32                   -0.179021       -0.815164
0.322                  -0.186763       -0.811861
0.324                  -0.194443       -0.808489
0.326                  -0.202061       -0.805049
0.328                  -0.209615       -0.801542
0.33                   -0.217105        -0.79797
0.332                  -0.224532       -0.794333
0.334                  -0.231894       -0.790633
0.336                  -0.239191       -0.786871
0.338                  -0.246424       -0.783047
0.34                   -0.253591       -0.779163
0.342                  -0.260692       -0.775221
0.344                  -0.267727       -0.771221
0.346                  -0.274697       -0.767163
0.348                    -0.2816       -0.763051
0.35                   -0.288436       -0.758883
0.352                  -0.295206       -0.754662
0.354                  -0.301908       -0.750389
0.356                  -0.308544       -0.746064
0.358                  -0.315112       -0.741688
0.36                   -0.321614       -0.737263
0.362                  -0.328047        -0.73279
0.364                  -0.334413        -0.72827
0.366                  -0.340711       -0.723703
0.368                  -0.346941       -0.719091
0.37                   -0.353104       -0.714434
0.372                  -0.359198       -0.709735
0.374                  -0.365225       -0.704992
0.376                  -0.371184       -0.700209
0.378                  -0.377074       -0.695385
0.38                   -0.382897       -0.690521
0.382                  -0.388652       -0.685619
0.384                  -0.394339       -0.680679
0.386                  -0.399958       -0.675703
0.388                  -0.405509       -0.670691
0.39                   -0.410993       -0.665643
0.392                  -0.416409       -0.660562
0.394                  -0.421757       -0.655448
0.396                  -0.427038       -0.650301
0.398                  -0.432251       -0.645123
0.4                    -0.437397       -0.639914
0.402                  -0.442476       -0.634675
0.404                  -0.447487       -0.629408
0.406                  -0.452432       -0.624113
0.408                   -0.45731        -0.61879
0.41                   -0.462121       -0.613441
0.412                  -0.466866       -0.608066
0.414                  -0.471544       -0.602666
0.416                  -0.476157       -0.597242
0.418                  -0.480703       -0.591795
0.42                   -0.485183       -0.586325
0.422                  -0.489599       -0.580833
0.424                  -0.493948       -0.575321
0.426                  -0.498232       -0.569787
0.428                  -0.502452       -0.564234
0.43                   -0.506606       -0.558662
0.432                  -0.510696       -0.553071
0.434                  -0.514722       -0.547463
0.436                  -0.518683       -0.541838
0.438                  -0.522581       -0.536196
0.44                   -0.526415       -0.530539
0.442                  -0.530185       -0.524867
0.444                  -0.533893        -0.51918
0.446                  -0.537537        -0.51348
0.448                  -0.541119       -0.507766
0.45                   -0.544638        -0.50204
0.452                  -0.548096       -0.496302
0.454                  -0.551491       -0.490552
0.456                  -0.554824       -0.484792
0.458                  -0.558097       -0.479021
0.46                   -0.561308       -0.473241
0.462                  -0.564458       -0.467451
0.464                  -0.567548       -0.461653
0.466                  -0.570577       -0.455847
0.468                  -0.573546       -0.450033
0.47                   -0.576455       -0.444213
0.472                  -0.579305       -0.438385
0.474                  -0.582096       -0.432552
0.476                  -0.584827       -0.426714
0.478                    -0.5875        -0.42087
0.48                   -0.590115       -0.415022
0.482                  -0.592671        -0.40917
0.484                  -0.595169       -0.403314
0.486                   -0.59761       -0.397455
0.488                  -0.599993       -0.391594
0.49                   -0.602319        -0.38573
0.492                  -0.604589       -0.379865
0.494                  -0.606802       -0.373998
0.496                  -0.608959        -0.36813
0.498                   -0.61106       -0.362262
0.5                    -0.613104       -0.356394
0.502                  -0.615094       -0.350526
0.504                  -0.617029       -0.344659
0.506                  -0.618908       -0.338793
0.508                  -0.620733       -0.332928
0.51                   -0.622504       -0.327066
0.512                   -0.62422       -0.321206
0.514                  -0.625883       -0.315348
0.516                  -0.627492       -0.309494
0.518                  -0.629048       -0.303643
0.52                   -0.630551       -0.297796
0.522                  -0.632001       -0.291953
0.524                  -0.633398       -0.286115
0.526                  -0.634744       -0.280282
0.528                  -0.636037       -0.274453
0.53                   -0.637279       -0.268631
0.532                  -0.638469       -0.262814
0.534                  -0.639608       -0.257003
0.536                  -0.640696         -0.2512
0.538                  -0.641734       -0.245403
0.54                   -0.642721       -0.239613
0.542                  -0.643657       -0.233831
0.544                  -0.644544       -0.228057
0.546                  -0.645381       -0.222291
0.548                  -0.646169       -0.216533
0.55                   -0.646908       -0.210785
0.552                  -0.647597       -0.205045
0.554                  -0.648238       -0.199315
0.556                  -0.648831       -0.193595
0.558                  -0.649375       -0.187885
0.56                   -0.649872       -0.182185
0.562                   -0.65032       -0.176496
0.564                  -0.650722       -0.170817
0.566                  -0.651076        -0.16515
0.568                  -0.651383       -0.159495
0.57                   -0.651643       -0.153851
0.572                  -0.651857        -0.14822
0.574                  -0.652024         -0.1426
0.576                  -0.652146       -0.136994
0.578                  -0.652222         -0.1314
0.58                   -0.652252        -0.12582
0.582                  -0.652237       -0.120253
0.584                  -0.652177         -0.1147
0.586                  -0.652072       -0.109161
0.588                  -0.651923       -0.103636
0.59                   -0.651729      -0.0981264
0.592                  -0.651491      -0.0926311
0.594                  -0.651209      -0.0871512
0.596                  -0.650884      -0.0816864
0.598                  -0.650515      -0.0762375
0.6                    -0.650103      -0.0708044
0.602                  -0.649648      -0.0653873
0.604                  -0.649151       -0.059987
0.606                  -0.648611      -0.0546032
0.608                  -0.648029      -0.0492363
0.61                   -0.647404      -0.0438868
0.612                  -0.646739      -0.0385548
0.614                  -0.646031      -0.0332404
0.616                  -0.645283      -0.0279441
0.618                  -0.644493       -0.022666
0.62                   -0.643663      -0.0174063
0.622                  -0.642792      -0.0121653
0.624                  -0.641881     -0.00694354
0.626                   -0.64093     -0.00174074
0.628                  -0.639939      0.00344224
0.63                   -0.638909      0.00860588
0.632                   -0.63784       0.0137493
0.634                  -0.636731       0.0188727
0.636                  -0.635584       0.0239755
0.638                  -0.634398       0.0290575
0.64                   -0.633173       0.0341189
0.642                  -0.631911        0.039159
0.644                  -0.630611       0.0441776
0.646                  -0.629274       0.0491746
0.648                  -0.627899       0.0541499
0.65                   -0.626488       0.0591031
0.652                  -0.625039       0.0640338
0.654                  -0.623555       0.0689423
0.656                  -0.622034       0.0738277
0.658                  -0.620477       0.0786903
0.66                   -0.618884       0.0835296
0.662                  -0.617256       0.0883456
0.664                  -0.615593       0.0931378
0.666                  -0.613895       0.0979065
0.668                  -0.612162        0.102651
0.67                   -0.610396        0.107371
0.672                  -0.608595        0.112067
0.674                   -0.60676        0.116737
0.676                  -0.604892        0.121384
0.678                   -0.60299        0.126005
0.68                   -0.601056          0.1306
0.682                  -0.599089        0.135171
0.684                   -0.59709        0.139715
0.686                  -0.595059        0.144234
0.688                  -0.592996        0.148726
0.69                   -0.590901        0.153193
0.692                  -0.588775        0.157633
0.694                  -0.586619        0.162046
0.696                  -0.584431        0.166432
0.698                  -0.582214        0.170792
0.7                    -0.579966        0.175124
0.702                  -0.577689        0.179429
0.704                  -0.575382        0.183707
0.706                  -0.573046        0.187957
0.708                  -0.570681        0.192179
0.71                   -0.568288        0.196373
0.712                  -0.565866        0.200539
0.714                  -0.563417        0.204677
0.716                   -0.56094        0.208786
0.718                  -0.558435        0.212867
0.72                   -0.555904        0.216919
0.722                  -0.553346        0.220943
0.724                  -0.550761        0.224937
0.726                   -0.54815        0.228902
0.728                  -0.545514        0.232838
0.73                   -0.542852        0.236744
0.732                  -0.540165        0.240621
0.734                  -0.537453        0.244469
0.736                  -0.534717        0.248286
0.738                  -0.531956        0.252074
0.74                   -0.529172        0.255832
0.742                  -0.526364         0.25956
0.744                  -0.523532        0.263257
0.746                  -0.520678        0.266925
0.748                  -0.517801        0.270562
0.75                   -0.514902        0.274168
0.752                   -0.51198        0.277744
0.754                  -0.509037         0.28129
0.756                  -0.506073        0.284804
0.758                  -0.503087        0.288288
0.76                   -0.500081        0.291741
0.762                  -0.497054        0.295163
0.764                  -0.494007        0.298555
0.766                  -0.490941        0.301915
0.768                  -0.487854        0.305244
0.77                   -0.484749        0.308541
0.772                  -0.481625        0.311808
0.774                  -0.478482        0.315043
0.776                   -0.47532        0.318248
0.778                  -0.472141         0.32142
0.78                   -0.468945        0.324562
0.782                   -0.46573        0.327672
0.784                  -0.462499         0.33075
0.786                  -0.459251        0.333797
0.788                  -0.455987        0.336813
0.79                   -0.452706        0.339797
0.792                   -0.44941        0.342749
0.794                  -0.446098         0.34567
0.796                  -0.442771        0.348559
0.798                  -0.439429        0.351417
0.8                    -0.436072        0.354243
0.802                  -0.432701        0.357038
0.804                  -0.429316        0.359801
0.806                  -0.425917        0.362533
0.808                  -0.422504        0.365233
0.81                   -0.419078        0.367901
0.812                   -0.41564        0.370538
0.814                  -0.412188        0.373144
0.816                  -0.408725        0.375717
0.818                  -0.405249         0.37826
0.82                   -0.401761        0.380771
0.822                  -0.398262        0.383251
0.824                  -0.394752        0.385699
0.826                  -0.391231        0.388116
0.828                  -0.387699        0.390501
0.83                   -0.384156        0.392855
0.832                  -0.380603        0.395178
0.834                   -0.37704         0.39747
0.836                  -0.373468        0.399731
0.838                  -0.369886        0.401961
0.84                   -0.366295        0.404159
0.842                  -0.362695        0.406327
0.844                  -0.359086        0.408463
0.846                  -0.355469        0.410569
0.848                  -0.351844        0.412643
0.85                    -0.34821        0.414687
0.852                  -0.344569        0.416701
0.854                  -0.340921        0.418683
0.856                  -0.337265        0.420635
0.858                  -0.333602        0.422557
0.86                   -0.329932        0.424448
0.862                  -0.326256        0.426308
0.864                  -0.322573        0.428138
0.866                  -0.318884        0.429938
0.868                  -0.315189        0.431708
0.87                   -0.311489        0.433448
0.872                  -0.307783        0.435157
0.874                  -0.304072        0.436837
0.876                  -0.300355        0.438486
0.878                  -0.296634        0.440106
0.88                   -0.292908        0.441696
0.882                  -0.289177        0.443256
0.884                  -0.285442        0.444786
0.886                  -0.281703        0.446287
0.888                  -0.277961        0.447759
0.89                   -0.274214        0.449201
0.892                  -0.270464        0.450614
0.894                   -0.26671        0.451997
0.896                  -0.262953        0.453351
0.898                  -0.259194        0.454676
0.9                    -0.255431        0.455973
0.902                  -0.251666         0.45724
0.904                  -0.247898        0.458478
0.906                  -0.244128        0.459687
0.908                  -0.240356        0.460868
0.91                   -0.236582         0.46202
0.912                  -0.232806        0.463144
0.914                  -0.229028        0.464238
0.916                  -0.225249        0.465305
0.918                  -0.221469        0.466343
0.92                   -0.217687        0.467353
0.922                  -0.213905        0.468334
0.924                  -0.210121        0.469287
0.926                  -0.206337        0.470213
0.928                  -0.202552         0.47111
0.93                   -0.198767        0.471979
0.932                  -0.194982         0.47282
0.934                  -0.191196        0.473634
0.936                  -0.187411        0.474419
0.938                  -0.183625        0.475177
0.94                    -0.17984        0.475908
0.942                  -0.176055        0.476611
0.944                  -0.172272        0.477286
0.946                  -0.168488        0.477933
0.948                  -0.164706        0.478554
0.95                   -0.160924        0.479147
0.952                  -0.157144        0.479713
0.954                  -0.153365        0.480251
0.956                  -0.149588        0.480762
0.958                  -0.145812        0.481247
0.96                   -0.142037        0.481704
0.962                  -0.138265        0.482134
0.964                  -0.134494        0.482537
0.966                  -0.130726        0.482913
0.968                   -0.12696        0.483263
0.97                   -0.123196        0.483585
0.972                  -0.119435        0.483881
0.974                  -0.115676         0.48415
0.976                  -0.111921        0.484392
0.978                  -0.108168        0.484608
0.98                   -0.104418        0.484797
0.982                  -0.100671         0.48496
0.984                 -0.0969277        0.485096
0.986                 -0.0931878        0.485206
0.988                 -0.0894513        0.485289
0.99                  -0.0857188        0.485346
0.992                 -0.0819901        0.485376
0.994                 -0.0782654         0.48538
0.996                 -0.0745448        0.485358
0.998                 -0.0708284         0.48531
1                     -0.0671164        0.485236
1.002                 -0.0634091        0.485135
1.004                 -0.0597065        0.485009
1.006                 -0.0560086        0.484856
1.008                 -0.0523158        0.484677
1.01                  -0.0486282        0.484472
1.012                 -0.0449456        0.484242
1.014                 -0.0412687        0.483985
1.016                 -0.0375972        0.483703
1.018                 -0.0339315        0.483394
1.02                  -0.0302717         0.48306
1.022                 -0.0266177          0.4827
1.024                   -0.02297        0.482315
1.026                 -0.0193286        0.481903
1.028                 -0.0156937        0.481466
1.03                  -0.0120654        0.481004
1.032                -0.00844392        0.480516
1.034                -0.00482932        0.480002
1.036                -0.00122191        0.479463
1.038                 0.00237828        0.478898
1.04                  0.00597118        0.478308
1.042                  0.0095564        0.477692
1.044                  0.0131339        0.477052
1.046                  0.0167035        0.476385
1.048                   0.020265        0.475694
1.05                   0.0238182        0.474978
1.052                  0.0273632        0.474236
1.054                  0.0308994        0.473469
1.056                   0.034427        0.472677
1.058                  0.0379457        0.471861
1.06                   0.0414554        0.471019
1.062                  0.0449557        0.470152
1.064                  0.0484465        0.469261
1.066                  0.0519279        0.468345
1.068                  0.0553994        0.467404
1.07                   0.0588609        0.466438
1.072                  0.0623123        0.465448
1.074                  0.0657535        0.464433
1.076                   0.069184        0.463394
1.078                   0.072604         0.46233
1.08                    0.076013        0.461242
1.082                  0.0794112         0.46013
1.084                   0.082798        0.458994
1.086                  0.0861734        0.457834
1.088                  0.0895373        0.456649
1.09                   0.0928893        0.455441
1.092                  0.0962295        0.454209
1.094                  0.0995574        0.452953
1.096                   0.102873        0.451673
1.098                   0.106176         0.45037
1.1                     0.109467        0.449043
1.102                   0.112744        0.447693
1.104                   0.116009        0.446319
1.106                    0.11926        0.444923
1.108                   0.122498        0.443503
1.11                    0.125722         0.44206
1.112                   0.128933        0.440595
1.114                   0.132129        0.439106
1.116                   0.135311        0.437595
1.118                   0.138479        0.436062
1.12                    0.141633        0.434506
1.122                   0.144772        0.432927
1.124                   0.147895        0.431327
1.126                   0.151004        0.429704
1.128                   0.154098         0.42806
1.13                    0.157175        0.426394
1.132                   0.160238        0.424706
1.134                   0.163284        0.422996
1.136                   0.166315        0.421266
1.138                    0.16933        0.419514
1.14                    0.172328        0.417741
1.142                   0.175309        0.415947
1.144                   0.178274        0.414132
1.146                   0.181222        0.412296
1.148                   0.184154        0.410441
1.15                    0.187067        0.408564
1.152                   0.189964        0.406668
1.154                   0.192843        0.404752
1.156                   0.195705        0.402816
1.158                   0.198549         0.40086
1.16                    0.201374        0.398885
1.162                   0.204182         0.39689
1.164                   0.206971        0.394877
1.166                   0.209742        0.392844
1.168                   0.212495        0.390793
1.17                    0.215228        0.388723
1.172                   0.217943        0.386635
1.174                   0.220639        0.384528
1.176                   0.223315        0.382404
1.178                   0.225973        0.380262
1.18                    0.228611        0.378102
1.182                   0.231229        0.375924
1.184                   0.233828         0.37373
1.186                   0.236407        0.371518
1.188                   0.238966         0.36929
1.19                    0.241505        0.367045
1.192                   0.244024        0.364783
1.194                   0.246523        0.362505
1.196                   0.249001        0.360212
1.198                   0.251459        0.357902
1.2                     0.253896        0.355577
1.202                   0.256313        0.353237
1.204                   0.258708        0.350881
1.206                   0.261083         0.34851
1.208                   0.263438        0.346125
1.21                    0.265771        0.343725
1.212                   0.268083        0.341311
1.214                   0.270373        0.338882
1.216                   0.272643         0.33644
1.218                   0.274891        0.333984
1.22                    0.277118        0.331515
1.222                   0.279323        0.329033
1.224                   0.281507        0.326537
1.226                   0.283669        0.324029
1.228                   0.285809        0.321508
1.23                    0.287928        0.318974
1.232                   0.290025        0.316429
1.234                     0.2921        0.313872
1.236                   0.294154        0.311303
1.238                   0.296185        0.308722
1.24                    0.298195         0.30613
1.242                   0.300182        0.303527
1.244                   0.302148        0.300914
1.246                   0.304092        0.298289
1.248                   0.306013        0.295654
1.25                    0.307913        0.293009
1.252                    0.30979        0.290354
1.254                   0.311646         0.28769
1.256                   0.313479        0.285015
1.258                    0.31529        0.282332
1.26                    0.317079        0.279639
1.262                   0.318846        0.276937
1.264                   0.320591        0.274227
1.266                   0.322314        0.271508
1.268                   0.324015         0.26878
1.27                    0.325693        0.266045
1.272                    0.32735        0.263301
1.274                   0.328985         0.26055
1.276                   0.330597        0.257791
1.278                   0.332188        0.255025
1.28                    0.333756        0.252252
1.282                   0.335303        0.249471
1.284                   0.336828        0.246684
1.286                    0.33833        0.243891
1.288                   0.339811         0.24109
1.29                     0.34127        0.238284
1.292                   0.342707        0.235472
1.294                   0.344123        0.232653
1.296                   0.345517        0.229829
1.298                   0.346889           0.227
1.3                     0.348239        0.224165
1.302                   0.349568        0.221324
1.304                   0.350875        0.218479
1.306                   0.352161        0.215629
1.308                   0.353425        0.212774
1.31                    0.354668        0.209915
1.312                    0.35589        0.207051
1.314                    0.35709        0.204183
1.316                   0.358269         0.20131
1.318                   0.359427        0.198434
1.32                    0.360564        0.195554
1.322                   0.361679         0.19267
1.324                   0.362774        0.189783
1.326                   0.363848        0.186892
1.328                     0.3649        0.183998
1.33                    0.365932        0.181101
1.332                   0.366943          0.1782
1.334                   0.367933        0.175297
1.336                   0.368903        0.172391
1.338                   0.369852        0.169483
1.34                    0.370781        0.166572
1.342                   0.371689        0.163658
1.344                   0.372576        0.160742
1.346                   0.373443        0.157824
1.348                    0.37429        0.154904
1.35                    0.375117        0.151982
1.352                   0.375923        0.149058
1.354                   0.376709        0.146132
1.356                   0.377475        0.143204
1.358                   0.378221        0.140275
1.36                    0.378947        0.137345
1.362                   0.379653        0.134413
1.364                   0.380339        0.131479
1.366                   0.381005        0.128545
1.368                   0.381652        0.125609
1.37                    0.382279        0.122673
1.372                   0.382886        0.119735
1.374                   0.383473        0.116797
1.376                   0.384041        0.113857
1.378                   0.384589        0.110917
1.38                    0.385118        0.107977
1.382                   0.385627        0.105035
1.384                   0.386117        0.102094
1.386                   0.386587       0.0991517
1.388                   0.387038       0.0962093
1.39                     0.38747       0.0932667
1.392                   0.387882       0.0903238
1.394                   0.388275       0.0873809
1.396                   0.388649       0.0844379
1.398                   0.389004       0.0814949
1.4                     0.389339        0.078552
1.402                   0.389655       0.0756093
1.404                   0.389953       0.0726668
1.406                    0.39023       0.0697246
1.408                   0.390489       0.0667828
1.41                    0.390729       0.0638414
1.412                    0.39095       0.0609005
1.414                   0.391151       0.0579602
1.416                   0.391334       0.0550205
1.418                   0.391498       0.0520815
1.42                    0.391642       0.0491433
1.422                   0.391768       0.0462059
1.424                   0.391874       0.0432694
1.426                   0.391962       0.0403339
1.428                    0.39203       0.0373995
1.43                    0.392079       0.0344662
1.432                    0.39211        0.031534
1.434                   0.392121       0.0286031
1.436                   0.392114       0.0256736
1.438                   0.392087       0.0227454
1.44                    0.392041       0.0198187
1.442                   0.391977       0.0168936
1.444                   0.391893       0.0139702
1.446                    0.39179       0.0110484
1.448                   0.391668      0.00812844
1.45                    0.391527      0.00521035
1.452                   0.391367      0.00229423
1.454                   0.391187    -0.000619849
1.456                   0.390989     -0.00353179
1.458                   0.390771     -0.00644152
1.46                    0.390534     -0.00934893
1.462                   0.390278      -0.0122539
1.464                   0.390003      -0.0151564
1.466                   0.389709      -0.0180564
1.468                   0.389395      -0.0209536
1.47                    0.389062       -0.023848
1.472                    0.38871      -0.0267396
1.474                   0.388338      -0.0296281
1.476                   0.387947      -0.0325135
1.478                   0.387536      -0.0353958
1.48                    0.387107      -0.0382746
1.482                   0.386657      -0.0411501
1.484                   0.386189       -0.044022
1.486                     0.3857      -0.0468902
1.488                   0.385193      -0.0497547
1.49                    0.384666      -0.0526152
1.492                   0.384119      -0.0554717
1.494                   0.383553      -0.0583241
1.496                   0.382967      -0.0611721
1.498                   0.382361      -0.0640157
1.5                     0.381736      -0.0668547
1.502                   0.381091      -0.0696891
1.504                   0.380427      -0.0725186
1.506                   0.379743      -0.0753431
1.508                   0.379039      -0.0781625
1.51                    0.378315      -0.0809767
1.512                   0.377572      -0.0837854
1.514                   0.376809      -0.0865886
1.516                   0.376026       -0.089386
1.518                   0.375224      -0.0921775
1.52                    0.374402      -0.0949631
1.522                    0.37356      -0.0977424
1.524                   0.372698       -0.100515
1.526                   0.371817       -0.103282
1.528                   0.370916       -0.106042
1.53                    0.369995       -0.108795
1.532                   0.369055       -0.111541
1.534                   0.368094       -0.114279
1.536                   0.367114       -0.117011
1.538                   0.366115       -0.119734
1.54                    0.365095       -0.122451
1.542                   0.364057       -0.125159
1.544                   0.362998       -0.127859
1.546                    0.36192       -0.130551
1.548                   0.360822       -0.133234
1.55                    0.359705       -0.135909
1.552                   0.358568       -0.138575
1.554                   0.357412       -0.141232
1.556                   0.356236        -0.14388
1.558                   0.355041       -0.146519
1.56                    0.353827       -0.149148
1.562                   0.352594       -0.151767
1.564                   0.351341       -0.154376
1.566                   0.350069       -0.156975
1.568                   0.348778       -0.159564
1.57                    0.347468       -0.162143
1.572                   0.346139        -0.16471
1.574                   0.344792       -0.167267
1.576                   0.343425       -0.169813
1.578                    0.34204       -0.172347
1.58                    0.340636       -0.174871
1.582                   0.339214       -0.177382
1.584                   0.337773       -0.179881
1.586                   0.336314       -0.182369
1.588                   0.334837       -0.184844
1.59                    0.333342       -0.187307
1.592                   0.331828       -0.189758
1.594                   0.330297       -0.192195
1.596                   0.328748        -0.19462
1.598                   0.327181       -0.197031
1.6                     0.325597        -0.19943
1.602                   0.323995       -0.201814
1.604                   0.322376       -0.204185
1.606                    0.32074       -0.206542
1.608                   0.319087       -0.208886
1.61                    0.317417       -0.211214
1.612                    0.31573       -0.213529
1.614                   0.314026       -0.215829
1.616                   0.312307       -0.218114
1.618                   0.310571       -0.220385
1.62                    0.308819        -0.22264
1.622                   0.307051        -0.22488
1.624                   0.305267       -0.227106
1.626                   0.303467       -0.229315
1.628                   0.301653       -0.231508
1.63                    0.299822       -0.233686
1.632                   0.297977       -0.235848
1.634                   0.296117       -0.237994
1.636                   0.294242       -0.240124
1.638                   0.292353       -0.242237
1.64                    0.290449       -0.244334
1.642                   0.288531       -0.246414
1.644                     0.2866       -0.248478
1.646                   0.284654       -0.250525
1.648                   0.282695       -0.252554
1.65                    0.280722       -0.254567
1.652                   0.278737       -0.256562
1.654                   0.276738        -0.25854
1.656                   0.274727       -0.260501
1.658                   0.272703       -0.262444
1.66                    0.270667        -0.26437
1.662                   0.268618       -0.266278
1.664                   0.266558       -0.268168
1.666                   0.264486        -0.27004
1.668                   0.262402       -0.271894
1.67                    0.260308       -0.273731
1.672                   0.258202       -0.275549
1.674                   0.256085       -0.277349
1.676                   0.253958       -0.279131
1.678                    0.25182       -0.280895
1.68                    0.249672       -0.282641
1.682                   0.247515       -0.284368
1.684                   0.245347       -0.286077
1.686                    0.24317       -0.287767
1.688                   0.240983       -0.289439
1.69                    0.238788       -0.291093
1.692                   0.236583       -0.292728
1.694                    0.23437       -0.294345
1.696                   0.232148       -0.295943
1.698                   0.229919       -0.297523
1.7                     0.227681       -0.299084
1.702                   0.225435       -0.300626
1.704                   0.223182        -0.30215
1.706                   0.220921       -0.303656
1.708                   0.218653       -0.305143
1.71                    0.216378       -0.306612
1.712                   0.214097       -0.308062
1.714                   0.211808       -0.309493
1.716                   0.209514       -0.310907
1.718                   0.207213       -0.312302
1.72                    0.204906       -0.313678
1.722                   0.202593       -0.315036
1.724                   0.200275       -0.316377
1.726                   0.197951       -0.317698
1.728                   0.195622       -0.319002
1.73                    0.193288       -0.320288
1.732                    0.19095       -0.321555
1.734                   0.188606       -0.322805
1.736                   0.186258       -0.324036
1.738                   0.183905        -0.32525
1.74                    0.181549       -0.326446
1.742                   0.179188       -0.327624
1.744                   0.176824       -0.328785
1.746                   0.174455       -0.329928
1.748                   0.172084       -0.331053
1.75                    0.169708       -0.332162
1.752                    0.16733       -0.333252
1.754                   0.164948       -0.334326
1.756                   0.162564       -0.335382
1.758                   0.160176       -0.336422
1.76                    0.157786       -0.337444
1.762                   0.155393        -0.33845
1.764                   0.152998       -0.339439
1.766                   0.150601       -0.340411
1.768                   0.148201       -0.341366
1.77                    0.145799       -0.342305
1.772                   0.143395       -0.343228
1.774                   0.140989       -0.344134
1.776                   0.138581       -0.345024
1.778                   0.136172       -0.345898
1.78                    0.133761       -0.346756
1.782                   0.131348       -0.347599
1.784                   0.128934       -0.348425
1.786                   0.126518       -0.349236
1.788                   0.124101       -0.350031
1.79                    0.121683        -0.35081
1.792                   0.119264       -0.351574
1.794                   0.116843       -0.352323
1.796                   0.114422       -0.353057
1.798                   0.111999       -0.353775
1.8                     0.109576       -0.354479
1.802                   0.107151       -0.355167
1.804                   0.104726       -0.355841
1.806                   0.102299         -0.3565
1.808                  0.0998723       -0.357144
1.81                   0.0974444       -0.357774
1.812                  0.0950158       -0.358389
1.814                  0.0925864        -0.35899
1.816                  0.0901563       -0.359576
1.818                  0.0877255       -0.360148
1.82                   0.0852939       -0.360706
1.822                  0.0828617        -0.36125
1.824                  0.0804288        -0.36178
1.826                  0.0779953       -0.362296
1.828                  0.0755611       -0.362798
1.83                   0.0731262       -0.363286
1.832                  0.0706905       -0.363761
1.834                  0.0682544       -0.364221
1.836                  0.0658174       -0.364668
1.838                  0.0633799       -0.365101
1.84                   0.0609416       -0.365521
1.842                  0.0585025       -0.365927
1.844                  0.0560627        -0.36632
1.846                  0.0536222       -0.366699
1.848                  0.0511809       -0.367065
1.85                   0.0487388       -0.367417
1.852                  0.0462959       -0.367756
1.854                  0.0438521       -0.368081
1.856                  0.0414076       -0.368393
1.858                  0.0389621       -0.368692
1.86                   0.0365158       -0.368977
1.862                  0.0340685       -0.369249
1.864                  0.0316202       -0.369508
1.866                   0.029171       -0.369753
1.868                  0.0267208       -0.369985
1.87                   0.0242696       -0.370203
1.872                  0.0218173       -0.370408
1.874                  0.0193639         -0.3706
1.876                  0.0169095       -0.370778
1.878                  0.0144539       -0.370943
1.88                   0.0119972       -0.371094
1.882                 0.00953931       -0.371232
1.884                 0.00708042       -0.371356
1.886                 0.00462018       -0.371466
1.888                 0.00215873       -0.371563
1.89                -0.000303787       -0.371645
1.892                -0.00276766       -0.371715
1.894                -0.00523275        -0.37177
1.896                -0.00769909       -0.371811
1.898                 -0.0101665       -0.371838
1.9                   -0.0126354       -0.371852
1.902                 -0.0151053       -0.371851
1.904                 -0.0175767       -0.371835
1.906                 -0.0200492       -0.371806
1.908                 -0.0225229       -0.371762
1.91                  -0.0249978       -0.371704
1.912                 -0.0274738       -0.371631
1.914                 -0.0299512       -0.371543
1.916                 -0.0324296       -0.371441
1.918                 -0.0349091       -0.371324
1.92                  -0.0373897       -0.371191
1.922                 -0.0398713       -0.371044
1.924                  -0.042354       -0.370882
1.926                 -0.0448376       -0.370704
1.928                 -0.0473222       -0.370511
1.93                  -0.0498075       -0.370302
1.932                 -0.0522937       -0.370078
1.934                 -0.0547806       -0.369838
1.936                 -0.0572682       -0.369583
1.938                 -0.0597564       -0.369311
1.94                   -0.062245       -0.369023
1.942                 -0.0647342       -0.368719
1.944                 -0.0672236       -0.368399
1.946                 -0.0697135       -0.368062
1.948                 -0.0722033       -0.367709
1.95                  -0.0746933       -0.367339
1.952                 -0.0771833       -0.366952
1.954                 -0.0796731       -0.366549
1.956                 -0.0821625       -0.366128
1.958                 -0.0846517       -0.365691
1.96                  -0.0871402       -0.365236
1.962                 -0.0896282       -0.364763
1.964                 -0.0921153       -0.364274
1.966                 -0.0946015       -0.363766
1.968                 -0.0970866       -0.363241
1.97                  -0.0995704       -0.362698
1.972                  -0.102053       -0.362138
1.974                  -0.104534       -0.361559
1.976                  -0.107013       -0.360962
1.978                   -0.10949       -0.360347
1.98                   -0.111966       -0.359714
1.982                  -0.114439       -0.359062
1.984                  -0.116909       -0.358391
1.986                  -0.119377       -0.357702
1.988                  -0.121842       -0.356995
1.99                   -0.124304       -0.356269
1.992                  -0.126763       -0.355523
1.994                  -0.129218       -0.354759
1.996                   -0.13167       -0.353976
1.998                  -0.134117       -0.353174
2                      -0.136561       -0.352353
