! TOUCHSTONE file generated by CST MICROWAVE STUDIO
! Date and time: Tue Jul 28 21:58:50 2026
! Project name: Sonda-Coaxial_21mm_DisifixB_v2.cst
! Parameters = {h_recipiente=5; l_conector=50; r_arandela=35; r_ext=10.5; r_int=3; r_recipiente=100; z_recipiente=-80}
! Header version: 2018
! Port assignment regex: !\s*Touchstone port\s*([0-9]+)\s*=\s*(CST MWS port|CST DS port)\s*([0-9]+|Zmin|Zmax)\s*\(\"(.*)\"\)(\s*mode\s*([0-9]+))?.*
! Touchstone port assignment:
! Touchstone port 1 = CST MWS port 1 ("")
# GHz S RI R 50
0                       0.998187               0
0.002                   0.998109      -0.0118644
0.004                   0.997874      -0.0237263
0.006                   0.997483      -0.0355835
0.008                   0.996935      -0.0474333
0.01                    0.996231      -0.0592735
0.012                   0.995371      -0.0711017
0.014                   0.994356      -0.0829153
0.016                   0.993184      -0.0947121
0.018                   0.991858        -0.10649
0.02                    0.990377       -0.118245
0.022                   0.988741       -0.129977
0.024                   0.986952       -0.141683
0.026                   0.985009       -0.153359
0.028                   0.982914       -0.165005
0.03                    0.980666       -0.176617
0.032                   0.978266       -0.188193
0.034                   0.975716       -0.199731
0.036                   0.973015       -0.211229
0.038                   0.970165       -0.222684
0.04                    0.967166       -0.234095
0.042                   0.964019       -0.245458
0.044                   0.960725       -0.256772
0.046                   0.957286       -0.268034
0.048                   0.953701       -0.279242
0.05                    0.949971       -0.290395
0.052                   0.946099       -0.301489
0.054                   0.942085       -0.312524
0.056                    0.93793       -0.323496
0.058                   0.933635       -0.334403
0.06                    0.929201       -0.345245
0.062                   0.924631       -0.356018
0.064                   0.919923        -0.36672
0.066                   0.915082        -0.37735
0.068                   0.910106       -0.387906
0.07                    0.904998       -0.398385
0.072                    0.89976       -0.408786
0.074                   0.894392       -0.419107
0.076                   0.888895       -0.429347
0.078                   0.883273       -0.439503
0.08                    0.877525       -0.449573
0.082                   0.871654       -0.459556
0.084                   0.865661        -0.46945
0.086                   0.859548       -0.479254
0.088                   0.853315       -0.488966
0.09                    0.846966       -0.498583
0.092                   0.840501       -0.508106
0.094                   0.833922       -0.517531
0.096                   0.827231       -0.526858
0.098                    0.82043       -0.536085
0.1                      0.81352       -0.545211
0.102                   0.806503       -0.554234
0.104                   0.799381       -0.563153
0.106                   0.792156       -0.571967
0.108                   0.784829       -0.580674
0.11                    0.777403       -0.589272
0.112                   0.769878       -0.597762
0.114                   0.762258       -0.606141
0.116                   0.754544       -0.614409
0.118                   0.746738       -0.622564
0.12                    0.738841       -0.630605
0.122                   0.730856       -0.638531
0.124                   0.722785       -0.646342
0.126                   0.714629       -0.654036
0.128                   0.706391       -0.661612
0.13                    0.698072        -0.66907
0.132                   0.689675       -0.676408
0.134                   0.681201       -0.683626
0.136                   0.672653       -0.690723
0.138                   0.664032       -0.697699
0.14                    0.655341       -0.704552
0.142                    0.64658       -0.711281
0.144                   0.637754       -0.717887
0.146                   0.628862       -0.724369
0.148                   0.619908       -0.730726
0.15                    0.610894       -0.736958
0.152                   0.601821       -0.743063
0.154                   0.592692       -0.749043
0.156                   0.583507       -0.754896
0.158                   0.574271       -0.760621
0.16                    0.564984        -0.76622
0.162                   0.555648        -0.77169
0.164                   0.546266       -0.777033
0.166                   0.536839       -0.782247
0.168                    0.52737       -0.787334
0.17                     0.51786       -0.792291
0.172                   0.508312        -0.79712
0.174                   0.498727       -0.801821
0.176                   0.489107       -0.806392
0.178                   0.479454       -0.810834
0.18                    0.469771       -0.815148
0.182                   0.460059       -0.819334
0.184                    0.45032        -0.82339
0.186                   0.440556       -0.827318
0.188                   0.430769       -0.831117
0.19                     0.42096       -0.834788
0.192                   0.411132       -0.838331
0.194                   0.401287       -0.841747
0.196                   0.391426       -0.845034
0.198                   0.381551       -0.848195
0.2                     0.371664       -0.851228
0.202                   0.361768       -0.854135
0.204                   0.351862       -0.856916
0.206                    0.34195        -0.85957
0.208                   0.332033         -0.8621
0.21                    0.322112       -0.864504
0.212                   0.312191       -0.866784
0.214                   0.302269        -0.86894
0.216                    0.29235       -0.870972
0.218                   0.282434       -0.872882
0.22                    0.272523       -0.874669
0.222                   0.262619       -0.876335
0.224                   0.252724       -0.877879
0.226                   0.242839       -0.879303
0.228                   0.232965       -0.880607
0.23                    0.223105       -0.881792
0.232                   0.213259       -0.882859
0.234                    0.20343       -0.883808
0.236                   0.193618        -0.88464
0.238                   0.183825       -0.885355
0.24                    0.174053       -0.885956
0.242                   0.164303       -0.886442
0.244                   0.154577       -0.886814
0.246                   0.144875       -0.887073
0.248                     0.1352       -0.887221
0.25                    0.125552       -0.887256
0.252                   0.115932       -0.887182
0.254                   0.106343       -0.886998
0.256                  0.0967861       -0.886706
0.258                   0.087261       -0.886306
0.26                     0.07777         -0.8858
0.262                   0.068314       -0.885187
0.264                   0.058894        -0.88447
0.266                  0.0495117        -0.88365
0.268                   0.040168       -0.882726
0.27                   0.0308638       -0.881701
0.272                  0.0216003       -0.880575
0.274                  0.0123786       -0.879349
0.276                 0.00319967       -0.878024
0.278                -0.00593549       -0.876602
0.28                  -0.0150255       -0.875083
0.282                 -0.0240698       -0.873468
0.284                  -0.033067       -0.871759
0.286                 -0.0420168       -0.869956
0.288                 -0.0509185       -0.868061
0.29                  -0.0597702       -0.866074
0.292                 -0.0685717       -0.863997
0.294                 -0.0773219       -0.861831
0.296                 -0.0860199       -0.859576
0.298                  -0.094665       -0.857235
0.3                    -0.103257       -0.854808
0.302                  -0.111795       -0.852295
0.304                  -0.120276       -0.849699
0.306                  -0.128703       -0.847021
0.308                  -0.137073        -0.84426
0.31                   -0.145386        -0.84142
0.312                  -0.153641       -0.838499
0.314                  -0.161838       -0.835501
0.316                  -0.169976       -0.832425
0.318                  -0.178054       -0.829273
0.32                   -0.186072       -0.826047
0.322                  -0.194029       -0.822746
0.324                  -0.201925       -0.819373
0.326                   -0.20976       -0.815928
0.328                  -0.217532       -0.812412
0.33                   -0.225241       -0.808827
0.332                  -0.232887       -0.805174
0.334                   -0.24047       -0.801453
0.336                  -0.247988       -0.797666
0.338                  -0.255443       -0.793814
0.34                   -0.262832       -0.789898
0.342                  -0.270156       -0.785919
0.344                  -0.277415       -0.781878
0.346                  -0.284608       -0.777776
0.348                  -0.291735       -0.773614
0.35                   -0.298795       -0.769394
0.352                  -0.305789       -0.765116
0.354                  -0.312716       -0.760781
0.356                  -0.319576       -0.756391
0.358                  -0.326368       -0.751946
0.36                   -0.333093       -0.747448
0.362                   -0.33975       -0.742897
0.364                  -0.346339       -0.738294
0.366                   -0.35286       -0.733642
0.368                  -0.359312       -0.728939
0.37                   -0.365696       -0.724188
0.372                  -0.372011        -0.71939
0.374                  -0.378257       -0.714545
0.376                  -0.384435       -0.709655
0.378                  -0.390544        -0.70472
0.38                   -0.396584       -0.699741
0.382                  -0.402555        -0.69472
0.384                  -0.408456       -0.689657
0.386                  -0.414289       -0.684553
0.388                  -0.420052        -0.67941
0.39                   -0.425746       -0.674227
0.392                  -0.431371       -0.669007
0.394                  -0.436927       -0.663749
0.396                  -0.442413       -0.658455
0.398                  -0.447831       -0.653125
0.4                    -0.453179       -0.647762
0.402                  -0.458458       -0.642364
0.404                  -0.463668       -0.636934
0.406                  -0.468809       -0.631472
0.408                  -0.473881       -0.625979
0.41                   -0.478884       -0.620456
0.412                  -0.483819       -0.614903
0.414                  -0.488684       -0.609321
0.416                  -0.493482       -0.603712
0.418                   -0.49821       -0.598076
0.42                   -0.502871       -0.592414
0.422                  -0.507463       -0.586726
0.424                  -0.511987       -0.581014
0.426                  -0.516444       -0.575278
0.428                  -0.520832       -0.569518
0.43                   -0.525153       -0.563737
0.432                  -0.529406       -0.557933
0.434                  -0.533592       -0.552109
0.436                   -0.53771       -0.546265
0.438                  -0.541762       -0.540401
0.44                   -0.545747       -0.534519
0.442                  -0.549665       -0.528618
0.444                  -0.553516         -0.5227
0.446                  -0.557302       -0.516766
0.448                  -0.561021       -0.510815
0.45                   -0.564674       -0.504849
0.452                  -0.568262       -0.498869
0.454                  -0.571784       -0.492874
0.456                  -0.575241       -0.486866
0.458                  -0.578633       -0.480846
0.46                    -0.58196       -0.474813
0.462                  -0.585222       -0.468769
0.464                   -0.58842       -0.462713
0.466                  -0.591554       -0.456648
0.468                  -0.594624       -0.450573
0.47                    -0.59763       -0.444488
0.472                  -0.600572       -0.438396
0.474                  -0.603451       -0.432295
0.476                  -0.606268       -0.426187
0.478                  -0.609021       -0.420072
0.48                   -0.611712       -0.413951
0.482                  -0.614341       -0.407824
0.484                  -0.616907       -0.401692
0.486                  -0.619412       -0.395555
0.488                  -0.621855       -0.389415
0.49                   -0.624237        -0.38327
0.492                  -0.626558       -0.377123
0.494                  -0.628818       -0.370973
0.496                  -0.631018       -0.364821
0.498                  -0.633157       -0.358668
0.5                    -0.635236       -0.352513
0.502                  -0.637256       -0.346358
0.504                  -0.639216       -0.340203
0.506                  -0.641116       -0.334048
0.508                  -0.642958       -0.327894
0.51                   -0.644741       -0.321742
0.512                  -0.646465       -0.315591
0.514                  -0.648131       -0.309442
0.516                   -0.64974       -0.303297
0.518                   -0.65129       -0.297154
0.52                   -0.652783       -0.291015
0.522                  -0.654219        -0.28488
0.524                  -0.655598        -0.27875
0.526                  -0.656921       -0.272624
0.528                  -0.658187       -0.266504
0.53                   -0.659396        -0.26039
0.532                  -0.660551       -0.254281
0.534                  -0.661649        -0.24818
0.536                  -0.662692       -0.242085
0.538                   -0.66368       -0.235998
0.54                   -0.664614       -0.229918
0.542                  -0.665492       -0.223847
0.544                  -0.666317       -0.217784
0.546                  -0.667088        -0.21173
0.548                  -0.667805       -0.205686
0.55                   -0.668468       -0.199651
0.552                  -0.669079       -0.193627
0.554                  -0.669636       -0.187613
0.556                  -0.670141       -0.181609
0.558                  -0.670593       -0.175618
0.56                   -0.670994       -0.169637
0.562                  -0.671342       -0.163669
0.564                  -0.671639       -0.157713
0.566                  -0.671885        -0.15177
0.568                   -0.67208        -0.14584
0.57                   -0.672224       -0.139923
0.572                  -0.672318        -0.13402
0.574                  -0.672361       -0.128131
0.576                  -0.672355       -0.122256
0.578                  -0.672299       -0.116397
0.58                   -0.672194       -0.110552
0.582                  -0.672039       -0.104723
0.584                  -0.671836      -0.0989094
0.586                  -0.671585      -0.0931122
0.588                  -0.671285      -0.0873315
0.59                   -0.670937      -0.0815674
0.592                  -0.670542      -0.0758205
0.594                  -0.670099       -0.070091
0.596                  -0.669609      -0.0643793
0.598                  -0.669072      -0.0586856
0.6                    -0.668489      -0.0530104
0.602                   -0.66786      -0.0473539
0.604                  -0.667184      -0.0417162
0.606                  -0.666463      -0.0360978
0.608                  -0.665697       -0.030499
0.61                   -0.664885      -0.0249203
0.612                  -0.664029      -0.0193617
0.614                  -0.663129      -0.0138236
0.616                  -0.662184      -0.0083063
0.618                  -0.661195     -0.00281001
0.62                   -0.660163      0.00266477
0.622                  -0.659087      0.00811806
0.624                  -0.657968       0.0135494
0.626                  -0.656807       0.0189584
0.628                  -0.655603       0.0243449
0.63                   -0.654357       0.0297086
0.632                  -0.653069       0.0350495
0.634                   -0.65174        0.040367
0.636                   -0.65037       0.0456606
0.638                  -0.648959       0.0509305
0.64                   -0.647507       0.0561764
0.642                  -0.646015       0.0613978
0.644                  -0.644483       0.0665947
0.646                  -0.642912       0.0717665
0.648                  -0.641301       0.0769132
0.65                   -0.639651       0.0820346
0.652                  -0.637963       0.0871302
0.654                  -0.636236       0.0921999
0.656                  -0.634471       0.0972437
0.658                  -0.632668        0.102261
0.66                   -0.630829        0.107252
0.662                  -0.628952        0.112215
0.664                  -0.627038        0.117152
0.666                  -0.625088        0.122062
0.668                  -0.623102        0.126944
0.67                    -0.62108        0.131798
0.672                  -0.619023        0.136624
0.674                   -0.61693        0.141422
0.676                  -0.614803        0.146192
0.678                  -0.612642        0.150933
0.68                   -0.610447        0.155646
0.682                  -0.608217        0.160329
0.684                  -0.605955        0.164983
0.686                  -0.603659        0.169608
0.688                  -0.601331        0.174203
0.69                    -0.59897        0.178769
0.692                  -0.596578        0.183305
0.694                  -0.594154         0.18781
0.696                  -0.591698        0.192285
0.698                  -0.589212         0.19673
0.7                    -0.586694        0.201144
0.702                  -0.584147        0.205528
0.704                   -0.58157         0.20988
0.706                  -0.578963        0.214202
0.708                  -0.576327        0.218492
0.71                   -0.573662         0.22275
0.712                  -0.570969        0.226977
0.714                  -0.568247        0.231173
0.716                  -0.565498        0.235336
0.718                  -0.562721        0.239468
0.72                   -0.559917        0.243568
0.722                  -0.557086        0.247635
0.724                   -0.55423         0.25167
0.726                  -0.551346        0.255673
0.728                  -0.548438        0.259643
0.73                   -0.545504         0.26358
0.732                  -0.542545        0.267485
0.734                  -0.539561        0.271356
0.736                  -0.536554        0.275195
0.738                  -0.533522        0.279001
0.74                   -0.530467        0.282773
0.742                  -0.527389        0.286513
0.744                  -0.524288        0.290219
0.746                  -0.521164        0.293891
0.748                  -0.518018         0.29753
0.75                   -0.514851        0.301136
0.752                  -0.511662        0.304708
0.754                  -0.508452        0.308246
0.756                  -0.505221        0.311751
0.758                   -0.50197        0.315222
0.76                   -0.498699        0.318659
0.762                  -0.495408        0.322062
0.764                  -0.492098        0.325432
0.766                  -0.488769        0.328767
0.768                  -0.485422        0.332069
0.77                   -0.482056        0.335336
0.772                  -0.478672         0.33857
0.774                  -0.475271        0.341769
0.776                  -0.471852        0.344935
0.778                  -0.468416        0.348066
0.78                   -0.464964        0.351163
0.782                  -0.461495        0.354226
0.784                  -0.458011        0.357255
0.786                  -0.454511         0.36025
0.788                  -0.450996        0.363211
0.79                   -0.447465        0.366138
0.792                   -0.44392        0.369031
0.794                  -0.440361         0.37189
0.796                  -0.436788        0.374715
0.798                  -0.433201        0.377506
0.8                    -0.429601        0.380262
0.802                  -0.425988        0.382985
0.804                  -0.422362        0.385674
0.806                  -0.418723        0.388329
0.808                  -0.415073        0.390951
0.81                   -0.411411        0.393538
0.812                  -0.407737        0.396092
0.814                  -0.404052        0.398612
0.816                  -0.400356        0.401098
0.818                  -0.396649        0.403551
0.82                   -0.392932         0.40597
0.822                  -0.389205        0.408355
0.824                  -0.385469        0.410708
0.826                  -0.381722        0.413027
0.828                  -0.377967        0.415312
0.83                   -0.374202        0.417564
0.832                   -0.37043        0.419783
0.834                  -0.366648        0.421969
0.836                  -0.362859        0.424122
0.838                  -0.359061        0.426242
0.84                   -0.355256        0.428329
0.842                  -0.351444        0.430383
0.844                  -0.347625        0.432405
0.846                  -0.343798        0.434394
0.848                  -0.339966         0.43635
0.85                   -0.336127        0.438274
0.852                  -0.332282        0.440165
0.854                   -0.32843        0.442024
0.856                  -0.324574        0.443851
0.858                  -0.320712        0.445645
0.86                   -0.316845        0.447408
0.862                  -0.312973        0.449139
0.864                  -0.309096        0.450837
0.866                  -0.305215        0.452504
0.868                  -0.301329        0.454139
0.87                    -0.29744        0.455743
0.872                  -0.293546        0.457315
0.874                   -0.28965        0.458856
0.876                  -0.285749        0.460365
0.878                  -0.281846        0.461843
0.88                   -0.277939         0.46329
0.882                   -0.27403        0.464706
0.884                  -0.270118        0.466091
0.886                  -0.266204        0.467446
0.888                  -0.262288        0.468769
0.89                   -0.258369        0.470062
0.892                  -0.254449        0.471324
0.894                  -0.250527        0.472556
0.896                  -0.246604        0.473757
0.898                  -0.242679        0.474928
0.9                    -0.238753        0.476069
0.902                  -0.234827         0.47718
0.904                  -0.230899        0.478261
0.906                  -0.226971        0.479312
0.908                  -0.223043        0.480333
0.91                   -0.219114        0.481325
0.912                  -0.215185        0.482287
0.914                  -0.211257        0.483219
0.916                  -0.207328        0.484122
0.918                  -0.203401        0.484995
0.92                   -0.199473         0.48584
0.922                  -0.195546        0.486655
0.924                   -0.19162        0.487441
0.926                  -0.187696        0.488198
0.928                  -0.183772        0.488926
0.93                   -0.179849        0.489625
0.932                  -0.175929        0.490295
0.934                  -0.172009        0.490937
0.936                  -0.168092         0.49155
0.938                  -0.164176        0.492135
0.94                   -0.160263        0.492691
0.942                  -0.156351        0.493219
0.944                  -0.152442        0.493719
0.946                  -0.148536         0.49419
0.948                  -0.144632        0.494633
0.95                    -0.14073        0.495049
0.952                  -0.136832        0.495436
0.954                  -0.132937        0.495795
0.956                  -0.129045        0.496127
0.958                  -0.125156         0.49643
0.96                    -0.12127        0.496706
0.962                  -0.117388        0.496955
0.964                   -0.11351        0.497176
0.966                  -0.109636        0.497369
0.968                  -0.105765        0.497535
0.97                   -0.101899        0.497673
0.972                 -0.0980367        0.497784
0.974                 -0.0941789        0.497868
0.976                 -0.0903257        0.497925
0.978                  -0.086477        0.497954
0.98                  -0.0826332        0.497957
0.982                 -0.0787943        0.497932
0.984                 -0.0749604         0.49788
0.986                 -0.0711317        0.497802
0.988                 -0.0673081        0.497697
0.99                  -0.0634903        0.497564
0.992                 -0.0596779        0.497405
0.994                 -0.0558711         0.49722
0.996                 -0.0520704        0.497008
0.998                 -0.0482754        0.496769
1                     -0.0444868        0.496503
1.002                 -0.0407045        0.496211
1.004                 -0.0369284        0.495893
1.006                  -0.033159        0.495548
1.008                 -0.0293963        0.495177
1.01                  -0.0256403         0.49478
1.012                 -0.0218914        0.494357
1.014                 -0.0181498        0.493907
1.016                 -0.0144153        0.493431
1.018                 -0.0106882        0.492929
1.02                 -0.00696869        0.492401
1.022                -0.00325702        0.491847
1.024                 0.00044695        0.491267
1.026                  0.0041427        0.490662
1.028                 0.00783043         0.49003
1.03                   0.0115097        0.489373
1.032                  0.0151805         0.48869
1.034                  0.0188428        0.487981
1.036                  0.0224961        0.487247
1.038                  0.0261406        0.486487
1.04                   0.0297759        0.485701
1.042                  0.0334019        0.484891
1.044                  0.0370186        0.484054
1.046                  0.0406256        0.483193
1.048                  0.0442227        0.482306
1.05                   0.0478102        0.481394
1.052                  0.0513873        0.480457
1.054                  0.0549542        0.479495
1.056                  0.0585108        0.478508
1.058                  0.0620568        0.477495
1.06                   0.0655918        0.476459
1.062                  0.0691162        0.475397
1.064                  0.0726293         0.47431
1.066                  0.0761311        0.473199
1.068                  0.0796216        0.472063
1.07                   0.0831002        0.470903
1.072                  0.0865674        0.469718
1.074                  0.0900224        0.468509
1.076                  0.0934652        0.467276
1.078                  0.0968957        0.466018
1.08                    0.100314        0.464736
1.082                   0.103719        0.463431
1.084                   0.107112        0.462101
1.086                   0.110491        0.460748
1.088                   0.113857        0.459371
1.09                     0.11721         0.45797
1.092                    0.12055        0.456545
1.094                   0.123875        0.455098
1.096                   0.127187        0.453626
1.098                   0.130484        0.452132
1.1                     0.133768        0.450614
1.102                   0.137036        0.449074
1.104                   0.140291         0.44751
1.106                    0.14353        0.445924
1.108                   0.146754        0.444315
1.11                    0.149964        0.442684
1.112                   0.153157         0.44103
1.114                   0.156336        0.439354
1.116                   0.159498        0.437655
1.118                   0.162645        0.435935
1.12                    0.165776        0.434193
1.122                    0.16889        0.432429
1.124                   0.171988        0.430643
1.126                    0.17507        0.428836
1.128                   0.178134        0.427007
1.13                    0.181182        0.425157
1.132                   0.184213        0.423287
1.134                   0.187227        0.421395
1.136                   0.190223        0.419482
1.138                   0.193201        0.417549
1.14                    0.196162        0.415596
1.142                   0.199105        0.413622
1.144                    0.20203        0.411628
1.146                   0.204936        0.409614
1.148                   0.207825        0.407581
1.15                    0.210694        0.405527
1.152                   0.213545        0.403455
1.154                   0.216378        0.401363
1.156                   0.219191        0.399252
1.158                   0.221985        0.397122
1.16                     0.22476        0.394973
1.162                   0.227515        0.392806
1.164                   0.230251        0.390621
1.166                   0.232967        0.388417
1.168                   0.235663        0.386196
1.17                     0.23834        0.383956
1.172                   0.240996        0.381699
1.174                   0.243632        0.379425
1.176                   0.246248        0.377134
1.178                   0.248843        0.374825
1.18                    0.251417          0.3725
1.182                   0.253971        0.370158
1.184                   0.256505          0.3678
1.186                   0.259017        0.365426
1.188                   0.261508        0.363035
1.19                    0.263978        0.360629
1.192                   0.266427        0.358208
1.194                   0.268854        0.355771
1.196                   0.271261        0.353319
1.198                   0.273645        0.350852
1.2                     0.276008        0.348371
1.202                   0.278349        0.345875
1.204                   0.280669        0.343364
1.206                   0.282966         0.34084
1.208                   0.285242        0.338302
1.21                    0.287496         0.33575
1.212                   0.289727        0.333185
1.214                   0.291937        0.330607
1.216                   0.294124        0.328016
1.218                   0.296289        0.325412
1.22                    0.298432        0.322796
1.222                   0.300552        0.320167
1.224                    0.30265        0.317527
1.226                   0.304725        0.314874
1.228                   0.306778         0.31221
1.23                    0.308809        0.309534
1.232                   0.310817        0.306848
1.234                   0.312802         0.30415
1.236                   0.314764        0.301442
1.238                   0.316704        0.298723
1.24                    0.318621        0.295994
1.242                   0.320516        0.293254
1.244                   0.322387        0.290505
1.246                   0.324236        0.287746
1.248                   0.326062        0.284978
1.25                    0.327866        0.282201
1.252                   0.329647        0.279414
1.254                   0.331404        0.276619
1.256                    0.33314        0.273815
1.258                   0.334852        0.271003
1.26                    0.336541        0.268182
1.262                   0.338208        0.265354
1.264                   0.339852        0.262517
1.266                   0.341474        0.259673
1.268                   0.343072        0.256822
1.27                    0.344648        0.253964
1.272                   0.346201        0.251098
1.274                   0.347732        0.248226
1.276                    0.34924        0.245347
1.278                   0.350726        0.242462
1.28                    0.352189         0.23957
1.282                   0.353629        0.236673
1.284                   0.355047        0.233769
1.286                   0.356442         0.23086
1.288                   0.357815        0.227946
1.29                    0.359166        0.225026
1.292                   0.360494        0.222101
1.294                     0.3618        0.219171
1.296                   0.363084        0.216236
1.298                   0.364346        0.213296
1.3                     0.365585        0.210352
1.302                   0.366803        0.207404
1.304                   0.367998        0.204451
1.306                   0.369171        0.201495
1.308                   0.370323        0.198535
1.31                    0.371452        0.195571
1.312                    0.37256        0.192603
1.314                   0.373646        0.189632
1.316                   0.374711        0.186658
1.318                   0.375753        0.183681
1.32                    0.376774        0.180701
1.322                   0.377774        0.177717
1.324                   0.378752        0.174732
1.326                   0.379709        0.171743
1.328                   0.380644        0.168753
1.33                    0.381558         0.16576
1.332                   0.382451        0.162764
1.334                   0.383323        0.159767
1.336                   0.384174        0.156768
1.338                   0.385003        0.153767
1.34                    0.385812        0.150764
1.342                     0.3866         0.14776
1.344                   0.387367        0.144754
1.346                   0.388113        0.141747
1.348                   0.388838        0.138739
1.35                    0.389543        0.135729
1.352                   0.390227        0.132718
1.354                    0.39089        0.129707
1.356                   0.391533        0.126694
1.358                   0.392156        0.123681
1.36                    0.392758        0.120667
1.362                    0.39334        0.117653
1.364                   0.393901        0.114638
1.366                   0.394443        0.111623
1.368                   0.394964        0.108607
1.37                    0.395465        0.105591
1.372                   0.395946        0.102576
1.374                   0.396407       0.0995596
1.376                   0.396847       0.0965437
1.378                   0.397268       0.0935279
1.38                    0.397669       0.0905123
1.382                    0.39805        0.087497
1.384                   0.398412       0.0844821
1.386                   0.398753       0.0814676
1.388                   0.399075       0.0784535
1.39                    0.399377       0.0754401
1.392                   0.399659       0.0724273
1.394                   0.399922       0.0694153
1.396                   0.400165       0.0664041
1.398                   0.400388       0.0633937
1.4                     0.400592       0.0603843
1.402                   0.400776       0.0573759
1.404                   0.400941       0.0543686
1.406                   0.401086       0.0513625
1.408                   0.401212       0.0483576
1.41                    0.401319        0.045354
1.412                   0.401405       0.0423518
1.414                   0.401473       0.0393511
1.416                   0.401521       0.0363518
1.418                    0.40155       0.0333542
1.42                    0.401559       0.0303582
1.422                   0.401549        0.027364
1.424                   0.401519       0.0243716
1.426                    0.40147       0.0213811
1.428                   0.401402       0.0183925
1.43                    0.401314        0.015406
1.432                   0.401207       0.0124216
1.434                   0.401081      0.00943938
1.436                   0.400935      0.00645945
1.438                    0.40077      0.00348188
1.44                    0.400585     0.000506745
1.442                   0.400382     -0.00246587
1.444                   0.400158     -0.00543588
1.446                   0.399916      -0.0084032
1.448                   0.399654      -0.0113677
1.45                    0.399372      -0.0143294
1.452                   0.399071      -0.0172881
1.454                   0.398751      -0.0202438
1.456                   0.398411      -0.0231964
1.458                   0.398052      -0.0261457
1.46                    0.397673      -0.0290916
1.462                   0.397275      -0.0320342
1.464                   0.396857      -0.0349732
1.466                    0.39642      -0.0379085
1.468                   0.395963      -0.0408402
1.47                    0.395487      -0.0437679
1.472                   0.394991      -0.0466918
1.474                   0.394476      -0.0496115
1.476                   0.393941      -0.0525271
1.478                   0.393387      -0.0554384
1.48                    0.392812      -0.0583453
1.482                   0.392219      -0.0612476
1.484                   0.391605      -0.0641453
1.486                   0.390972      -0.0670382
1.488                   0.390319      -0.0699262
1.49                    0.389647      -0.0728092
1.492                   0.388955       -0.075687
1.494                   0.388243      -0.0785595
1.496                   0.387512      -0.0814266
1.498                    0.38676      -0.0842882
1.5                     0.385989       -0.087144
1.502                   0.385199       -0.089994
1.504                   0.384388       -0.092838
1.506                   0.383558      -0.0956758
1.508                   0.382708      -0.0985074
1.51                    0.381839       -0.101333
1.512                   0.380949       -0.104151
1.514                    0.38004       -0.106963
1.516                   0.379111       -0.109768
1.518                   0.378163       -0.112566
1.52                    0.377194       -0.115356
1.522                   0.376206        -0.11814
1.524                   0.375199       -0.120915
1.526                   0.374171       -0.123683
1.528                   0.373124       -0.126444
1.53                    0.372058       -0.129196
1.532                   0.370971        -0.13194
1.534                   0.369865       -0.134675
1.536                    0.36874       -0.137402
1.538                   0.367595        -0.14012
1.54                     0.36643        -0.14283
1.542                   0.365247        -0.14553
1.544                   0.364043       -0.148221
1.546                   0.362821       -0.150903
1.548                   0.361578       -0.153574
1.55                    0.360317       -0.156237
1.552                   0.359037       -0.158889
1.554                   0.357737       -0.161531
1.556                   0.356418       -0.164162
1.558                    0.35508       -0.166784
1.56                    0.353723       -0.169394
1.562                   0.352347       -0.171993
1.564                   0.350953       -0.174582
1.566                   0.349539       -0.177159
1.568                   0.348107       -0.179725
1.57                    0.346656       -0.182279
1.572                   0.345187       -0.184821
1.574                   0.343699       -0.187351
1.576                   0.342193       -0.189869
1.578                   0.340669       -0.192375
1.58                    0.339126       -0.194868
1.582                   0.337566       -0.197348
1.584                   0.335987       -0.199815
1.586                   0.334391        -0.20227
1.588                   0.332777       -0.204711
1.59                    0.331146       -0.207138
1.592                   0.329497       -0.209552
1.594                    0.32783       -0.211952
1.596                   0.326147       -0.214338
1.598                   0.324446        -0.21671
1.6                     0.322728       -0.219067
1.602                   0.320994        -0.22141
1.604                   0.319243       -0.223739
1.606                   0.317475       -0.226052
1.608                   0.315691       -0.228351
1.61                    0.313891       -0.230634
1.612                   0.312075       -0.232902
1.614                   0.310243       -0.235155
1.616                   0.308395       -0.237392
1.618                   0.306531       -0.239613
1.62                    0.304653       -0.241818
1.622                   0.302759       -0.244007
1.624                   0.300849        -0.24618
1.626                   0.298925       -0.248337
1.628                   0.296987       -0.250477
1.63                    0.295034         -0.2526
1.632                   0.293066       -0.254707
1.634                   0.291084       -0.256797
1.636                   0.289089        -0.25887
1.638                    0.28708       -0.260925
1.64                    0.285057       -0.262964
1.642                    0.28302       -0.264985
1.644                   0.280971       -0.266988
1.646                   0.278909       -0.268974
1.648                   0.276833       -0.270943
1.65                    0.274746       -0.272893
1.652                   0.272646       -0.274826
1.654                   0.270533       -0.276741
1.656                   0.268409       -0.278638
1.658                   0.266273       -0.280516
1.66                    0.264126       -0.282377
1.662                   0.261967       -0.284219
1.664                   0.259797       -0.286043
1.666                   0.257616       -0.287848
1.668                   0.255425       -0.289635
1.67                    0.253223       -0.291404
1.672                   0.251011       -0.293153
1.674                   0.248789       -0.294885
1.676                   0.246557       -0.296597
1.678                   0.244315       -0.298291
1.68                    0.242065       -0.299966
1.682                   0.239804       -0.301623
1.684                   0.237535        -0.30326
1.686                   0.235258       -0.304879
1.688                   0.232971       -0.306479
1.69                    0.230677        -0.30806
1.692                   0.228374       -0.309622
1.694                   0.226064       -0.311166
1.696                   0.223745        -0.31269
1.698                   0.221419       -0.314196
1.7                     0.219086       -0.315683
1.702                   0.216746       -0.317151
1.704                     0.2144         -0.3186
1.706                   0.212046       -0.320031
1.708                   0.209686       -0.321442
1.71                     0.20732       -0.322835
1.712                   0.204947       -0.324209
1.714                   0.202569       -0.325565
1.716                   0.200185       -0.326901
1.718                   0.197796        -0.32822
1.72                    0.195401       -0.329519
1.722                   0.193001       -0.330801
1.724                   0.190597       -0.332063
1.726                   0.188187       -0.333308
1.728                   0.185773       -0.334534
1.73                    0.183355       -0.335741
1.732                   0.180932       -0.336931
1.734                   0.178505       -0.338102
1.736                   0.176074       -0.339255
1.738                    0.17364        -0.34039
1.74                    0.171202       -0.341508
1.742                   0.168761       -0.342607
1.744                   0.166316       -0.343689
1.746                   0.163868       -0.344752
1.748                   0.161417       -0.345799
1.75                    0.158963       -0.346827
1.752                   0.156507       -0.347839
1.754                   0.154048       -0.348833
1.756                   0.151586       -0.349809
1.758                   0.149123       -0.350769
1.76                    0.146657       -0.351711
1.762                   0.144189       -0.352636
1.764                   0.141718       -0.353545
1.766                   0.139246       -0.354437
1.768                   0.136772       -0.355311
1.77                    0.134297        -0.35617
1.772                    0.13182       -0.357012
1.774                   0.129341       -0.357837
1.776                   0.126861       -0.358646
1.778                    0.12438       -0.359439
1.78                    0.121897       -0.360215
1.782                   0.119414       -0.360976
1.784                   0.116929       -0.361721
1.786                   0.114443       -0.362449
1.788                   0.111957       -0.363162
1.79                    0.109469        -0.36386
1.792                    0.10698       -0.364542
1.794                   0.104491       -0.365208
1.796                   0.102001       -0.365859
1.798                  0.0995106       -0.366495
1.8                    0.0970193       -0.367115
1.802                  0.0945274        -0.36772
1.804                  0.0920349       -0.368311
1.806                  0.0895418       -0.368886
1.808                  0.0870484       -0.369446
1.81                   0.0845543       -0.369992
1.812                    0.08206       -0.370523
1.814                  0.0795651       -0.371039
1.816                  0.0770698       -0.371541
1.818                   0.074574       -0.372028
1.82                   0.0720779         -0.3725
1.822                  0.0695815       -0.372959
1.824                  0.0670847       -0.373403
1.826                  0.0645875       -0.373832
1.828                  0.0620899       -0.374248
1.83                    0.059592       -0.374649
1.832                  0.0570936       -0.375036
1.834                  0.0545948       -0.375409
1.836                  0.0520958       -0.375768
1.838                  0.0495963       -0.376114
1.84                   0.0470965       -0.376445
1.842                  0.0445962       -0.376762
1.844                  0.0420954       -0.377065
1.846                  0.0395944       -0.377355
1.848                  0.0370928        -0.37763
1.85                   0.0345908       -0.377892
1.852                  0.0320882        -0.37814
1.854                  0.0295852       -0.378374
1.856                  0.0270817       -0.378594
1.858                  0.0245777       -0.378801
1.86                   0.0220731       -0.378994
1.862                  0.0195679       -0.379172
1.864                  0.0170622       -0.379337
1.866                  0.0145559       -0.379489
1.868                   0.012049       -0.379626
1.87                  0.00954141        -0.37975
1.872                 0.00703325       -0.379859
1.874                 0.00452453       -0.379955
1.876                 0.00201495       -0.380037
1.878               -0.000495161       -0.380104
1.88                 -0.00300603       -0.380158
1.882                 -0.0055175       -0.380197
1.884                -0.00802969       -0.380223
1.886                 -0.0105426       -0.380234
1.888                 -0.0130562       -0.380231
1.89                  -0.0155705       -0.380214
1.892                 -0.0180854       -0.380182
1.894                 -0.0206012       -0.380136
1.896                 -0.0231175       -0.380076
1.898                 -0.0256345       -0.380001
1.9                   -0.0281523       -0.379911
1.902                 -0.0306706       -0.379807
1.904                 -0.0331895       -0.379688
1.906                 -0.0357091       -0.379554
1.908                 -0.0382292       -0.379405
1.91                  -0.0407498       -0.379241
1.912                  -0.043271       -0.379061
1.914                 -0.0457926       -0.378867
1.916                 -0.0483148       -0.378657
1.918                 -0.0508373       -0.378432
1.92                  -0.0533602       -0.378192
1.922                 -0.0558832       -0.377936
1.924                 -0.0584066       -0.377664
1.926                 -0.0609301       -0.377376
1.928                 -0.0634537       -0.377073
1.93                  -0.0659774       -0.376753
1.932                  -0.068501       -0.376418
1.934                 -0.0710245       -0.376066
1.936                 -0.0735478       -0.375697
1.938                  -0.076071       -0.375313
1.94                  -0.0785935       -0.374912
1.942                 -0.0811157       -0.374494
1.944                 -0.0836374       -0.374059
1.946                 -0.0861583       -0.373608
1.948                 -0.0886784       -0.373139
1.95                  -0.0911976       -0.372654
1.952                 -0.0937159       -0.372151
1.954                 -0.0962328       -0.371631
1.956                 -0.0987487       -0.371094
1.958                  -0.101263       -0.370539
1.96                   -0.103776       -0.369967
1.962                  -0.106287       -0.369377
1.964                  -0.108796       -0.368769
1.966                  -0.111303       -0.368143
1.968                  -0.113808       -0.367499
1.97                   -0.116311       -0.366838
1.972                  -0.118811       -0.366158
1.974                  -0.121308       -0.365459
1.976                  -0.123803       -0.364743
1.978                  -0.126295       -0.364008
1.98                   -0.128783       -0.363255
1.982                  -0.131268       -0.362483
1.984                  -0.133749       -0.361692
1.986                  -0.136227       -0.360883
1.988                    -0.1387       -0.360055
1.99                   -0.141169       -0.359208
1.992                  -0.143634       -0.358342
1.994                  -0.146094       -0.357457
1.996                   -0.14855       -0.356554
1.998                     -0.151       -0.355631
2                      -0.153445        -0.35469
