! TOUCHSTONE file generated by CST MICROWAVE STUDIO
! Date and time: Tue Jul 28 21:58:49 2026
! Project name: Sonda-Coaxial_21mm_DisifixB_v2.cst
! Parameters = {h_recipiente=5; l_conector=50; r_arandela=35; r_ext=10.5; r_int=3; r_recipiente=100; z_recipiente=-30}
! Header version: 2018
! Port assignment regex: !\s*Touchstone port\s*([0-9]+)\s*=\s*(CST MWS port|CST DS port)\s*([0-9]+|Zmin|Zmax)\s*\(\"(.*)\"\)(\s*mode\s*([0-9]+))?.*
! Touchstone port assignment:
! Touchstone port 1 = CST MWS port 1 ("")
# GHz S RI R 50
0                       0.998401               0
0.002                   0.998323      -0.0118374
0.004                   0.998089      -0.0236723
0.006                   0.997699      -0.0355025
0.008                   0.997154      -0.0473254
0.01                    0.996453      -0.0591387
0.012                   0.995596      -0.0709399
0.014                   0.994585      -0.0827268
0.016                   0.993418      -0.0944968
0.018                   0.992097       -0.106248
0.02                    0.990622       -0.117977
0.022                   0.988993       -0.129682
0.024                   0.987211       -0.141361
0.026                   0.985276       -0.153012
0.028                   0.983188       -0.164631
0.03                    0.980949       -0.176217
0.032                   0.978559       -0.187768
0.034                   0.976019       -0.199281
0.036                   0.973329       -0.210753
0.038                    0.97049       -0.222183
0.04                    0.967503       -0.233569
0.042                   0.964369       -0.244907
0.044                   0.961088       -0.256196
0.046                   0.957662       -0.267434
0.048                   0.954091       -0.278619
0.05                    0.950377       -0.289748
0.052                    0.94652       -0.300819
0.054                   0.942522        -0.31183
0.056                   0.938383       -0.322779
0.058                   0.934105       -0.333664
0.06                    0.929689       -0.344483
0.062                   0.925136       -0.355233
0.064                   0.920448       -0.365914
0.066                   0.915625       -0.376523
0.068                   0.910669       -0.387057
0.07                    0.905582       -0.397516
0.072                   0.900364       -0.407897
0.074                   0.895017       -0.418198
0.076                   0.889543       -0.428418
0.078                   0.883942       -0.438555
0.08                    0.878217       -0.448606
0.082                    0.87237       -0.458571
0.084                     0.8664       -0.468447
0.086                   0.860311       -0.478233
0.088                   0.854103       -0.487928
0.09                    0.847779       -0.497529
0.092                   0.841339       -0.507035
0.094                   0.834787       -0.516445
0.096                   0.828122       -0.525756
0.098                   0.821348       -0.534969
0.1                     0.814465        -0.54408
0.102                   0.807476       -0.553089
0.104                   0.800382       -0.561995
0.106                   0.793185       -0.570796
0.108                   0.785887        -0.57949
0.11                     0.77849       -0.588077
0.112                   0.770995       -0.596555
0.114                   0.763405       -0.604923
0.116                   0.755721       -0.613181
0.118                   0.747945       -0.621326
0.12                     0.74008       -0.629358
0.122                   0.732126       -0.637276
0.124                   0.724086       -0.645079
0.126                   0.715962       -0.652765
0.128                   0.707756       -0.660334
0.13                     0.69947       -0.667786
0.132                   0.691106       -0.675118
0.134                   0.682665       -0.682331
0.136                    0.67415       -0.689424
0.138                   0.665562       -0.696395
0.14                    0.656904       -0.703244
0.142                   0.648178       -0.709972
0.144                   0.639386       -0.716575
0.146                   0.630529       -0.723056
0.148                    0.62161       -0.729412
0.15                     0.61263       -0.735643
0.152                   0.603592       -0.741749
0.154                   0.594497        -0.74773
0.156                   0.585349       -0.753584
0.158                   0.576147       -0.759312
0.16                    0.566896       -0.764913
0.162                   0.557596       -0.770387
0.164                    0.54825       -0.775734
0.166                   0.538859       -0.780953
0.168                   0.529425       -0.786045
0.17                    0.519952       -0.791009
0.172                   0.510439       -0.795845
0.174                   0.500891       -0.800552
0.176                   0.491307       -0.805132
0.178                   0.481691       -0.809583
0.18                    0.472044       -0.813907
0.182                   0.462368       -0.818102
0.184                   0.452665       -0.822169
0.186                   0.442937       -0.826108
0.188                   0.433187        -0.82992
0.19                    0.423414       -0.833604
0.192                   0.413623        -0.83716
0.194                   0.403813        -0.84059
0.196                   0.393989       -0.843892
0.198                    0.38415       -0.847068
0.2                     0.374299       -0.850117
0.202                   0.364437       -0.853041
0.204                   0.354568       -0.855839
0.206                   0.344691       -0.858512
0.208                   0.334809        -0.86106
0.21                    0.324925       -0.863484
0.212                   0.315038       -0.865784
0.214                   0.305152        -0.86796
0.216                   0.295267       -0.870014
0.218                   0.285386       -0.871946
0.22                     0.27551       -0.873756
0.222                    0.26564       -0.875444
0.224                   0.255778       -0.877013
0.226                   0.245927       -0.878461
0.228                   0.236087       -0.879791
0.23                     0.22626       -0.881002
0.232                   0.216447       -0.882095
0.234                   0.206651       -0.883071
0.236                   0.196871       -0.883931
0.238                   0.187111       -0.884675
0.24                    0.177371       -0.885305
0.242                   0.167652        -0.88582
0.244                   0.157957       -0.886223
0.246                   0.148286       -0.886513
0.248                   0.138641       -0.886692
0.25                    0.129024        -0.88676
0.252                   0.119434       -0.886718
0.254                   0.109875       -0.886568
0.256                   0.100346       -0.886309
0.258                    0.09085       -0.885944
0.26                   0.0813872       -0.885472
0.262                   0.071959       -0.884895
0.264                  0.0625667       -0.884215
0.266                  0.0532113        -0.88343
0.268                  0.0438939       -0.882544
0.27                   0.0346159       -0.881557
0.272                  0.0253778       -0.880469
0.274                  0.0161817       -0.879282
0.276                 0.00702732       -0.877996
0.278                -0.00208337       -0.876614
0.28                  -0.0111499       -0.875135
0.282                 -0.0201712       -0.873561
0.284                 -0.0291461       -0.871893
0.286                 -0.0380732       -0.870132
0.288                 -0.0469533       -0.868279
0.29                  -0.0557834       -0.866336
0.292                 -0.0645645       -0.864302
0.294                 -0.0732948       -0.862179
0.296                 -0.0819735       -0.859969
0.298                 -0.0905999       -0.857672
0.3                   -0.0991733        -0.85529
0.302                  -0.107693       -0.852823
0.304                  -0.116158       -0.850272
0.306                  -0.124569        -0.84764
0.308                  -0.132923       -0.844926
0.31                    -0.14122       -0.842132
0.312                  -0.149461       -0.839259
0.314                  -0.157643       -0.836309
0.316                  -0.165768       -0.833281
0.318                  -0.173833       -0.830178
0.32                   -0.181839          -0.827
0.322                  -0.189785       -0.823748
0.324                   -0.19767       -0.820424
0.326                  -0.205494       -0.817029
0.328                  -0.213257       -0.813563
0.33                   -0.220957       -0.810028
0.332                  -0.228595       -0.806425
0.334                   -0.23617       -0.802755
0.336                  -0.243682       -0.799019
0.338                   -0.25113       -0.795219
0.34                   -0.258514       -0.791354
0.342                  -0.265834       -0.787427
0.344                  -0.273089       -0.783437
0.346                  -0.280278       -0.779388
0.348                  -0.287403       -0.775278
0.35                   -0.294461        -0.77111
0.352                  -0.301454       -0.766885
0.354                  -0.308381       -0.762603
0.356                  -0.315241       -0.758266
0.358                  -0.322034       -0.753874
0.36                    -0.32876       -0.749429
0.362                   -0.33542       -0.744931
0.364                  -0.342012       -0.740382
0.366                  -0.348536       -0.735783
0.368                  -0.354993       -0.731134
0.37                   -0.361383       -0.726437
0.372                  -0.367704       -0.721692
0.374                  -0.373957       -0.716901
0.376                  -0.380143       -0.712064
0.378                   -0.38626       -0.707183
0.38                   -0.392309       -0.702258
0.382                   -0.39829       -0.697291
0.384                  -0.404202       -0.692282
0.386                  -0.410045       -0.687231
0.388                  -0.415821       -0.682142
0.39                   -0.421528       -0.677012
0.392                  -0.427166       -0.671845
0.394                  -0.432736       -0.666641
0.396                  -0.438238       -0.661401
0.398                  -0.443671       -0.656125
0.4                    -0.449036       -0.650814
0.402                  -0.454332       -0.645469
0.404                   -0.45956       -0.640092
0.406                  -0.464719       -0.634683
0.408                  -0.469811       -0.629242
0.41                   -0.474835       -0.623771
0.412                   -0.47979       -0.618271
0.414                  -0.484677       -0.612742
0.416                  -0.489497       -0.607184
0.418                  -0.494249         -0.6016
0.42                   -0.498933       -0.595989
0.422                   -0.50355       -0.590353
0.424                  -0.508099       -0.584692
0.426                  -0.512581       -0.579006
0.428                  -0.516996       -0.573297
0.43                   -0.521344       -0.567566
0.432                  -0.525625       -0.561813
0.434                   -0.52984       -0.556038
0.436                  -0.533988       -0.550244
0.438                   -0.53807       -0.544429
0.44                   -0.542085       -0.538595
0.442                  -0.546034       -0.532743
0.444                  -0.549918       -0.526873
0.446                  -0.553736       -0.520987
0.448                  -0.557488       -0.515083
0.45                   -0.561176       -0.509164
0.452                  -0.564798        -0.50323
0.454                  -0.568355       -0.497282
0.456                  -0.571848        -0.49132
0.458                  -0.575277       -0.485345
0.46                   -0.578641       -0.479357
0.462                  -0.581941       -0.473357
0.464                  -0.585177       -0.467346
0.466                   -0.58835       -0.461324
0.468                  -0.591459       -0.455292
0.47                   -0.594505       -0.449251
0.472                  -0.597489         -0.4432
0.474                  -0.600409       -0.437141
0.476                  -0.603267       -0.431075
0.478                  -0.606063       -0.425001
0.48                   -0.608797        -0.41892
0.482                  -0.611469       -0.412833
0.484                   -0.61408        -0.40674
0.486                  -0.616629       -0.400642
0.488                  -0.619117        -0.39454
0.49                   -0.621545       -0.388433
0.492                  -0.623912       -0.382323
0.494                  -0.626218        -0.37621
0.496                  -0.628465       -0.370094
0.498                  -0.630652       -0.363976
0.5                    -0.632779       -0.357856
0.502                  -0.634847       -0.351735
0.504                  -0.636856       -0.345614
0.506                  -0.638806       -0.339492
0.508                  -0.640697       -0.333371
0.51                    -0.64253        -0.32725
0.512                  -0.644305       -0.321131
0.514                  -0.646022       -0.315013
0.516                  -0.647682       -0.308897
0.518                  -0.649284       -0.302784
0.52                   -0.650829       -0.296674
0.522                  -0.652317       -0.290567
0.524                  -0.653749       -0.284464
0.526                  -0.655125       -0.278366
0.528                  -0.656444       -0.272272
0.53                   -0.657708       -0.266183
0.532                  -0.658916         -0.2601
0.534                  -0.660069       -0.254022
0.536                  -0.661167       -0.247951
0.538                   -0.66221       -0.241887
0.54                   -0.663199       -0.235829
0.542                  -0.664133        -0.22978
0.544                  -0.665014       -0.223738
0.546                   -0.66584       -0.217704
0.548                  -0.666614        -0.21168
0.55                   -0.667334       -0.205664
0.552                  -0.668001       -0.199658
0.554                  -0.668615       -0.193661
0.556                  -0.669177       -0.187675
0.558                  -0.669687       -0.181699
0.56                   -0.670145       -0.175734
0.562                  -0.670551       -0.169781
0.564                  -0.670906       -0.163839
0.566                   -0.67121       -0.157909
0.568                  -0.671463       -0.151991
0.57                   -0.671665       -0.146086
0.572                  -0.671817       -0.140194
0.574                  -0.671919       -0.134316
0.576                  -0.671971       -0.128451
0.578                  -0.671974       -0.122601
0.58                   -0.671927       -0.116764
0.582                  -0.671831       -0.110943
0.584                  -0.671687       -0.105137
0.586                  -0.671494      -0.0993459
0.588                  -0.671253      -0.0935708
0.59                   -0.670964      -0.0878117
0.592                  -0.670628      -0.0820689
0.594                  -0.670244       -0.076343
0.596                  -0.669813      -0.0706342
0.598                  -0.669335      -0.0649426
0.6                    -0.668811      -0.0592687
0.602                   -0.66824      -0.0536128
0.604                  -0.667624      -0.0479751
0.606                  -0.666962      -0.0423563
0.608                  -0.666254      -0.0367562
0.61                   -0.665501      -0.0311754
0.612                  -0.664703       -0.025614
0.614                  -0.663861      -0.0200724
0.616                  -0.662974      -0.0145512
0.618                  -0.662044     -0.00905025
0.62                   -0.661069     -0.00356979
0.622                  -0.660052      0.00188942
0.624                  -0.658991      0.00732736
0.626                  -0.657887       0.0127439
0.628                  -0.656741       0.0181385
0.63                   -0.655552        0.023511
0.632                  -0.654322       0.0288612
0.634                   -0.65305       0.0341885
0.636                  -0.651736       0.0394929
0.638                  -0.650381       0.0447742
0.64                   -0.648986        0.050032
0.642                   -0.64755       0.0552659
0.644                  -0.646074       0.0604758
0.646                  -0.644558       0.0656616
0.648                  -0.643003       0.0708228
0.65                   -0.641408       0.0759592
0.652                  -0.639775       0.0810706
0.654                  -0.638102       0.0861567
0.656                  -0.636392       0.0912171
0.658                  -0.634644        0.096252
0.66                   -0.632858        0.101261
0.662                  -0.631034        0.106243
0.664                  -0.629174        0.111199
0.666                  -0.627276        0.116129
0.668                  -0.625343        0.121031
0.67                   -0.623373        0.125906
0.672                  -0.621368        0.130754
0.674                  -0.619327        0.135574
0.676                  -0.617251        0.140366
0.678                  -0.615141         0.14513
0.68                   -0.612996        0.149866
0.682                  -0.610817        0.154574
0.684                  -0.608604        0.159253
0.686                  -0.606358        0.163903
0.688                  -0.604078        0.168524
0.69                   -0.601766        0.173115
0.692                  -0.599422        0.177678
0.694                  -0.597045         0.18221
0.696                  -0.594637        0.186713
0.698                  -0.592198        0.191186
0.7                    -0.589727        0.195629
0.702                  -0.587226        0.200041
0.704                  -0.584694        0.204423
0.706                  -0.582132        0.208774
0.708                  -0.579541        0.213095
0.71                    -0.57692        0.217384
0.712                  -0.574271        0.221642
0.714                  -0.571593        0.225869
0.716                  -0.568886        0.230065
0.718                  -0.566152        0.234229
0.72                    -0.56339        0.238361
0.722                  -0.560601        0.242462
0.724                  -0.557785         0.24653
0.726                  -0.554943        0.250567
0.728                  -0.552074        0.254571
0.73                    -0.54918        0.258543
0.732                   -0.54626        0.262482
0.734                  -0.543315        0.266389
0.736                  -0.540345        0.270263
0.738                  -0.537351        0.274105
0.74                   -0.534333        0.277913
0.742                  -0.531291        0.281689
0.744                  -0.528226        0.285432
0.746                  -0.525138        0.289142
0.748                  -0.522027        0.292818
0.75                   -0.518894        0.296461
0.752                  -0.515739        0.300071
0.754                  -0.512563        0.303647
0.756                  -0.509365         0.30719
0.758                  -0.506146          0.3107
0.76                   -0.502907        0.314175
0.762                  -0.499648        0.317618
0.764                  -0.496369        0.321026
0.766                   -0.49307        0.324401
0.768                  -0.489752        0.327742
0.77                   -0.486415        0.331049
0.772                   -0.48306        0.334322
0.774                  -0.479687        0.337561
0.776                  -0.476296        0.340767
0.778                  -0.472887        0.343939
0.78                   -0.469461        0.347076
0.782                  -0.466019         0.35018
0.784                   -0.46256         0.35325
0.786                  -0.459085        0.356285
0.788                  -0.455594        0.359287
0.79                   -0.452087        0.362255
0.792                  -0.448566        0.365189
0.794                  -0.445029        0.368089
0.796                  -0.441479        0.370954
0.798                  -0.437913        0.373786
0.8                    -0.434334        0.376584
0.802                  -0.430742        0.379349
0.804                  -0.427136        0.382079
0.806                  -0.423517        0.384775
0.808                  -0.419886        0.387438
0.81                   -0.416242        0.390067
0.812                  -0.412587        0.392661
0.814                  -0.408919        0.395223
0.816                   -0.40524         0.39775
0.818                   -0.40155        0.400244
0.82                   -0.397849        0.402705
0.822                  -0.394138        0.405131
0.824                  -0.390416        0.407525
0.826                  -0.386685        0.409885
0.828                  -0.382943        0.412211
0.83                   -0.379193        0.414504
0.832                  -0.375433        0.416764
0.834                  -0.371664        0.418991
0.836                  -0.367887        0.421184
0.838                  -0.364101        0.423345
0.84                   -0.360307        0.425472
0.842                  -0.356506        0.427567
0.844                  -0.352697        0.429628
0.846                  -0.348881        0.431657
0.848                  -0.345058        0.433653
0.85                   -0.341227        0.435617
0.852                  -0.337391        0.437548
0.854                  -0.333548        0.439446
0.856                  -0.329699        0.441312
0.858                  -0.325844        0.443146
0.86                   -0.321984        0.444947
0.862                  -0.318119        0.446717
0.864                  -0.314248        0.448454
0.866                  -0.310372        0.450159
0.868                  -0.306492        0.451833
0.87                   -0.302608        0.453474
0.872                  -0.298719        0.455084
0.874                  -0.294827        0.456662
0.876                   -0.29093        0.458209
0.878                   -0.28703        0.459724
0.88                   -0.283127        0.461208
0.882                   -0.27922        0.462661
0.884                  -0.275311        0.464082
0.886                  -0.271399        0.465473
0.888                  -0.267484        0.466832
0.89                   -0.263567         0.46816
0.892                  -0.259648        0.469458
0.894                  -0.255727        0.470725
0.896                  -0.251805        0.471961
0.898                   -0.24788        0.473167
0.9                    -0.243955        0.474342
0.902                  -0.240028        0.475487
0.904                    -0.2361        0.476602
0.906                  -0.232171        0.477687
0.908                  -0.228242        0.478741
0.91                   -0.224312        0.479766
0.912                  -0.220382         0.48076
0.914                  -0.216452        0.481725
0.916                  -0.212522         0.48266
0.918                  -0.208592        0.483565
0.92                   -0.204662        0.484441
0.922                  -0.200733        0.485288
0.924                  -0.196804        0.486105
0.926                  -0.192877        0.486892
0.928                   -0.18895        0.487651
0.93                   -0.185025         0.48838
0.932                    -0.1811        0.489081
0.934                  -0.177178        0.489752
0.936                  -0.173257        0.490395
0.938                  -0.169337        0.491008
0.94                    -0.16542        0.491593
0.942                  -0.161505         0.49215
0.944                  -0.157592        0.492678
0.946                  -0.153681        0.493177
0.948                  -0.149773        0.493648
0.95                   -0.145867         0.49409
0.952                  -0.141964        0.494505
0.954                  -0.138065        0.494891
0.956                  -0.134168        0.495249
0.958                  -0.130275        0.495579
0.96                   -0.126384        0.495881
0.962                  -0.122498        0.496155
0.964                  -0.118615        0.496401
0.966                  -0.114736         0.49662
0.968                  -0.110861        0.496811
0.97                    -0.10699        0.496974
0.972                  -0.103123         0.49711
0.974                 -0.0992602        0.497218
0.976                 -0.0954022        0.497298
0.978                 -0.0915488        0.497352
0.98                  -0.0877002        0.497378
0.982                 -0.0838565        0.497376
0.984                  -0.080018        0.497348
0.986                 -0.0761847        0.497292
0.988                 -0.0723566         0.49721
0.99                   -0.068534          0.4971
0.992                 -0.0647172        0.496963
0.994                  -0.060906          0.4968
0.996                 -0.0571008         0.49661
0.998                 -0.0533017        0.496392
1                     -0.0495087        0.496149
1.002                 -0.0457221        0.495878
1.004                  -0.041942        0.495581
1.006                 -0.0381686        0.495257
1.008                 -0.0344018        0.494907
1.01                  -0.0306421        0.494531
1.012                 -0.0268895        0.494128
1.014                  -0.023144        0.493699
1.016                 -0.0194059        0.493243
1.018                 -0.0156755        0.492761
1.02                  -0.0119526        0.492253
1.022                -0.00823748         0.49172
1.024                -0.00453053         0.49116
1.026               -0.000831682        0.490574
1.028                 0.00285901        0.489962
1.03                  0.00654126        0.489324
1.032                  0.0102148        0.488661
1.034                  0.0138796        0.487971
1.036                  0.0175355        0.487256
1.038                  0.0211823        0.486516
1.04                   0.0248199         0.48575
1.042                   0.028448        0.484958
1.044                  0.0320668        0.484141
1.046                  0.0356755        0.483299
1.048                  0.0392745        0.482432
1.05                   0.0428637        0.481539
1.052                  0.0464423        0.480621
1.054                  0.0500107        0.479678
1.056                  0.0535686         0.47871
1.058                  0.0571157        0.477717
1.06                    0.060652        0.476699
1.062                  0.0641773        0.475657
1.064                  0.0676913        0.474589
1.066                  0.0711939        0.473498
1.068                  0.0746849        0.472381
1.07                   0.0781644         0.47124
1.072                  0.0816318        0.470075
1.074                  0.0850872        0.468886
1.076                  0.0885304        0.467672
1.078                  0.0919611        0.466434
1.08                   0.0953792        0.465172
1.082                  0.0987847        0.463886
1.084                   0.102177        0.462577
1.086                   0.105557        0.461243
1.088                   0.108923        0.459886
1.09                    0.112275        0.458506
1.092                   0.115614        0.457102
1.094                   0.118939        0.455675
1.096                   0.122251        0.454224
1.098                   0.125548        0.452751
1.1                     0.128831        0.451254
1.102                   0.132099        0.449735
1.104                   0.135352        0.448192
1.106                   0.138591        0.446628
1.108                   0.141815         0.44504
1.11                    0.145024        0.443431
1.112                   0.148217        0.441799
1.114                   0.151394        0.440144
1.116                   0.154557        0.438468
1.118                   0.157703         0.43677
1.12                    0.160833        0.435051
1.122                   0.163947        0.433309
1.124                   0.167044        0.431546
1.126                   0.170125        0.429762
1.128                    0.17319        0.427957
1.13                    0.176237        0.426131
1.132                   0.179268        0.424284
1.134                   0.182281        0.422416
1.136                   0.185277        0.420527
1.138                   0.188255        0.418618
1.14                    0.191216        0.416689
1.142                   0.194159         0.41474
1.144                   0.197084        0.412771
1.146                   0.199991        0.410782
1.148                    0.20288        0.408774
1.15                     0.20575        0.406746
1.152                   0.208602        0.404699
1.154                   0.211435        0.402632
1.156                   0.214249        0.400547
1.158                   0.217044        0.398444
1.16                     0.21982        0.396321
1.162                   0.222577        0.394181
1.164                   0.225315        0.392022
1.166                   0.228033        0.389845
1.168                   0.230731        0.387651
1.17                     0.23341        0.385439
1.172                   0.236069        0.383209
1.174                   0.238707        0.380962
1.176                   0.241326        0.378698
1.178                   0.243924        0.376418
1.18                    0.246502        0.374121
1.182                    0.24906        0.371807
1.184                   0.251597        0.369477
1.186                   0.254113        0.367131
1.188                   0.256609         0.36477
1.19                    0.259084        0.362392
1.192                   0.261537            0.36
1.194                    0.26397        0.357592
1.196                   0.266382        0.355169
1.198                   0.268772        0.352731
1.2                     0.271141        0.350279
1.202                   0.273489        0.347812
1.204                   0.275815        0.345332
1.206                   0.278119        0.342837
1.208                   0.280403        0.340328
1.21                    0.282664        0.337806
1.212                   0.284903        0.335271
1.214                   0.287121        0.332723
1.216                   0.289317        0.330162
1.218                   0.291491        0.327588
1.22                    0.293643        0.325001
1.222                   0.295773        0.322403
1.224                   0.297881        0.319792
1.226                   0.299966        0.317169
1.228                    0.30203        0.314535
1.23                    0.304071         0.31189
1.232                    0.30609        0.309233
1.234                   0.308087        0.306566
1.236                   0.310062        0.303887
1.238                   0.312014        0.301198
1.24                    0.313944        0.298499
1.242                   0.315852        0.295789
1.244                   0.317737         0.29307
1.246                     0.3196        0.290341
1.248                    0.32144        0.287602
1.25                    0.323258        0.284854
1.252                   0.325054        0.282097
1.254                   0.326827        0.279331
1.256                   0.328578        0.276556
1.258                   0.330306        0.273773
1.26                    0.332012        0.270981
1.262                   0.333696        0.268182
1.264                   0.335357        0.265374
1.266                   0.336995        0.262558
1.268                   0.338612        0.259735
1.27                    0.340206        0.256905
1.272                   0.341777        0.254068
1.274                   0.343327        0.251223
1.276                   0.344854        0.248372
1.278                   0.346359        0.245514
1.28                    0.347842         0.24265
1.282                   0.349302        0.239779
1.284                    0.35074        0.236902
1.286                   0.352156        0.234019
1.288                    0.35355        0.231131
1.29                    0.354922        0.228237
1.292                   0.356272        0.225338
1.294                     0.3576        0.222433
1.296                   0.358906        0.219523
1.298                    0.36019        0.216609
1.3                     0.361452        0.213689
1.302                   0.362693        0.210765
1.304                   0.363911        0.207837
1.306                   0.365108        0.204904
1.308                   0.366283        0.201967
1.31                    0.367437        0.199026
1.312                   0.368569        0.196081
1.314                   0.369679        0.193133
1.316                   0.370768        0.190181
1.318                   0.371836        0.187225
1.32                    0.372882        0.184267
1.322                   0.373907        0.181305
1.324                    0.37491         0.17834
1.326                   0.375893        0.175372
1.328                   0.376854        0.172401
1.33                    0.377794        0.169427
1.332                   0.378713        0.166452
1.334                    0.37961        0.163473
1.336                   0.380487        0.160493
1.338                   0.381343         0.15751
1.34                    0.382179        0.154525
1.342                   0.382993        0.151538
1.344                   0.383786        0.148549
1.346                   0.384559        0.145559
1.348                   0.385312        0.142567
1.35                    0.386043        0.139573
1.352                   0.386754        0.136578
1.354                   0.387445        0.133582
1.356                   0.388115        0.130585
1.358                   0.388764        0.127586
1.36                    0.389393        0.124586
1.362                   0.390002        0.121586
1.364                   0.390591        0.118584
1.366                   0.391159        0.115582
1.368                   0.391708        0.112579
1.37                    0.392235        0.109576
1.372                   0.392743        0.106572
1.374                   0.393231        0.103568
1.376                   0.393699        0.100563
1.378                   0.394147       0.0975581
1.38                    0.394574       0.0945531
1.382                   0.394982       0.0915481
1.384                    0.39537       0.0885431
1.386                   0.395738       0.0855382
1.388                   0.396086       0.0825335
1.39                    0.396414        0.079529
1.392                   0.396723       0.0765249
1.394                   0.397011       0.0735213
1.396                    0.39728       0.0705181
1.398                    0.39753       0.0675155
1.4                     0.397759       0.0645136
1.402                   0.397969       0.0615124
1.404                   0.398159       0.0585121
1.406                   0.398329       0.0555126
1.408                    0.39848       0.0525141
1.41                    0.398611       0.0495167
1.412                   0.398723       0.0465204
1.414                   0.398814       0.0435253
1.416                   0.398887       0.0405316
1.418                   0.398939       0.0375391
1.42                    0.398973       0.0345482
1.422                   0.398986       0.0315588
1.424                    0.39898        0.028571
1.426                   0.398954       0.0255849
1.428                   0.398909       0.0226006
1.43                    0.398844       0.0196182
1.432                    0.39876       0.0166377
1.434                   0.398656       0.0136592
1.436                   0.398532       0.0106829
1.438                   0.398389      0.00770886
1.44                    0.398226      0.00473709
1.442                   0.398044      0.00176773
1.444                   0.397842     -0.00119913
1.446                    0.39762     -0.00416341
1.448                   0.397379       -0.007125
1.45                    0.397118      -0.0100838
1.452                   0.396837      -0.0130397
1.454                   0.396537      -0.0159926
1.456                   0.396217      -0.0189425
1.458                   0.395877      -0.0218891
1.46                    0.395518      -0.0248325
1.462                   0.395139      -0.0277724
1.464                   0.394741      -0.0307089
1.466                   0.394322      -0.0336417
1.468                   0.393884      -0.0365707
1.47                    0.393426      -0.0394959
1.472                   0.392949      -0.0424172
1.474                   0.392451      -0.0453343
1.476                   0.391934      -0.0482473
1.478                   0.391397      -0.0511559
1.48                    0.390841        -0.05406
1.482                   0.390264      -0.0569596
1.484                   0.389668      -0.0598544
1.486                   0.389051      -0.0627444
1.488                   0.388415      -0.0656294
1.49                     0.38776      -0.0685093
1.492                   0.387084      -0.0713839
1.494                   0.386388      -0.0742532
1.496                   0.385673      -0.0771169
1.498                   0.384938      -0.0799749
1.5                     0.384183      -0.0828272
1.502                   0.383408      -0.0856734
1.504                   0.382613      -0.0885136
1.506                   0.381798      -0.0913475
1.508                   0.380964      -0.0941749
1.51                     0.38011      -0.0969958
1.512                   0.379236        -0.09981
1.514                   0.378342       -0.102617
1.516                   0.377428       -0.105417
1.518                   0.376495        -0.10821
1.52                    0.375542       -0.110996
1.522                   0.374569       -0.113774
1.524                   0.373576       -0.116545
1.526                   0.372564       -0.119307
1.528                   0.371532       -0.122062
1.53                     0.37048       -0.124808
1.532                   0.369409       -0.127546
1.534                   0.368318       -0.130275
1.536                   0.367208       -0.132996
1.538                   0.366078       -0.135708
1.54                    0.364929       -0.138411
1.542                    0.36376       -0.141104
1.544                   0.362572       -0.143788
1.546                   0.361365       -0.146463
1.548                   0.360138       -0.149127
1.55                    0.358893       -0.151782
1.552                   0.357628       -0.154427
1.554                   0.356344       -0.157061
1.556                   0.355041       -0.159684
1.558                   0.353719       -0.162298
1.56                    0.352379         -0.1649
1.562                   0.351019       -0.167491
1.564                   0.349641       -0.170071
1.566                   0.348245        -0.17264
1.568                   0.346829       -0.175197
1.57                    0.345396       -0.177742
1.572                   0.343944       -0.180275
1.574                   0.342474       -0.182796
1.576                   0.340986       -0.185305
1.578                   0.339479       -0.187802
1.58                    0.337955       -0.190286
1.582                   0.336413       -0.192757
1.584                   0.334853       -0.195215
1.586                   0.333276       -0.197659
1.588                   0.331681       -0.200091
1.59                    0.330069       -0.202509
1.592                    0.32844       -0.204913
1.594                   0.326794       -0.207304
1.596                    0.32513        -0.20968
1.598                    0.32345       -0.212043
1.6                     0.321754       -0.214391
1.602                    0.32004       -0.216724
1.604                   0.318311       -0.219043
1.606                   0.316565       -0.221347
1.608                   0.314803       -0.223636
1.61                    0.313025        -0.22591
1.612                   0.311232       -0.228169
1.614                   0.309423       -0.230412
1.616                   0.307598        -0.23264
1.618                   0.305758       -0.234852
1.62                    0.303903       -0.237049
1.622                   0.302034       -0.239229
1.624                   0.300149       -0.241393
1.626                    0.29825       -0.243542
1.628                   0.296336       -0.245673
1.63                    0.294409       -0.247789
1.632                   0.292467       -0.249888
1.634                   0.290512        -0.25197
1.636                   0.288542       -0.254035
1.638                    0.28656       -0.256083
1.64                    0.284564       -0.258115
1.642                   0.282555       -0.260129
1.644                   0.280533       -0.262126
1.646                   0.278499       -0.264106
1.648                   0.276451       -0.266068
1.65                    0.274392       -0.268013
1.652                   0.272321        -0.26994
1.654                   0.270238        -0.27185
1.656                   0.268143       -0.273742
1.658                   0.266036       -0.275616
1.66                    0.263918       -0.277473
1.662                    0.26179       -0.279311
1.664                    0.25965       -0.281131
1.666                     0.2575       -0.282934
1.668                   0.255339       -0.284718
1.67                    0.253168       -0.286485
1.672                   0.250987       -0.288233
1.674                   0.248796       -0.289962
1.676                   0.246596       -0.291674
1.678                   0.244386       -0.293367
1.68                    0.242166       -0.295043
1.682                   0.239938       -0.296699
1.684                   0.237701       -0.298338
1.686                   0.235455       -0.299958
1.688                   0.233201       -0.301559
1.69                    0.230939       -0.303143
1.692                   0.228669       -0.304708
1.694                   0.226391       -0.306254
1.696                   0.224105       -0.307782
1.698                   0.221811       -0.309292
1.7                     0.219511       -0.310784
1.702                   0.217204       -0.312257
1.704                   0.214889       -0.313711
1.706                   0.212568       -0.315148
1.708                   0.210241       -0.316566
1.71                    0.207907       -0.317966
1.712                   0.205567       -0.319348
1.714                   0.203221       -0.320712
1.716                   0.200869       -0.322057
1.718                   0.198512       -0.323385
1.72                     0.19615       -0.324694
1.722                   0.193782       -0.325985
1.724                   0.191409       -0.327259
1.726                   0.189031       -0.328514
1.728                   0.186648       -0.329752
1.73                    0.184261       -0.330972
1.732                    0.18187       -0.332174
1.734                   0.179474       -0.333358
1.736                   0.177074       -0.334525
1.738                    0.17467       -0.335675
1.74                    0.172262       -0.336806
1.742                    0.16985       -0.337921
1.744                   0.167435       -0.339018
1.746                   0.165016       -0.340098
1.748                   0.162594       -0.341161
1.75                    0.160169       -0.342206
1.752                   0.157741       -0.343235
1.754                    0.15531       -0.344247
1.756                   0.152876       -0.345242
1.758                   0.150439        -0.34622
1.76                       0.148       -0.347181
1.762                   0.145558       -0.348126
1.764                   0.143114       -0.349054
1.766                   0.140667       -0.349966
1.768                   0.138218       -0.350861
1.77                    0.135767        -0.35174
1.772                   0.133314       -0.352603
1.774                    0.13086        -0.35345
1.776                   0.128403       -0.354281
1.778                   0.125944       -0.355096
1.78                    0.123484       -0.355895
1.782                   0.121022       -0.356678
1.784                   0.118558       -0.357446
1.786                   0.116093       -0.358197
1.788                   0.113626       -0.358934
1.79                    0.111158       -0.359655
1.792                   0.108689        -0.36036
1.794                   0.106218        -0.36105
1.796                   0.103746       -0.361725
1.798                   0.101272       -0.362385
1.8                    0.0987979        -0.36303
1.802                  0.0963222       -0.363659
1.804                  0.0938453       -0.364274
1.806                  0.0913673       -0.364874
1.808                  0.0888883       -0.365459
1.81                   0.0864083       -0.366029
1.812                  0.0839271       -0.366584
1.814                   0.081445       -0.367125
1.816                  0.0789619       -0.367651
1.818                  0.0764777       -0.368163
1.82                   0.0739927        -0.36866
1.822                  0.0715066       -0.369142
1.824                  0.0690197        -0.36961
1.826                  0.0665318       -0.370064
1.828                  0.0640431       -0.370504
1.83                   0.0615533       -0.370929
1.832                  0.0590626        -0.37134
1.834                  0.0565711       -0.371736
1.836                  0.0540785       -0.372119
1.838                  0.0515851       -0.372487
1.84                   0.0490908       -0.372841
1.842                  0.0465955       -0.373181
1.844                  0.0440992       -0.373506
1.846                  0.0416022       -0.373818
1.848                   0.039104       -0.374115
1.85                   0.0366051       -0.374398
1.852                  0.0341052       -0.374667
1.854                  0.0316043       -0.374922
1.856                  0.0291025       -0.375163
1.858                  0.0265997       -0.375389
1.86                   0.0240959       -0.375602
1.862                  0.0215912         -0.3758
1.864                  0.0190856       -0.375984
1.866                  0.0165789       -0.376153
1.868                  0.0140713       -0.376309
1.87                   0.0115628        -0.37645
1.872                  0.0090533       -0.376576
1.874                 0.00654276       -0.376688
1.876                 0.00403134       -0.376786
1.878                   0.001519       -0.376869
1.88                -0.000994286       -0.376938
1.882                -0.00350853       -0.376992
1.884                -0.00602357       -0.377032
1.886                -0.00853963       -0.377056
1.888                 -0.0110566       -0.377066
1.89                  -0.0135744       -0.377061
1.892                 -0.0160929       -0.377042
1.894                 -0.0186123       -0.377007
1.896                 -0.0211326       -0.376957
1.898                 -0.0236535       -0.376892
1.9                   -0.0261752       -0.376812
1.902                 -0.0286976       -0.376717
1.904                 -0.0312206       -0.376606
1.906                 -0.0337441        -0.37648
1.908                 -0.0362683       -0.376338
1.91                  -0.0387931       -0.376181
1.912                 -0.0413181       -0.376008
1.914                 -0.0438436        -0.37582
1.916                 -0.0463694       -0.375615
1.918                 -0.0488956       -0.375394
1.92                  -0.0514218       -0.375158
1.922                 -0.0539483       -0.374905
1.924                 -0.0564746       -0.374636
1.926                 -0.0590011       -0.374351
1.928                 -0.0615275       -0.374049
1.93                  -0.0640536       -0.373731
1.932                 -0.0665793       -0.373396
1.934                 -0.0691047       -0.373045
1.936                 -0.0716296       -0.372676
1.938                 -0.0741538       -0.372291
1.94                  -0.0766774       -0.371888
1.942                    -0.0792       -0.371469
1.944                 -0.0817218       -0.371032
1.946                 -0.0842425       -0.370578
1.948                 -0.0867619       -0.370107
1.95                    -0.08928       -0.369618
1.952                 -0.0917967       -0.369112
1.954                 -0.0943116       -0.368588
1.956                 -0.0968248       -0.368046
1.958                 -0.0993361       -0.367487
1.96                   -0.101845       -0.366909
1.962                  -0.104352       -0.366314
1.964                  -0.106857         -0.3657
1.966                  -0.109359       -0.365068
1.968                  -0.111858       -0.364418
1.97                   -0.114354        -0.36375
1.972                  -0.116847       -0.363063
1.974                  -0.119337       -0.362358
1.976                  -0.121824       -0.361635
1.978                  -0.124307       -0.360893
1.98                   -0.126786       -0.360132
1.982                   -0.12926       -0.359353
1.984                  -0.131731       -0.358555
1.986                  -0.134197       -0.357738
1.988                  -0.136659       -0.356903
1.99                   -0.139115       -0.356048
1.992                  -0.141567       -0.355175
1.994                  -0.144013       -0.354283
1.996                  -0.146453       -0.353372
1.998                  -0.148888       -0.352442
2                      -0.151317       -0.351494
