! TOUCHSTONE file generated by CST MICROWAVE STUDIO
! Date and time: Tue Jul 28 21:58:51 2026
! Project name: Sonda-Coaxial_21mm_DisifixB_v2.cst
! Parameters = {h_recipiente=5; l_conector=50; r_arandela=35; r_ext=10.5; r_int=3; r_recipiente=100; z_recipiente=-100}
! Header version: 2018
! Port assignment regex: !\s*Touchstone port\s*([0-9]+)\s*=\s*(CST MWS port|CST DS port)\s*([0-9]+|Zmin|Zmax)\s*\(\"(.*)\"\)(\s*mode\s*([0-9]+))?.*
! Touchstone port assignment:
! Touchstone port 1 = CST MWS port 1 ("")
# GHz S RI R 50
0                       0.998203               0
0.002                   0.998125      -0.0118649
0.004                    0.99789      -0.0237274
0.006                   0.997498      -0.0355851
0.008                   0.996951      -0.0474355
0.01                    0.996247      -0.0592762
0.012                   0.995387      -0.0711049
0.014                   0.994371       -0.082919
0.016                     0.9932      -0.0947163
0.018                   0.991873       -0.106494
0.02                    0.990392       -0.118251
0.022                   0.988756       -0.129983
0.024                   0.986967       -0.141689
0.026                   0.985024       -0.153366
0.028                   0.982928       -0.165012
0.03                     0.98068       -0.176624
0.032                    0.97828       -0.188201
0.034                   0.975729        -0.19974
0.036                   0.973028       -0.211238
0.038                   0.970177       -0.222694
0.04                    0.967178       -0.234105
0.042                   0.964031       -0.245468
0.044                   0.960737       -0.256782
0.046                   0.957297       -0.268045
0.048                   0.953711       -0.279254
0.05                    0.949982       -0.290407
0.052                   0.946109       -0.301502
0.054                   0.942095       -0.312536
0.056                   0.937939       -0.323509
0.058                   0.933644       -0.334417
0.06                     0.92921       -0.345258
0.062                   0.924638       -0.356031
0.064                   0.919931       -0.366734
0.066                   0.915089       -0.377364
0.068                   0.910113        -0.38792
0.07                    0.905004         -0.3984
0.072                   0.899765       -0.408801
0.074                   0.894397       -0.419123
0.076                     0.8889       -0.429362
0.078                   0.883277       -0.439518
0.08                    0.877529       -0.449589
0.082                   0.871657       -0.459572
0.084                   0.865664       -0.469466
0.086                    0.85955        -0.47927
0.088                   0.853317       -0.488982
0.09                    0.846967         -0.4986
0.092                   0.840501       -0.508122
0.094                   0.833922       -0.517547
0.096                   0.827231       -0.526874
0.098                   0.820429       -0.536102
0.1                     0.813518       -0.545227
0.102                   0.806501        -0.55425
0.104                   0.799378       -0.563169
0.106                   0.792153       -0.571983
0.108                   0.784825       -0.580689
0.11                    0.777398       -0.589288
0.112                   0.769874       -0.597778
0.114                   0.762253       -0.606156
0.116                   0.754538       -0.614424
0.118                   0.746731       -0.622579
0.12                    0.738834        -0.63062
0.122                   0.730849       -0.638546
0.124                   0.722777       -0.646356
0.126                   0.714621        -0.65405
0.128                   0.706382       -0.661626
0.13                    0.698063       -0.669083
0.132                   0.689665       -0.676421
0.134                   0.681191       -0.683639
0.136                   0.672642       -0.690736
0.138                   0.664021       -0.697711
0.14                    0.655329       -0.704563
0.142                   0.646569       -0.711293
0.144                   0.637741       -0.717899
0.146                    0.62885        -0.72438
0.148                   0.619895       -0.730737
0.15                    0.610881       -0.736968
0.152                   0.601807       -0.743073
0.154                   0.592678       -0.749052
0.156                   0.583493       -0.754904
0.158                   0.574256        -0.76063
0.16                    0.564969       -0.766228
0.162                   0.555633       -0.771698
0.164                    0.54625        -0.77704
0.166                   0.536824       -0.782254
0.168                   0.527354        -0.78734
0.17                    0.517844       -0.792297
0.172                   0.508295       -0.797125
0.174                    0.49871       -0.801825
0.176                    0.48909       -0.806396
0.178                   0.479438       -0.810838
0.18                    0.469754       -0.815151
0.182                   0.460042       -0.819336
0.184                   0.450303       -0.823392
0.186                   0.440539       -0.827319
0.188                   0.430752       -0.831118
0.19                    0.420943       -0.834789
0.192                   0.411115       -0.838331
0.194                    0.40127       -0.841746
0.196                   0.391409       -0.845033
0.198                   0.381534       -0.848193
0.2                     0.371647       -0.851226
0.202                   0.361751       -0.854132
0.204                   0.351845       -0.856912
0.206                   0.341933       -0.859566
0.208                   0.332016       -0.862095
0.21                    0.322096       -0.864499
0.212                   0.312174       -0.866778
0.214                   0.302253       -0.868934
0.216                   0.292334       -0.870966
0.218                   0.282418       -0.872875
0.22                    0.272508       -0.874661
0.222                   0.262604       -0.876326
0.224                   0.252709        -0.87787
0.226                   0.242824       -0.879294
0.228                   0.232951       -0.880597
0.23                     0.22309       -0.881782
0.232                   0.213245       -0.882848
0.234                   0.203416       -0.883797
0.236                   0.193605       -0.884628
0.238                   0.183812       -0.885344
0.24                     0.17404       -0.885944
0.242                   0.164291       -0.886429
0.244                   0.154565       -0.886801
0.246                   0.144864        -0.88706
0.248                   0.135189       -0.887207
0.25                    0.125541       -0.887243
0.252                   0.115922       -0.887168
0.254                   0.106334       -0.886984
0.256                  0.0967767       -0.886691
0.258                  0.0872522       -0.886291
0.26                   0.0777615       -0.885784
0.262                  0.0683059       -0.885172
0.264                  0.0588867       -0.884454
0.266                  0.0495046       -0.883633
0.268                  0.0401613        -0.88271
0.27                   0.0308576       -0.881684
0.272                  0.0215948       -0.880558
0.274                  0.0123736       -0.879332
0.276                 0.00319511       -0.878007
0.278                -0.00593944       -0.876585
0.28                   -0.015029       -0.875065
0.282                 -0.0240727       -0.873451
0.284                 -0.0330698       -0.871741
0.286                 -0.0420189       -0.869938
0.288                 -0.0509197       -0.868043
0.29                  -0.0597711       -0.866056
0.292                 -0.0685716       -0.863979
0.294                 -0.0773212       -0.861813
0.296                  -0.086019       -0.859559
0.298                 -0.0946636       -0.857217
0.3                    -0.103255        -0.85479
0.302                  -0.111792       -0.852278
0.304                  -0.120274       -0.849682
0.306                    -0.1287       -0.847003
0.308                   -0.13707       -0.844243
0.31                   -0.145382       -0.841402
0.312                  -0.153637       -0.838482
0.314                  -0.161833       -0.835484
0.316                   -0.16997       -0.832409
0.318                  -0.178047       -0.829257
0.32                   -0.186065        -0.82603
0.322                  -0.194022        -0.82273
0.324                  -0.201918       -0.819357
0.326                  -0.209751       -0.815912
0.328                  -0.217523       -0.812397
0.33                   -0.225232       -0.808812
0.332                  -0.232878       -0.805159
0.334                   -0.24046       -0.801439
0.336                  -0.247978       -0.797652
0.338                  -0.255431         -0.7938
0.34                   -0.262821       -0.789884
0.342                  -0.270145       -0.785906
0.344                  -0.277403       -0.781865
0.346                  -0.284596       -0.777763
0.348                  -0.291722       -0.773602
0.35                   -0.298783       -0.769382
0.352                  -0.305776       -0.765105
0.354                  -0.312703        -0.76077
0.356                  -0.319562       -0.756381
0.358                  -0.326354       -0.751936
0.36                   -0.333079       -0.747438
0.362                  -0.339735       -0.742888
0.364                  -0.346324       -0.738286
0.366                  -0.352844       -0.733634
0.368                  -0.359296       -0.728932
0.37                    -0.36568       -0.724181
0.372                  -0.371995       -0.719384
0.374                  -0.378241       -0.714539
0.376                  -0.384419       -0.709649
0.378                  -0.390528       -0.704715
0.38                   -0.396567       -0.699737
0.382                  -0.402538       -0.694716
0.384                   -0.40844       -0.689653
0.386                  -0.414272        -0.68455
0.388                  -0.420035       -0.679407
0.39                   -0.425729       -0.674225
0.392                  -0.431354       -0.669005
0.394                   -0.43691       -0.663748
0.396                  -0.442396       -0.658454
0.398                  -0.447813       -0.653125
0.4                    -0.453162       -0.647762
0.402                  -0.458441       -0.642365
0.404                  -0.463651       -0.636935
0.406                  -0.468792       -0.631474
0.408                  -0.473864       -0.625981
0.41                   -0.478867       -0.620458
0.412                  -0.483802       -0.614906
0.414                  -0.488668       -0.609325
0.416                  -0.493466       -0.603716
0.418                  -0.498194       -0.598081
0.42                   -0.502855       -0.592419
0.422                  -0.507448       -0.586732
0.424                  -0.511972        -0.58102
0.426                  -0.516428       -0.575284
0.428                  -0.520817       -0.569525
0.43                   -0.525138       -0.563744
0.432                  -0.529391       -0.557941
0.434                  -0.533577       -0.552118
0.436                  -0.537696       -0.546274
0.438                  -0.541748        -0.54041
0.44                   -0.545733       -0.534528
0.442                  -0.549652       -0.528628
0.444                  -0.553504       -0.522711
0.446                  -0.557289       -0.516776
0.448                  -0.561009       -0.510826
0.45                   -0.564663       -0.504861
0.452                  -0.568251       -0.498881
0.454                  -0.571773       -0.492886
0.456                   -0.57523       -0.486879
0.458                  -0.578622       -0.480858
0.46                    -0.58195       -0.474826
0.462                  -0.585213       -0.468782
0.464                  -0.588411       -0.462727
0.466                  -0.591545       -0.456662
0.468                  -0.594615       -0.450587
0.47                   -0.597622       -0.444502
0.472                  -0.600565        -0.43841
0.474                  -0.603445       -0.432309
0.476                  -0.606261       -0.426201
0.478                  -0.609015       -0.420087
0.48                   -0.611707       -0.413966
0.482                  -0.614336       -0.407839
0.484                  -0.616903       -0.401707
0.486                  -0.619408        -0.39557
0.488                  -0.621852        -0.38943
0.49                   -0.624234       -0.383286
0.492                  -0.626556       -0.377138
0.494                  -0.628816       -0.370988
0.496                  -0.631016       -0.364836
0.498                  -0.633156       -0.358683
0.5                    -0.635236       -0.352528
0.502                  -0.637256       -0.346373
0.504                  -0.639216       -0.340218
0.506                  -0.641117       -0.334063
0.508                  -0.642959       -0.327909
0.51                   -0.644743       -0.321757
0.512                  -0.646468       -0.315606
0.514                  -0.648134       -0.309457
0.516                  -0.649743       -0.303311
0.518                  -0.651294       -0.297169
0.52                   -0.652787       -0.291029
0.522                  -0.654224       -0.284894
0.524                  -0.655603       -0.278764
0.526                  -0.656926       -0.272638
0.528                  -0.658192       -0.266518
0.53                   -0.659403       -0.260403
0.532                  -0.660557       -0.254295
0.534                  -0.661656       -0.248193
0.536                    -0.6627       -0.242097
0.538                  -0.663688        -0.23601
0.54                   -0.664622        -0.22993
0.542                  -0.665501       -0.223858
0.544                  -0.666326       -0.217795
0.546                  -0.667097       -0.211741
0.548                  -0.667814       -0.205697
0.55                   -0.668478       -0.199662
0.552                  -0.669089       -0.193637
0.554                  -0.669646       -0.187622
0.556                  -0.670151       -0.181619
0.558                  -0.670604       -0.175627
0.56                   -0.671005       -0.169646
0.562                  -0.671354       -0.163677
0.564                  -0.671651       -0.157721
0.566                  -0.671897       -0.151777
0.568                  -0.672092       -0.145847
0.57                   -0.672236       -0.139929
0.572                   -0.67233       -0.134026
0.574                  -0.672374       -0.128137
0.576                  -0.672368       -0.122262
0.578                  -0.672312       -0.116401
0.58                   -0.672207       -0.110557
0.582                  -0.672052       -0.104727
0.584                  -0.671849      -0.0989132
0.586                  -0.671598      -0.0931154
0.588                  -0.671298      -0.0873342
0.59                    -0.67095        -0.08157
0.592                  -0.670555      -0.0758226
0.594                  -0.670112      -0.0700926
0.596                  -0.669622      -0.0643805
0.598                  -0.669086      -0.0586863
0.6                    -0.668502      -0.0530107
0.602                  -0.667873      -0.0473536
0.604                  -0.667198      -0.0417157
0.606                  -0.666476      -0.0360968
0.608                   -0.66571      -0.0304977
0.61                   -0.664899      -0.0249184
0.612                  -0.664042      -0.0193594
0.614                  -0.663141      -0.0138209
0.616                  -0.662196     -0.00830299
0.618                  -0.661207     -0.00280645
0.62                   -0.660175      0.00266888
0.622                  -0.659099      0.00812242
0.624                   -0.65798       0.0135542
0.626                  -0.656819       0.0189636
0.628                  -0.655615       0.0243506
0.63                   -0.654369       0.0297145
0.632                  -0.653081       0.0350557
0.634                  -0.651751       0.0403735
0.636                  -0.650381       0.0456676
0.638                  -0.648969       0.0509378
0.64                   -0.647517        0.056184
0.642                  -0.646025       0.0614057
0.644                  -0.644493       0.0666029
0.646                  -0.642921       0.0717749
0.648                   -0.64131       0.0769219
0.65                    -0.63966       0.0820437
0.652                  -0.637971       0.0871395
0.654                  -0.636244       0.0922095
0.656                  -0.634479       0.0972535
0.658                  -0.632676        0.102271
0.66                   -0.630835        0.107262
0.662                  -0.628958        0.112226
0.664                  -0.627044        0.117163
0.666                  -0.625094        0.122073
0.668                  -0.623107        0.126955
0.67                   -0.621085        0.131809
0.672                  -0.619027        0.136636
0.674                  -0.616935        0.141434
0.676                  -0.614807        0.146204
0.678                  -0.612646        0.150945
0.68                    -0.61045        0.155657
0.682                   -0.60822        0.160341
0.684                  -0.605957        0.164995
0.686                  -0.603661         0.16962
0.688                  -0.601332        0.174215
0.69                   -0.598971        0.178781
0.692                  -0.596578        0.183317
0.694                  -0.594154        0.187822
0.696                  -0.591698        0.192297
0.698                  -0.589211        0.196742
0.7                    -0.586693        0.201156
0.702                  -0.584146         0.20554
0.704                  -0.581568        0.209892
0.706                  -0.578961        0.214213
0.708                  -0.576324        0.218503
0.71                   -0.573659        0.222762
0.712                  -0.570965        0.226989
0.714                  -0.568243        0.231184
0.716                  -0.565493        0.235347
0.718                  -0.562717        0.239479
0.72                   -0.559912        0.243578
0.722                  -0.557081        0.247645
0.724                  -0.554224         0.25168
0.726                  -0.551341        0.255683
0.728                  -0.548432        0.259652
0.73                   -0.545497         0.26359
0.732                  -0.542538        0.267494
0.734                  -0.539554        0.271366
0.736                  -0.536546        0.275204
0.738                  -0.533514        0.279009
0.74                   -0.530459        0.282781
0.742                   -0.52738        0.286521
0.744                  -0.524279        0.290226
0.746                  -0.521155        0.293899
0.748                  -0.518009        0.297538
0.75                   -0.514841        0.301143
0.752                  -0.511652        0.304715
0.754                  -0.508442        0.308252
0.756                  -0.505211        0.311757
0.758                   -0.50196        0.315227
0.76                   -0.498689        0.318664
0.762                  -0.495398        0.322067
0.764                  -0.492088        0.325436
0.766                  -0.488759        0.328771
0.768                  -0.485411        0.332072
0.77                   -0.482045        0.335339
0.772                  -0.478661        0.338573
0.774                  -0.475259        0.341772
0.776                  -0.471841        0.344936
0.778                  -0.468405        0.348068
0.78                   -0.464953        0.351164
0.782                  -0.461484        0.354227
0.784                     -0.458        0.357256
0.786                    -0.4545        0.360251
0.788                  -0.450984        0.363211
0.79                   -0.447454        0.366138
0.792                  -0.443909         0.36903
0.794                   -0.44035        0.371889
0.796                  -0.436777        0.374713
0.798                   -0.43319        0.377503
0.8                     -0.42959         0.38026
0.802                  -0.425977        0.382982
0.804                  -0.422351        0.385671
0.806                  -0.418713        0.388326
0.808                  -0.415062        0.390946
0.81                     -0.4114        0.393534
0.812                  -0.407726        0.396087
0.814                  -0.404042        0.398607
0.816                  -0.400346        0.401093
0.818                   -0.39664        0.403545
0.82                   -0.392923        0.405964
0.822                  -0.389196        0.408349
0.824                   -0.38546        0.410701
0.826                  -0.381714        0.413019
0.828                  -0.377958        0.415305
0.83                   -0.374194        0.417557
0.832                  -0.370421        0.419776
0.834                   -0.36664        0.421961
0.836                  -0.362851        0.424114
0.838                  -0.359054        0.426234
0.84                   -0.355249         0.42832
0.842                  -0.351437        0.430374
0.844                  -0.347618        0.432396
0.846                  -0.343793        0.434384
0.848                   -0.33996         0.43634
0.85                   -0.336121        0.438264
0.852                  -0.332276        0.440155
0.854                  -0.328426        0.442014
0.856                  -0.324569         0.44384
0.858                  -0.320708        0.445635
0.86                   -0.316841        0.447397
0.862                  -0.312969        0.449128
0.864                  -0.309093        0.450826
0.866                  -0.305212        0.452493
0.868                  -0.301327        0.454128
0.87                   -0.297438        0.455732
0.872                  -0.293545        0.457304
0.874                  -0.289648        0.458845
0.876                  -0.285748        0.460354
0.878                  -0.281845        0.461832
0.88                   -0.277939        0.463279
0.882                   -0.27403        0.464695
0.884                  -0.270119         0.46608
0.886                  -0.266205        0.467435
0.888                  -0.262289        0.468758
0.89                   -0.258371        0.470051
0.892                  -0.254451        0.471313
0.894                   -0.25053        0.472545
0.896                  -0.246607        0.473747
0.898                  -0.242682        0.474918
0.9                    -0.238757        0.476059
0.902                  -0.234831         0.47717
0.904                  -0.230904        0.478251
0.906                  -0.226976        0.479302
0.908                  -0.223048        0.480323
0.91                    -0.21912        0.481315
0.912                  -0.215191        0.482277
0.914                  -0.211263         0.48321
0.916                  -0.207335        0.484113
0.918                  -0.203407        0.484986
0.92                    -0.19948        0.485831
0.922                  -0.195553        0.486646
0.924                  -0.191628        0.487433
0.926                  -0.187703         0.48819
0.928                   -0.18378        0.488918
0.93                   -0.179858        0.489618
0.932                  -0.175937        0.490288
0.934                  -0.172018         0.49093
0.936                  -0.168101        0.491544
0.938                  -0.164185        0.492129
0.94                   -0.160272        0.492685
0.942                  -0.156361        0.493214
0.944                  -0.152452        0.493714
0.946                  -0.148545        0.494185
0.948                  -0.144641        0.494629
0.95                    -0.14074        0.495045
0.952                  -0.136842        0.495432
0.954                  -0.132947        0.495792
0.956                  -0.129055        0.496124
0.958                  -0.125166        0.496428
0.96                    -0.12128        0.496704
0.962                  -0.117399        0.496953
0.964                   -0.11352        0.497174
0.966                  -0.109646        0.497367
0.968                  -0.105776        0.497534
0.97                   -0.101909        0.497672
0.972                 -0.0980472        0.497784
0.974                 -0.0941894        0.497868
0.976                 -0.0903362        0.497925
0.978                 -0.0864874        0.497955
0.98                  -0.0826437        0.497958
0.982                 -0.0788047        0.497933
0.984                 -0.0749706        0.497882
0.986                 -0.0711418        0.497804
0.988                 -0.0673183        0.497699
0.99                  -0.0635002        0.497567
0.992                 -0.0596877        0.497409
0.994                 -0.0558809        0.497223
0.996                 -0.0520798        0.497011
0.998                 -0.0482849        0.496773
1                      -0.044496        0.496508
1.002                 -0.0407135        0.496216
1.004                 -0.0369372        0.495898
1.006                 -0.0331677        0.495554
1.008                 -0.0294047        0.495183
1.01                  -0.0256486        0.494786
1.012                 -0.0218995        0.494363
1.014                 -0.0181576        0.493913
1.016                 -0.0144228        0.493438
1.018                 -0.0106955        0.492936
1.02                 -0.00697573        0.492408
1.022                -0.00326376        0.491855
1.024                0.000440396        0.491275
1.026                 0.00413657        0.490669
1.028                 0.00782449        0.490038
1.03                   0.0115041        0.489381
1.032                  0.0151753        0.488698
1.034                  0.0188378        0.487989
1.036                  0.0224916        0.487255
1.038                  0.0261363        0.486496
1.04                   0.0297719         0.48571
1.042                  0.0333983          0.4849
1.044                  0.0370152        0.484063
1.046                  0.0406226        0.483202
1.048                  0.0442202        0.482315
1.05                   0.0478077        0.481404
1.052                  0.0513853        0.480466
1.054                  0.0549526        0.479504
1.056                  0.0585095        0.478517
1.058                  0.0620557        0.477505
1.06                   0.0655913        0.476468
1.062                  0.0691159        0.475406
1.064                  0.0726294         0.47432
1.066                  0.0761316        0.473208
1.068                  0.0796223        0.472073
1.07                   0.0831015        0.470912
1.072                  0.0865687        0.469727
1.074                   0.090024        0.468518
1.076                  0.0934672        0.467285
1.078                  0.0968981        0.466027
1.08                    0.100317        0.464745
1.082                   0.103722        0.463439
1.084                   0.107115         0.46211
1.086                   0.110495        0.460756
1.088                   0.113861        0.459379
1.09                    0.117215        0.457978
1.092                   0.120554        0.456553
1.094                    0.12388        0.455105
1.096                   0.127192        0.453634
1.098                    0.13049        0.452139
1.1                     0.133773        0.450622
1.102                   0.137042        0.449081
1.104                   0.140297        0.447517
1.106                   0.143536        0.445931
1.108                   0.146761        0.444321
1.11                     0.14997         0.44269
1.112                   0.153164        0.441036
1.114                   0.156343        0.439359
1.116                   0.159506         0.43766
1.118                   0.162653         0.43594
1.12                    0.165783        0.434197
1.122                   0.168898        0.432433
1.124                   0.171996        0.430647
1.126                   0.175078        0.428839
1.128                   0.178143         0.42701
1.13                    0.181191         0.42516
1.132                   0.184222        0.423289
1.134                   0.187235        0.421397
1.136                   0.190231        0.419484
1.138                    0.19321        0.417551
1.14                    0.196171        0.415597
1.142                   0.199114        0.413623
1.144                   0.202038        0.411629
1.146                   0.204945        0.409614
1.148                   0.207833         0.40758
1.15                    0.210703        0.405527
1.152                   0.213554        0.403454
1.154                   0.216386        0.401362
1.156                   0.219199         0.39925
1.158                   0.221993         0.39712
1.16                    0.224768        0.394971
1.162                   0.227523        0.392804
1.164                   0.230259        0.390618
1.166                   0.232975        0.388414
1.168                   0.235671        0.386192
1.17                    0.238347        0.383952
1.172                   0.241003        0.381695
1.174                   0.243639        0.379421
1.176                   0.246255        0.377129
1.178                    0.24885         0.37482
1.18                    0.251424        0.372495
1.182                   0.253978        0.370152
1.184                   0.256511        0.367794
1.186                   0.259023        0.365419
1.188                   0.261514        0.363029
1.19                    0.263984        0.360623
1.192                   0.266432        0.358201
1.194                    0.26886        0.355764
1.196                   0.271265        0.353312
1.198                    0.27365        0.350845
1.2                     0.276012        0.348363
1.202                   0.278353        0.345867
1.204                   0.280672        0.343356
1.206                    0.28297        0.340832
1.208                   0.285245        0.338294
1.21                    0.287499        0.335742
1.212                    0.28973        0.333177
1.214                   0.291939        0.330598
1.216                   0.294126        0.328007
1.218                   0.296291        0.325403
1.22                    0.298433        0.322787
1.222                   0.300553        0.320158
1.224                    0.30265        0.317517
1.226                   0.304726        0.314865
1.228                   0.306778        0.312201
1.23                    0.308808        0.309525
1.232                   0.310816        0.306839
1.234                     0.3128        0.304141
1.236                   0.314763        0.301433
1.238                   0.316702        0.298714
1.24                    0.318619        0.295985
1.242                   0.320513        0.293245
1.244                   0.322384        0.290496
1.246                   0.324233        0.287738
1.248                   0.326059        0.284969
1.25                    0.327862        0.282192
1.252                   0.329642        0.279406
1.254                     0.3314         0.27661
1.256                   0.333134        0.273807
1.258                   0.334846        0.270995
1.26                    0.336536        0.268174
1.262                   0.338202        0.265346
1.264                   0.339846         0.26251
1.266                   0.341467        0.259666
1.268                   0.343065        0.256815
1.27                    0.344641        0.253957
1.272                   0.346194        0.251092
1.274                   0.347724         0.24822
1.276                   0.349232        0.245341
1.278                   0.350717        0.242456
1.28                     0.35218        0.239565
1.282                    0.35362        0.236668
1.284                   0.355038        0.233764
1.286                   0.356433        0.230856
1.288                   0.357806        0.227941
1.29                    0.359156        0.225022
1.292                   0.360484        0.222097
1.294                    0.36179        0.219167
1.296                   0.363074        0.216233
1.298                   0.364335        0.213294
1.3                     0.365575         0.21035
1.302                   0.366792        0.207402
1.304                   0.367987         0.20445
1.306                   0.369161        0.201494
1.308                   0.370312        0.198534
1.31                    0.371442         0.19557
1.312                   0.372549        0.192603
1.314                   0.373635        0.189633
1.316                     0.3747        0.186659
1.318                   0.375742        0.183682
1.32                    0.376764        0.180702
1.322                   0.377763         0.17772
1.324                   0.378741        0.174734
1.326                   0.379698        0.171746
1.328                   0.380634        0.168756
1.33                    0.381548        0.165763
1.332                   0.382441        0.162769
1.334                   0.383313        0.159772
1.336                   0.384164        0.156773
1.338                   0.384993        0.153772
1.34                    0.385802         0.15077
1.342                    0.38659        0.147766
1.344                   0.387357         0.14476
1.346                   0.388103        0.141754
1.348                   0.388829        0.138746
1.35                    0.389534        0.135736
1.352                   0.390218        0.132726
1.354                   0.390882        0.129715
1.356                   0.391525        0.126703
1.358                   0.392148         0.12369
1.36                    0.392751        0.120676
1.362                   0.393333        0.117662
1.364                   0.393894        0.114648
1.366                   0.394436        0.111633
1.368                   0.394958        0.108617
1.37                    0.395459        0.105602
1.372                    0.39594        0.102586
1.374                   0.396401       0.0995704
1.376                   0.396842       0.0965547
1.378                   0.397264       0.0935391
1.38                    0.397665       0.0905237
1.382                   0.398047       0.0875086
1.384                   0.398408       0.0844938
1.386                    0.39875       0.0814794
1.388                   0.399072       0.0784655
1.39                    0.399375       0.0754522
1.392                   0.399657       0.0724396
1.394                   0.399921       0.0694276
1.396                   0.400164       0.0664164
1.398                   0.400388       0.0634061
1.4                     0.400592       0.0603968
1.402                   0.400777       0.0573884
1.404                   0.400942       0.0543811
1.406                   0.401088        0.051375
1.408                   0.401214       0.0483701
1.41                    0.401321       0.0453664
1.412                   0.401408       0.0423642
1.414                   0.401476       0.0393633
1.416                   0.401525        0.036364
1.418                   0.401554       0.0333663
1.42                    0.401563       0.0303702
1.422                   0.401553       0.0273758
1.424                   0.401524       0.0243833
1.426                   0.401476       0.0213926
1.428                   0.401408       0.0184038
1.43                    0.401321       0.0154171
1.432                   0.401214       0.0124325
1.434                   0.401088      0.00945004
1.436                   0.400943      0.00646987
1.438                   0.400778      0.00349204
1.44                    0.400594     0.000516629
1.442                    0.40039     -0.00245627
1.444                   0.400168     -0.00542659
1.446                   0.399925     -0.00839422
1.448                   0.399663      -0.0113591
1.45                    0.399382      -0.0143211
1.452                   0.399082      -0.0172802
1.454                   0.398762      -0.0202362
1.456                   0.398422      -0.0231891
1.458                   0.398063      -0.0261388
1.46                    0.397685      -0.0290852
1.462                   0.397287      -0.0320282
1.464                   0.396869      -0.0349676
1.466                   0.396432      -0.0379034
1.468                   0.395976      -0.0408354
1.47                      0.3955      -0.0437637
1.472                   0.395004      -0.0466879
1.474                   0.394489      -0.0496082
1.476                   0.393954      -0.0525242
1.478                     0.3934       -0.055436
1.48                    0.392826      -0.0583433
1.482                   0.392232      -0.0612461
1.484                   0.391619      -0.0641443
1.486                   0.390986      -0.0670377
1.488                   0.390333      -0.0699262
1.49                    0.389661      -0.0728097
1.492                   0.388969       -0.075688
1.494                   0.388257      -0.0785611
1.496                   0.387525      -0.0814286
1.498                   0.386774      -0.0842907
1.5                     0.386003       -0.087147
1.502                   0.385212      -0.0899975
1.504                   0.384402       -0.092842
1.506                   0.383571      -0.0956803
1.508                   0.382721      -0.0985124
1.51                    0.381851       -0.101338
1.512                   0.380962       -0.104157
1.514                   0.380053       -0.106969
1.516                   0.379123       -0.109775
1.518                   0.378175       -0.112573
1.52                    0.377206       -0.115364
1.522                   0.376218       -0.118148
1.524                    0.37521       -0.120924
1.526                   0.374182       -0.123693
1.528                   0.373135       -0.126453
1.53                    0.372068       -0.129206
1.532                   0.370981        -0.13195
1.534                   0.369875       -0.134686
1.536                   0.368749       -0.137413
1.538                   0.367604       -0.140132
1.54                    0.366439       -0.142842
1.542                   0.365254       -0.145542
1.544                   0.364051       -0.148233
1.546                   0.362828       -0.150915
1.548                   0.361585       -0.153588
1.55                    0.360323        -0.15625
1.552                   0.359042       -0.158902
1.554                   0.357742       -0.161545
1.556                   0.356423       -0.164176
1.558                   0.355084       -0.166798
1.56                    0.353727       -0.169408
1.562                    0.35235       -0.172008
1.564                   0.350955       -0.174597
1.566                   0.349541       -0.177174
1.568                   0.348108        -0.17974
1.57                    0.346657       -0.182294
1.572                   0.345187       -0.184836
1.574                   0.343699       -0.187366
1.576                   0.342192       -0.189884
1.578                   0.340667        -0.19239
1.58                    0.339124       -0.194883
1.582                   0.337563       -0.197363
1.584                   0.335984       -0.199831
1.586                   0.334387       -0.202285
1.588                   0.332773       -0.204726
1.59                    0.331141       -0.207153
1.592                   0.329491       -0.209567
1.594                   0.327824       -0.211967
1.596                    0.32614       -0.214352
1.598                   0.324439       -0.216724
1.6                     0.322721       -0.219081
1.602                   0.320986       -0.221424
1.604                   0.319234       -0.223752
1.606                   0.317466       -0.226066
1.608                   0.315681       -0.228364
1.61                    0.313881       -0.230647
1.612                   0.312064       -0.232915
1.614                   0.310231       -0.235167
1.616                   0.308383       -0.237403
1.618                   0.306519       -0.239624
1.62                     0.30464       -0.241829
1.622                   0.302745       -0.244018
1.624                   0.300836        -0.24619
1.626                   0.298911       -0.248346
1.628                   0.296972       -0.250486
1.63                    0.295019       -0.252609
1.632                   0.293051       -0.254715
1.634                   0.291069       -0.256804
1.636                   0.289073       -0.258877
1.638                   0.287063       -0.260932
1.64                     0.28504       -0.262969
1.642                   0.283004        -0.26499
1.644                   0.280954       -0.266993
1.646                   0.278891       -0.268978
1.648                   0.276816       -0.270946
1.65                    0.274728       -0.272896
1.652                   0.272628       -0.274828
1.654                   0.270515       -0.276742
1.656                   0.268391       -0.278638
1.658                   0.266255       -0.280516
1.66                    0.264107       -0.282376
1.662                   0.261948       -0.284218
1.664                   0.259779       -0.286041
1.666                   0.257598       -0.287845
1.668                   0.255407       -0.289632
1.67                    0.253205         -0.2914
1.672                   0.250993       -0.293149
1.674                   0.248771       -0.294879
1.676                   0.246539       -0.296591
1.678                   0.244297       -0.298284
1.68                    0.242047       -0.299959
1.682                   0.239787       -0.301614
1.684                   0.237518       -0.303251
1.686                    0.23524        -0.30487
1.688                   0.232954       -0.306469
1.69                     0.23066       -0.308049
1.692                   0.228358       -0.309611
1.694                   0.226047       -0.311154
1.696                    0.22373       -0.312678
1.698                   0.221404       -0.314183
1.7                     0.219072       -0.315669
1.702                   0.216732       -0.317136
1.704                   0.214386       -0.318585
1.706                   0.212033       -0.320015
1.708                   0.209673       -0.321426
1.71                    0.207307       -0.322818
1.712                   0.204935       -0.324192
1.714                   0.202558       -0.325547
1.716                   0.200174       -0.326883
1.718                   0.197786       -0.328201
1.72                    0.195392         -0.3295
1.722                   0.192992       -0.330781
1.724                   0.190588       -0.332043
1.726                    0.18818       -0.333287
1.728                   0.185766       -0.334513
1.73                    0.183348        -0.33572
1.732                   0.180926       -0.336909
1.734                     0.1785        -0.33808
1.736                    0.17607       -0.339233
1.738                   0.173637       -0.340368
1.74                      0.1712       -0.341485
1.742                   0.168759       -0.342585
1.744                   0.166315       -0.343666
1.746                   0.163868        -0.34473
1.748                   0.161418       -0.345776
1.75                    0.158965       -0.346805
1.752                   0.156509       -0.347816
1.754                   0.154051        -0.34881
1.756                    0.15159       -0.349786
1.758                   0.149127       -0.350746
1.76                    0.146662       -0.351688
1.762                   0.144195       -0.352614
1.764                   0.141725       -0.353522
1.766                   0.139254       -0.354414
1.768                   0.136781       -0.355289
1.77                    0.134307       -0.356148
1.772                    0.13183        -0.35699
1.774                   0.129353       -0.357815
1.776                   0.126873       -0.358625
1.778                   0.124393       -0.359418
1.78                    0.121911       -0.360195
1.782                   0.119428       -0.360956
1.784                   0.116944       -0.361701
1.786                   0.114459        -0.36243
1.788                   0.111973       -0.363144
1.79                    0.109486       -0.363842
1.792                   0.106998       -0.364524
1.794                    0.10451       -0.365191
1.796                   0.102021       -0.365842
1.798                  0.0995307       -0.366479
1.8                    0.0970399         -0.3671
1.802                  0.0945487       -0.367706
1.804                  0.0920567       -0.368297
1.806                  0.0895644       -0.368873
1.808                  0.0870714       -0.369434
1.81                   0.0845779        -0.36998
1.812                   0.082084       -0.370512
1.814                  0.0795896       -0.371029
1.816                  0.0770948       -0.371531
1.818                  0.0745995       -0.372019
1.82                   0.0721038       -0.372493
1.822                  0.0696076       -0.372952
1.824                  0.0671113       -0.373397
1.826                  0.0646143       -0.373827
1.828                   0.062117       -0.374244
1.83                   0.0596192       -0.374646
1.832                  0.0571211       -0.375034
1.834                  0.0546226       -0.375408
1.836                  0.0521237       -0.375768
1.838                  0.0496244       -0.376114
1.84                   0.0471246       -0.376446
1.842                  0.0446244       -0.376764
1.844                  0.0421237       -0.377069
1.846                  0.0396225       -0.377359
1.848                  0.0371208       -0.377636
1.85                   0.0346188       -0.377899
1.852                  0.0321161       -0.378148
1.854                  0.0296129       -0.378383
1.856                  0.0271093       -0.378604
1.858                  0.0246049       -0.378812
1.86                   0.0221001       -0.379005
1.862                  0.0195946       -0.379185
1.864                  0.0170886       -0.379351
1.866                  0.0145819       -0.379503
1.868                  0.0120745       -0.379642
1.87                  0.00956648       -0.379766
1.872                 0.00705789       -0.379877
1.874                 0.00454856       -0.379973
1.876                 0.00203852       -0.380056
1.878               -0.000472238       -0.380124
1.88                 -0.00298367       -0.380179
1.882                 -0.0054958       -0.380219
1.884                -0.00800867       -0.380246
1.886                 -0.0105223       -0.380258
1.888                 -0.0130366       -0.380256
1.89                  -0.0155518       -0.380239
1.892                 -0.0180676       -0.380208
1.894                 -0.0205841       -0.380163
1.896                 -0.0231013       -0.380103
1.898                 -0.0256193       -0.380029
1.9                   -0.0281378        -0.37994
1.902                 -0.0306572       -0.379836
1.904                  -0.033177       -0.379717
1.906                 -0.0356976       -0.379584
1.908                 -0.0382187       -0.379435
1.91                  -0.0407405       -0.379272
1.912                 -0.0432627       -0.379093
1.914                 -0.0457854       -0.378899
1.916                 -0.0483087        -0.37869
1.918                 -0.0508323       -0.378465
1.92                  -0.0533562       -0.378225
1.922                 -0.0558805       -0.377969
1.924                  -0.058405       -0.377698
1.926                 -0.0609297        -0.37741
1.928                 -0.0634545       -0.377107
1.93                  -0.0659794       -0.376787
1.932                 -0.0685042       -0.376452
1.934                  -0.071029         -0.3761
1.936                 -0.0735535       -0.375732
1.938                 -0.0760777       -0.375347
1.94                  -0.0786016       -0.374946
1.942                  -0.081125       -0.374528
1.944                 -0.0836479       -0.374093
1.946                 -0.0861701       -0.373641
1.948                 -0.0886913       -0.373173
1.95                  -0.0912118       -0.372687
1.952                 -0.0937312       -0.372184
1.954                 -0.0962495       -0.371663
1.956                 -0.0987664       -0.371126
1.958                  -0.101282        -0.37057
1.96                   -0.103796       -0.369997
1.962                  -0.106308       -0.369407
1.964                  -0.108818       -0.368798
1.966                  -0.111327       -0.368172
1.968                  -0.113833       -0.367527
1.97                   -0.116336       -0.366865
1.972                  -0.118838       -0.366184
1.974                  -0.121336       -0.365485
1.976                  -0.123832       -0.364768
1.978                  -0.126324       -0.364032
1.98                   -0.128814       -0.363277
1.982                  -0.131299       -0.362504
1.984                  -0.133782       -0.361713
1.986                   -0.13626       -0.360902
1.988                  -0.138734       -0.360073
1.99                   -0.141205       -0.359225
1.992                   -0.14367       -0.358358
1.994                  -0.146131       -0.357473
1.996                  -0.148587       -0.356568
1.998                  -0.151038       -0.355644
2                      -0.153483       -0.354701
