! TOUCHSTONE file generated by CST MICROWAVE STUDIO
! Date and time: Tue Jul 28 21:58:50 2026
! Project name: Sonda-Coaxial_21mm_DisifixB_v2.cst
! Parameters = {h_recipiente=5; l_conector=50; r_arandela=35; r_ext=10.5; r_int=3; r_recipiente=100; z_recipiente=-50}
! Header version: 2018
! Port assignment regex: !\s*Touchstone port\s*([0-9]+)\s*=\s*(CST MWS port|CST DS port)\s*([0-9]+|Zmin|Zmax)\s*\(\"(.*)\"\)(\s*mode\s*([0-9]+))?.*
! Touchstone port assignment:
! Touchstone port 1 = CST MWS port 1 ("")
# GHz S RI R 50
0                       0.998414               0
0.002                   0.998336      -0.0118436
0.004                   0.998102      -0.0236848
0.006                   0.997712      -0.0355212
0.008                   0.997166      -0.0473504
0.01                    0.996464      -0.0591699
0.012                   0.995607      -0.0709774
0.014                   0.994594      -0.0827704
0.016                   0.993427      -0.0945466
0.018                   0.992104       -0.106304
0.02                    0.990628       -0.118039
0.022                   0.988997        -0.12975
0.024                   0.987213       -0.141436
0.026                   0.985276       -0.153092
0.028                   0.983187       -0.164717
0.03                    0.980946        -0.17631
0.032                   0.978553       -0.187866
0.034                   0.976011       -0.199385
0.036                   0.973318       -0.210863
0.038                   0.970477       -0.222299
0.04                    0.967487        -0.23369
0.042                    0.96435       -0.245034
0.044                   0.961066       -0.256329
0.046                   0.957636       -0.267572
0.048                   0.954062       -0.278762
0.05                    0.950345       -0.289896
0.052                   0.946484       -0.300972
0.054                   0.942482       -0.311989
0.056                    0.93834       -0.322943
0.058                   0.934058       -0.333833
0.06                    0.929638       -0.344657
0.062                   0.925081       -0.355412
0.064                   0.920388       -0.366098
0.066                   0.915561       -0.376711
0.068                   0.910601       -0.387251
0.07                    0.905509       -0.397714
0.072                   0.900286       -0.408099
0.074                   0.894935       -0.418405
0.076                   0.889455       -0.428629
0.078                    0.88385        -0.43877
0.08                     0.87812       -0.448825
0.082                   0.872267       -0.458794
0.084                   0.866293       -0.468674
0.086                   0.860198       -0.478464
0.088                   0.853985       -0.488162
0.09                    0.847655       -0.497767
0.092                    0.84121       -0.507277
0.094                   0.834652        -0.51669
0.096                   0.827982       -0.526005
0.098                   0.821201       -0.535221
0.1                     0.814313       -0.544335
0.102                   0.807318       -0.553347
0.104                   0.800218       -0.562256
0.106                   0.793015       -0.571059
0.108                   0.785711       -0.579757
0.11                    0.778308       -0.588346
0.112                   0.770807       -0.596827
0.114                    0.76321       -0.605198
0.116                    0.75552       -0.613458
0.118                   0.747738       -0.621605
0.12                    0.739866       -0.629639
0.122                   0.731906       -0.637559
0.124                    0.72386       -0.645364
0.126                    0.71573       -0.653052
0.128                   0.707517       -0.660623
0.13                    0.699224       -0.668076
0.132                   0.690853       -0.675411
0.134                   0.682406       -0.682625
0.136                   0.673884       -0.689719
0.138                    0.66529       -0.696692
0.14                    0.656625       -0.703543
0.142                   0.647892       -0.710271
0.144                   0.639093       -0.716876
0.146                   0.630229       -0.723357
0.148                   0.621303       -0.729714
0.15                    0.612316       -0.735947
0.152                   0.603271       -0.742053
0.154                    0.59417       -0.748035
0.156                   0.585014        -0.75389
0.158                   0.575806       -0.759618
0.16                    0.566547        -0.76522
0.162                    0.55724       -0.770694
0.164                   0.547887       -0.776042
0.166                   0.538489       -0.781261
0.168                   0.529048       -0.786353
0.17                    0.519567       -0.791317
0.172                   0.510048       -0.796153
0.174                   0.500492       -0.800861
0.176                   0.490901        -0.80544
0.178                   0.481277       -0.809892
0.18                    0.471623       -0.814215
0.182                    0.46194        -0.81841
0.184                    0.45223       -0.822477
0.186                   0.442495       -0.826415
0.188                   0.432736       -0.830227
0.19                    0.422956        -0.83391
0.192                   0.413157       -0.837466
0.194                    0.40334       -0.840895
0.196                   0.393508       -0.844197
0.198                   0.383661       -0.847372
0.2                     0.373803       -0.850421
0.202                   0.363934       -0.853343
0.204                   0.354056       -0.856141
0.206                   0.344172       -0.858812
0.208                   0.334282        -0.86136
0.21                    0.324389       -0.863782
0.212                   0.314495       -0.866081
0.214                     0.3046       -0.868256
0.216                   0.294707       -0.870309
0.218                   0.284818       -0.872239
0.22                    0.274933       -0.874048
0.222                   0.265055       -0.875735
0.224                   0.255186       -0.877302
0.226                   0.245326       -0.878749
0.228                   0.235477       -0.880077
0.23                    0.225642       -0.881286
0.232                    0.21582       -0.882377
0.234                   0.206015       -0.883352
0.236                   0.196227       -0.884209
0.238                   0.186458       -0.884952
0.24                    0.176708       -0.885579
0.242                   0.166981       -0.886092
0.244                   0.157277       -0.886493
0.246                   0.147597        -0.88678
0.248                   0.137943       -0.886957
0.25                    0.128316       -0.887022
0.252                   0.118717       -0.886978
0.254                   0.109148       -0.886824
0.256                  0.0996096       -0.886563
0.258                  0.0901038       -0.886195
0.26                   0.0806312        -0.88572
0.262                   0.071193        -0.88514
0.264                  0.0617908       -0.884456
0.266                  0.0524255       -0.883669
0.268                   0.043098       -0.882779
0.27                   0.0338097       -0.881787
0.272                  0.0245614       -0.880696
0.274                  0.0153544       -0.879505
0.276                 0.00618994       -0.878215
0.278                -0.00293148       -0.876829
0.28                  -0.0120087       -0.875345
0.282                 -0.0210405       -0.873767
0.284                 -0.0300261       -0.872095
0.286                 -0.0389652       -0.870329
0.288                 -0.0478552       -0.868471
0.29                  -0.0566972       -0.866522
0.292                 -0.0654893       -0.864482
0.294                  -0.074231       -0.862354
0.296                  -0.082921       -0.860138
0.298                 -0.0915591       -0.857836
0.3                    -0.100144       -0.855447
0.302                  -0.108675       -0.852974
0.304                  -0.117152       -0.850417
0.306                  -0.125575       -0.847778
0.308                  -0.133941       -0.845057
0.31                    -0.14225       -0.842256
0.312                  -0.150503       -0.839376
0.314                  -0.158697       -0.836417
0.316                  -0.166834       -0.833382
0.318                  -0.174911        -0.83027
0.32                    -0.18293       -0.827084
0.322                  -0.190888       -0.823824
0.324                  -0.198786       -0.820491
0.326                  -0.206622       -0.817087
0.328                  -0.214397       -0.813612
0.33                    -0.22211       -0.810067
0.332                  -0.229761       -0.806454
0.334                  -0.237348       -0.802774
0.336                  -0.244873       -0.799028
0.338                  -0.252334       -0.795216
0.34                    -0.25973       -0.791341
0.342                  -0.267063       -0.787402
0.344                   -0.27433       -0.783401
0.346                  -0.281533       -0.779339
0.348                   -0.28867       -0.775218
0.35                   -0.295741       -0.771037
0.352                  -0.302746       -0.766799
0.354                  -0.309686       -0.762504
0.356                  -0.316558       -0.758153
0.358                  -0.323364       -0.753747
0.36                   -0.330103       -0.749288
0.362                  -0.336775       -0.744776
0.364                  -0.343379       -0.740212
0.366                  -0.349916       -0.735597
0.368                  -0.356385       -0.730933
0.37                   -0.362787        -0.72622
0.372                   -0.36912       -0.721459
0.374                  -0.375386       -0.716651
0.376                  -0.381583       -0.711798
0.378                  -0.387712       -0.706899
0.38                   -0.393772       -0.701957
0.382                  -0.399764       -0.696971
0.384                  -0.405688       -0.691944
0.386                  -0.411543       -0.686875
0.388                  -0.417329       -0.681766
0.39                   -0.423047       -0.676617
0.392                  -0.428696       -0.671431
0.394                  -0.434277       -0.666206
0.396                  -0.439788       -0.660945
0.398                  -0.445232       -0.655648
0.4                    -0.450606       -0.650316
0.402                  -0.455912        -0.64495
0.404                   -0.46115       -0.639551
0.406                  -0.466318       -0.634119
0.408                  -0.471419       -0.628656
0.41                   -0.476451       -0.623162
0.412                  -0.481415       -0.617638
0.414                   -0.48631       -0.612085
0.416                  -0.491138       -0.606504
0.418                  -0.495897       -0.600895
0.42                   -0.500588        -0.59526
0.422                  -0.505212       -0.589598
0.424                  -0.509768       -0.583912
0.426                  -0.514256         -0.5782
0.428                  -0.518676       -0.572466
0.43                    -0.52303       -0.566708
0.432                  -0.527316       -0.560928
0.434                  -0.531535       -0.555126
0.436                  -0.535687       -0.549304
0.438                  -0.539773       -0.543462
0.44                   -0.543792         -0.5376
0.442                  -0.547745        -0.53172
0.444                  -0.551631       -0.525822
0.446                  -0.555451       -0.519906
0.448                  -0.559205       -0.513974
0.45                   -0.562894       -0.508026
0.452                  -0.566517       -0.502063
0.454                  -0.570075       -0.496084
0.456                  -0.573567       -0.490093
0.458                  -0.576995       -0.484087
0.46                   -0.580358       -0.478069
0.462                  -0.583656       -0.472038
0.464                   -0.58689       -0.465997
0.466                   -0.59006       -0.459944
0.468                  -0.593166       -0.453881
0.47                   -0.596208       -0.447808
0.472                  -0.599187       -0.441726
0.474                  -0.602103       -0.435636
0.476                  -0.604956       -0.429537
0.478                  -0.607745       -0.423431
0.48                   -0.610473       -0.417318
0.482                  -0.613138       -0.411199
0.484                   -0.61574       -0.405074
0.486                  -0.618282       -0.398944
0.488                  -0.620761       -0.392809
0.49                   -0.623179        -0.38667
0.492                  -0.625535       -0.380528
0.494                  -0.627831       -0.374382
0.496                  -0.630066       -0.368234
0.498                  -0.632241       -0.362084
0.5                    -0.634356       -0.355932
0.502                   -0.63641       -0.349779
0.504                  -0.638405       -0.343625
0.506                   -0.64034       -0.337471
0.508                  -0.642217       -0.331317
0.51                   -0.644034       -0.325165
0.512                  -0.645792       -0.319013
0.514                  -0.647493       -0.312864
0.516                  -0.649134       -0.306716
0.518                  -0.650718       -0.300572
0.52                   -0.652244        -0.29443
0.522                  -0.653713       -0.288292
0.524                  -0.655125       -0.282158
0.526                   -0.65648       -0.276029
0.528                  -0.657778       -0.269904
0.53                   -0.659019       -0.263785
0.532                  -0.660205       -0.257671
0.534                  -0.661334       -0.251564
0.536                  -0.662408       -0.245463
0.538                  -0.663427       -0.239369
0.54                    -0.66439       -0.233283
0.542                  -0.665299       -0.227205
0.544                  -0.666153       -0.221135
0.546                  -0.666952       -0.215073
0.548                  -0.667698       -0.209021
0.55                    -0.66839       -0.202977
0.552                  -0.669028       -0.196944
0.554                  -0.669613       -0.190921
0.556                  -0.670145       -0.184909
0.558                  -0.670625       -0.178907
0.56                   -0.671052       -0.172917
0.562                  -0.671426       -0.166939
0.564                  -0.671749       -0.160973
0.566                   -0.67202       -0.155019
0.568                   -0.67224       -0.149078
0.57                   -0.672408        -0.14315
0.572                  -0.672526       -0.137237
0.574                  -0.672594       -0.131336
0.576                  -0.672611        -0.12545
0.578                  -0.672578       -0.119579
0.58                   -0.672495       -0.113723
0.582                  -0.672363       -0.107882
0.584                  -0.672182       -0.102057
0.586                  -0.671952       -0.096248
0.588                  -0.671673      -0.0904551
0.59                   -0.671346      -0.0846789
0.592                  -0.670971        -0.07892
0.594                  -0.670548      -0.0731783
0.596                  -0.670078      -0.0674543
0.598                   -0.66956      -0.0617484
0.6                    -0.668996       -0.056061
0.602                  -0.668385       -0.050392
0.604                  -0.667728      -0.0447421
0.606                  -0.667025      -0.0391115
0.608                  -0.666276      -0.0335006
0.61                   -0.665482      -0.0279094
0.612                  -0.664643      -0.0223387
0.614                  -0.663759      -0.0167883
0.616                   -0.66283      -0.0112589
0.618                  -0.661857     -0.00575074
0.62                   -0.660841    -0.000263774
0.622                   -0.65978      0.00520142
0.624                  -0.658677       0.0106443
0.626                  -0.657531       0.0160651
0.628                  -0.656341       0.0214632
0.63                    -0.65511       0.0268385
0.632                  -0.653836       0.0321908
0.634                  -0.652521       0.0375194
0.636                  -0.651164       0.0428243
0.638                  -0.649767       0.0481051
0.64                   -0.648328        0.053362
0.642                  -0.646849        0.058594
0.644                   -0.64533       0.0638014
0.646                  -0.643771       0.0689839
0.648                  -0.642173        0.074141
0.65                   -0.640535       0.0792724
0.652                  -0.638859       0.0843781
0.654                  -0.637144       0.0894577
0.656                  -0.635391       0.0945112
0.658                    -0.6336        0.099538
0.66                   -0.631772        0.104538
0.662                  -0.629907        0.109511
0.664                  -0.628005        0.114457
0.666                  -0.626066        0.119375
0.668                  -0.624091        0.124266
0.67                    -0.62208        0.129129
0.672                  -0.620034        0.133963
0.674                  -0.617953         0.13877
0.676                  -0.615837        0.143547
0.678                  -0.613686        0.148296
0.68                   -0.611502        0.153016
0.682                  -0.609284        0.157708
0.684                  -0.607032        0.162369
0.686                  -0.604747        0.167001
0.688                   -0.60243        0.171603
0.69                    -0.60008        0.176176
0.692                  -0.597699        0.180718
0.694                  -0.595285         0.18523
0.696                  -0.592841        0.189712
0.698                  -0.590366        0.194163
0.7                     -0.58786        0.198584
0.702                  -0.585323        0.202973
0.704                  -0.582758        0.207332
0.706                  -0.580162        0.211659
0.708                  -0.577537        0.215955
0.71                   -0.574884        0.220219
0.712                  -0.572202        0.224452
0.714                  -0.569493        0.228653
0.716                  -0.566755        0.232822
0.718                   -0.56399        0.236959
0.72                   -0.561199        0.241064
0.722                   -0.55838        0.245136
0.724                  -0.555536        0.249177
0.726                  -0.552665        0.253185
0.728                  -0.549769         0.25716
0.73                   -0.546848        0.261102
0.732                  -0.543902        0.265012
0.734                  -0.540932        0.268889
0.736                  -0.537937        0.272732
0.738                  -0.534919        0.276543
0.74                   -0.531877        0.280321
0.742                  -0.528813        0.284065
0.744                  -0.525725        0.287776
0.746                  -0.522616        0.291454
0.748                  -0.519484        0.295098
0.75                   -0.516331        0.298709
0.752                  -0.513157        0.302286
0.754                  -0.509962         0.30583
0.756                  -0.506746        0.309341
0.758                   -0.50351        0.312817
0.76                   -0.500254         0.31626
0.762                  -0.496979        0.319669
0.764                  -0.493684        0.323044
0.766                  -0.490371        0.326385
0.768                  -0.487039        0.329693
0.77                   -0.483689        0.332967
0.772                  -0.480322        0.336207
0.774                  -0.476937        0.339413
0.776                  -0.473534        0.342585
0.778                  -0.470115        0.345723
0.78                    -0.46668        0.348828
0.782                  -0.463228        0.351898
0.784                  -0.459761        0.354935
0.786                  -0.456278        0.357938
0.788                   -0.45278        0.360907
0.79                   -0.449267        0.363842
0.792                  -0.445739        0.366743
0.794                  -0.442198         0.36961
0.796                  -0.438642        0.372444
0.798                  -0.435073        0.375244
0.8                    -0.431491         0.37801
0.802                  -0.427896        0.380743
0.804                  -0.424287        0.383442
0.806                  -0.420667        0.386107
0.808                  -0.417035        0.388739
0.81                   -0.413391        0.391337
0.812                  -0.409735        0.393902
0.814                  -0.406068        0.396433
0.816                   -0.40239        0.398931
0.818                  -0.398702        0.401396
0.82                   -0.395003        0.403827
0.822                  -0.391295        0.406225
0.824                  -0.387576         0.40859
0.826                  -0.383848        0.410922
0.828                  -0.380111        0.413221
0.83                   -0.376364        0.415487
0.832                  -0.372609         0.41772
0.834                  -0.368846        0.419921
0.836                  -0.365074        0.422089
0.838                  -0.361295        0.424223
0.84                   -0.357508        0.426326
0.842                  -0.353713        0.428396
0.844                  -0.349911        0.430433
0.846                  -0.346103        0.432439
0.848                  -0.342287        0.434412
0.85                   -0.338465        0.436352
0.852                  -0.334637        0.438261
0.854                  -0.330803        0.440138
0.856                  -0.326963        0.441982
0.858                  -0.323117        0.443795
0.86                   -0.319266        0.445576
0.862                   -0.31541        0.447326
0.864                   -0.31155        0.449044
0.866                  -0.307684         0.45073
0.868                  -0.303814        0.452385
0.87                    -0.29994        0.454009
0.872                  -0.296061        0.455601
0.874                  -0.292179        0.457162
0.876                  -0.288293        0.458693
0.878                  -0.284404        0.460192
0.88                   -0.280511         0.46166
0.882                  -0.276616        0.463098
0.884                  -0.272717        0.464505
0.886                  -0.268816        0.465881
0.888                  -0.264912        0.467227
0.89                   -0.261006        0.468542
0.892                  -0.257098        0.469827
0.894                  -0.253188        0.471082
0.896                  -0.249276        0.472307
0.898                  -0.245362        0.473501
0.9                    -0.241447        0.474666
0.902                  -0.237531          0.4758
0.904                  -0.233613        0.476905
0.906                  -0.229695         0.47798
0.908                  -0.225776        0.479026
0.91                   -0.221856        0.480041
0.912                  -0.217936        0.481028
0.914                  -0.214015        0.481985
0.916                  -0.210094        0.482912
0.918                  -0.206174        0.483811
0.92                   -0.202253         0.48468
0.922                  -0.198333         0.48552
0.924                  -0.194413        0.486331
0.926                  -0.190494        0.487113
0.928                  -0.186576        0.487866
0.93                   -0.182658         0.48859
0.932                  -0.178742        0.489286
0.934                  -0.174827        0.489953
0.936                  -0.170913        0.490591
0.938                  -0.167001        0.491201
0.94                    -0.16309        0.491782
0.942                  -0.159181        0.492335
0.944                  -0.155274         0.49286
0.946                  -0.151369        0.493356
0.948                  -0.147467        0.493824
0.95                   -0.143566        0.494264
0.952                  -0.139668        0.494676
0.954                  -0.135773         0.49506
0.956                  -0.131881        0.495416
0.958                  -0.127991        0.495745
0.96                   -0.124105        0.496045
0.962                  -0.120222        0.496317
0.964                  -0.116342        0.496562
0.966                  -0.112465        0.496779
0.968                  -0.108592        0.496969
0.97                   -0.104723        0.497131
0.972                  -0.100858        0.497265
0.974                 -0.0969967        0.497372
0.976                 -0.0931397        0.497451
0.978                 -0.0892869        0.497504
0.98                  -0.0854386        0.497528
0.982                 -0.0815951        0.497526
0.984                  -0.077756        0.497496
0.986                  -0.073922         0.49744
0.988                  -0.070093        0.497356
0.99                  -0.0662691        0.497245
0.992                 -0.0624506        0.497107
0.994                 -0.0586375        0.496942
0.996                   -0.05483         0.49675
0.998                 -0.0510284        0.496532
1                     -0.0472326        0.496286
1.002                  -0.043443        0.496014
1.004                 -0.0396594        0.495715
1.006                 -0.0358822        0.495389
1.008                 -0.0321117        0.495036
1.01                  -0.0283476        0.494657
1.012                 -0.0245905        0.494252
1.014                 -0.0208404         0.49382
1.016                 -0.0170974        0.493361
1.018                 -0.0133617        0.492876
1.02                 -0.00963332        0.492365
1.022                -0.00591274        0.491828
1.024                -0.00219979        0.491264
1.026                   0.001505        0.490674
1.028                 0.00520182        0.490058
1.03                  0.00889038        0.489415
1.032                  0.0125705        0.488747
1.034                   0.016242        0.488053
1.036                  0.0199048        0.487332
1.038                  0.0235585        0.486586
1.04                   0.0272032        0.485814
1.042                  0.0308386        0.485017
1.044                  0.0344647        0.484193
1.046                  0.0380809        0.483344
1.048                  0.0416875         0.48247
1.05                    0.045284         0.48157
1.052                  0.0488705        0.480644
1.054                  0.0524465        0.479693
1.056                  0.0560122        0.478717
1.058                   0.059567        0.477716
1.06                   0.0631111        0.476689
1.062                   0.066644        0.475637
1.064                  0.0701658        0.474561
1.066                  0.0736762        0.473459
1.068                   0.077175        0.472333
1.07                   0.0806621        0.471181
1.072                  0.0841371        0.470006
1.074                  0.0876002        0.468805
1.076                  0.0910508         0.46758
1.078                  0.0944889        0.466331
1.08                   0.0979145        0.465057
1.082                   0.101327        0.463759
1.084                   0.104727        0.462437
1.086                   0.108113        0.461091
1.088                   0.111486        0.459721
1.09                    0.114845        0.458328
1.092                   0.118191         0.45691
1.094                   0.121522        0.455469
1.096                    0.12484        0.454005
1.098                   0.128143        0.452517
1.1                     0.131432        0.451006
1.102                   0.134706        0.449472
1.104                   0.137965        0.447915
1.106                   0.141209        0.446335
1.108                   0.144437        0.444732
1.11                    0.147651        0.443107
1.112                   0.150848        0.441459
1.114                    0.15403        0.439789
1.116                   0.157196        0.438096
1.118                   0.160346        0.436382
1.12                     0.16348        0.434646
1.122                   0.166597        0.432888
1.124                   0.169698        0.431108
1.126                   0.172781        0.429307
1.128                   0.175848        0.427484
1.13                    0.178898        0.425641
1.132                    0.18193        0.423776
1.134                   0.184945        0.421891
1.136                   0.187942        0.419985
1.138                   0.190922        0.418059
1.14                    0.193883        0.416112
1.142                   0.196826        0.414145
1.144                   0.199751        0.412158
1.146                   0.202658        0.410151
1.148                   0.205546        0.408125
1.15                    0.208415        0.406079
1.152                   0.211266        0.404014
1.154                   0.214097         0.40193
1.156                    0.21691        0.399827
1.158                   0.219703        0.397705
1.16                    0.222477        0.395565
1.162                   0.225231        0.393407
1.164                   0.227965         0.39123
1.166                    0.23068        0.389036
1.168                   0.233375        0.386823
1.17                    0.236049        0.384594
1.172                   0.238704        0.382346
1.174                   0.241338        0.380082
1.176                   0.243952        0.377801
1.178                   0.246545        0.375503
1.18                    0.249117        0.373189
1.182                   0.251669        0.370859
1.184                     0.2542        0.368512
1.186                    0.25671        0.366149
1.188                     0.2592        0.363771
1.19                    0.261668        0.361378
1.192                   0.264114        0.358969
1.194                    0.26654        0.356545
1.196                   0.268944        0.354106
1.198                   0.271327        0.351653
1.2                     0.273688        0.349185
1.202                   0.276027        0.346704
1.204                   0.278345        0.344208
1.206                   0.280641        0.341698
1.208                   0.282916        0.339175
1.21                    0.285168        0.336639
1.212                   0.287399         0.33409
1.214                   0.289607        0.331527
1.216                   0.291794        0.328953
1.218                   0.293958        0.326365
1.22                      0.2961        0.323766
1.222                   0.298221        0.321154
1.224                   0.300319        0.318531
1.226                   0.302394        0.315896
1.228                   0.304448         0.31325
1.23                    0.306479        0.310593
1.232                   0.308488        0.307925
1.234                   0.310475        0.305246
1.236                   0.312439        0.302556
1.238                   0.314381        0.299856
1.24                    0.316301        0.297147
1.242                   0.318198        0.294427
1.244                   0.320072        0.291698
1.246                   0.321925        0.288959
1.248                   0.323755         0.28621
1.25                    0.325562        0.283453
1.252                   0.327347        0.280687
1.254                    0.32911        0.277912
1.256                   0.330851        0.275129
1.258                   0.332569        0.272338
1.26                    0.334264        0.269538
1.262                   0.335938        0.266731
1.264                   0.337589        0.263916
1.266                   0.339217        0.261093
1.268                   0.340824        0.258263
1.27                    0.342408        0.255426
1.272                    0.34397        0.252582
1.274                    0.34551        0.249731
1.276                   0.347027        0.246873
1.278                   0.348523        0.244009
1.28                    0.349996        0.241139
1.282                   0.351448        0.238263
1.284                   0.352877        0.235381
1.286                   0.354284        0.232493
1.288                    0.35567        0.229599
1.29                    0.357033          0.2267
1.292                   0.358375        0.223796
1.294                   0.359695        0.220887
1.296                   0.360993        0.217972
1.298                   0.362269        0.215053
1.3                     0.363524         0.21213
1.302                   0.364757        0.209201
1.304                   0.365968        0.206269
1.306                   0.367158        0.203332
1.308                   0.368326        0.200391
1.31                    0.369473        0.197446
1.312                   0.370599        0.194497
1.314                   0.371703        0.191545
1.316                   0.372786        0.188589
1.318                   0.373848         0.18563
1.32                    0.374889        0.182667
1.322                   0.375908        0.179701
1.324                   0.376907        0.176732
1.326                   0.377884        0.173761
1.328                    0.37884        0.170786
1.33                    0.379776        0.167809
1.332                   0.380691        0.164829
1.334                   0.381584        0.161847
1.336                   0.382458        0.158862
1.338                    0.38331        0.155875
1.34                    0.384141        0.152886
1.342                   0.384952        0.149895
1.344                   0.385743        0.146902
1.346                   0.386513        0.143907
1.348                   0.387262         0.14091
1.35                    0.387991        0.137911
1.352                     0.3887        0.134912
1.354                   0.389388         0.13191
1.356                   0.390056        0.128907
1.358                   0.390703        0.125903
1.36                    0.391331        0.122898
1.362                   0.391938        0.119892
1.364                   0.392525        0.116884
1.366                   0.393092        0.113876
1.368                   0.393639        0.110867
1.37                    0.394165        0.107857
1.372                   0.394672        0.104846
1.374                   0.395159        0.101835
1.376                   0.395625        0.098823
1.378                   0.396072       0.0958108
1.38                    0.396499       0.0927981
1.382                   0.396905       0.0897852
1.384                   0.397292       0.0867721
1.386                    0.39766       0.0837588
1.388                   0.398007       0.0807454
1.39                    0.398334       0.0777321
1.392                   0.398642       0.0747189
1.394                   0.398929       0.0717058
1.396                   0.399198        0.068693
1.398                   0.399446       0.0656805
1.4                     0.399674       0.0626684
1.402                   0.399883       0.0596568
1.404                   0.400072       0.0566458
1.406                   0.400241       0.0536354
1.408                    0.40039       0.0506257
1.41                     0.40052       0.0476168
1.412                    0.40063       0.0446088
1.414                    0.40072       0.0416018
1.416                    0.40079       0.0385958
1.418                   0.400841       0.0355909
1.42                    0.400872       0.0325873
1.422                   0.400883       0.0295849
1.424                   0.400874       0.0265839
1.426                   0.400846       0.0235844
1.428                   0.400797       0.0205865
1.43                    0.400729       0.0175902
1.432                   0.400642       0.0145956
1.434                   0.400534       0.0116029
1.436                   0.400406      0.00861213
1.438                   0.400259      0.00562338
1.44                    0.400092      0.00263674
1.442                   0.399904    -0.000347664
1.444                   0.399697     -0.00332975
1.446                    0.39947      -0.0063094
1.448                   0.399223     -0.00928652
1.45                    0.398956       -0.012261
1.452                    0.39867      -0.0152327
1.454                   0.398363      -0.0182016
1.456                   0.398036      -0.0211675
1.458                   0.397689      -0.0241303
1.46                    0.397322      -0.0270899
1.462                   0.396935      -0.0300462
1.464                   0.396528       -0.032999
1.466                   0.396101      -0.0359482
1.468                   0.395654      -0.0388938
1.47                    0.395186      -0.0418356
1.472                   0.394699      -0.0447734
1.474                   0.394191      -0.0477071
1.476                   0.393663      -0.0506366
1.478                   0.393115      -0.0535617
1.48                    0.392547      -0.0564824
1.482                   0.391959      -0.0593984
1.484                    0.39135      -0.0623097
1.486                   0.390721       -0.065216
1.488                   0.390072      -0.0681173
1.49                    0.389403      -0.0710134
1.492                   0.388713      -0.0739041
1.494                   0.388003      -0.0767893
1.496                   0.387273      -0.0796688
1.498                   0.386523      -0.0825425
1.5                     0.385753      -0.0854102
1.502                   0.384962      -0.0882718
1.504                   0.384151      -0.0911271
1.506                   0.383319      -0.0939758
1.508                   0.382468       -0.096818
1.51                    0.381596      -0.0996533
1.512                   0.380704       -0.102482
1.514                   0.379792       -0.105303
1.516                    0.37886       -0.108117
1.518                   0.377908       -0.110923
1.52                    0.376935       -0.113722
1.522                   0.375943       -0.116513
1.524                    0.37493       -0.119296
1.526                   0.373898        -0.12207
1.528                   0.372845       -0.124837
1.53                    0.371773       -0.127595
1.532                    0.37068       -0.130344
1.534                   0.369568       -0.133084
1.536                   0.368436       -0.135815
1.538                   0.367284       -0.138536
1.54                    0.366113       -0.141248
1.542                   0.364922       -0.143951
1.544                   0.363711       -0.146644
1.546                   0.362481       -0.149326
1.548                   0.361232       -0.151999
1.55                    0.359963       -0.154661
1.552                   0.358674       -0.157312
1.554                   0.357367       -0.159953
1.556                    0.35604       -0.162582
1.558                   0.354694       -0.165201
1.56                     0.35333       -0.167808
1.562                   0.351946       -0.170403
1.564                   0.350544       -0.172987
1.566                   0.349123       -0.175559
1.568                   0.347683       -0.178119
1.57                    0.346225       -0.180667
1.572                   0.344749       -0.183202
1.574                   0.343254       -0.185725
1.576                   0.341742       -0.188234
1.578                   0.340211       -0.190731
1.58                    0.338662       -0.193215
1.582                   0.337096       -0.195685
1.584                   0.335512       -0.198142
1.586                   0.333911       -0.200585
1.588                   0.332292       -0.203014
1.59                    0.330656       -0.205429
1.592                   0.329003        -0.20783
1.594                   0.327333       -0.210217
1.596                   0.325646       -0.212589
1.598                   0.323943       -0.214947
1.6                     0.322223        -0.21729
1.602                   0.320487       -0.219617
1.604                   0.318734        -0.22193
1.606                   0.316966       -0.224227
1.608                   0.315182       -0.226509
1.61                    0.313383       -0.228776
1.612                   0.311568       -0.231026
1.614                   0.309737       -0.233261
1.616                   0.307892        -0.23548
1.618                   0.306031       -0.237683
1.62                    0.304156        -0.23987
1.622                   0.302267        -0.24204
1.624                   0.300362       -0.244194
1.626                   0.298444       -0.246331
1.628                   0.296512       -0.248452
1.63                    0.294566       -0.250555
1.632                   0.292607       -0.252642
1.634                   0.290634       -0.254712
1.636                   0.288648       -0.256764
1.638                   0.286648         -0.2588
1.64                    0.284636       -0.260818
1.642                   0.282612       -0.262819
1.644                   0.280575       -0.264802
1.646                   0.278526       -0.266768
1.648                   0.276465       -0.268717
1.65                    0.274392       -0.270647
1.652                   0.272307        -0.27256
1.654                   0.270212       -0.274455
1.656                   0.268105       -0.276333
1.658                   0.265987       -0.278192
1.66                    0.263858       -0.280033
1.662                   0.261719       -0.281857
1.664                   0.259569       -0.283662
1.666                    0.25741       -0.285449
1.668                    0.25524       -0.287218
1.67                    0.253061       -0.288969
1.672                   0.250872       -0.290702
1.674                   0.248674       -0.292417
1.676                   0.246467       -0.294113
1.678                   0.244251       -0.295791
1.68                    0.242026       -0.297451
1.682                   0.239793       -0.299093
1.684                   0.237552       -0.300717
1.686                   0.235302       -0.302322
1.688                   0.233045       -0.303909
1.69                    0.230779       -0.305478
1.692                   0.228507       -0.307029
1.694                   0.226227       -0.308562
1.696                   0.223939       -0.310076
1.698                   0.221645       -0.311573
1.7                     0.219345       -0.313051
1.702                   0.217037       -0.314511
1.704                   0.214723       -0.315953
1.706                   0.212403       -0.317377
1.708                   0.210077       -0.318784
1.71                    0.207745       -0.320172
1.712                   0.205408       -0.321543
1.714                   0.203065       -0.322895
1.716                   0.200716        -0.32423
1.718                   0.198362       -0.325548
1.72                    0.196003       -0.326847
1.722                    0.19364        -0.32813
1.724                   0.191271       -0.329394
1.726                   0.188898       -0.330641
1.728                   0.186521       -0.331871
1.73                    0.184139       -0.333084
1.732                   0.181753       -0.334279
1.734                   0.179363       -0.335457
1.736                   0.176969       -0.336618
1.738                   0.174571       -0.337762
1.74                    0.172169       -0.338889
1.742                   0.169764       -0.339999
1.744                   0.167356       -0.341093
1.746                   0.164944        -0.34217
1.748                   0.162529        -0.34323
1.75                    0.160111       -0.344273
1.752                    0.15769       -0.345301
1.754                   0.155266       -0.346311
1.756                   0.152839       -0.347306
1.758                    0.15041       -0.348284
1.76                    0.147978       -0.349246
1.762                   0.145543       -0.350192
1.764                   0.143106       -0.351123
1.766                   0.140666       -0.352037
1.768                   0.138224       -0.352935
1.77                     0.13578       -0.353818
1.772                   0.133334       -0.354685
1.774                   0.130885       -0.355537
1.776                   0.128435       -0.356373
1.778                   0.125982       -0.357194
1.78                    0.123528       -0.357999
1.782                   0.121071       -0.358789
1.784                   0.118613       -0.359564
1.786                   0.116153       -0.360324
1.788                   0.113691       -0.361069
1.79                    0.111227       -0.361799
1.792                   0.108761       -0.362514
1.794                   0.106294       -0.363214
1.796                   0.103825       -0.363899
1.798                   0.101354        -0.36457
1.8                     0.098882       -0.365225
1.802                  0.0964081       -0.365867
1.804                  0.0939327       -0.366493
1.806                  0.0914555       -0.367106
1.808                   0.088977       -0.367704
1.81                   0.0864966       -0.368287
1.812                  0.0840149       -0.368856
1.814                  0.0815315        -0.36941
1.816                  0.0790465       -0.369951
1.818                    0.07656       -0.370477
1.82                   0.0740721       -0.370988
1.822                  0.0715824       -0.371486
1.824                  0.0690913       -0.371969
1.826                  0.0665986       -0.372438
1.828                  0.0641043       -0.372893
1.83                   0.0616084       -0.373334
1.832                  0.0591111       -0.373761
1.834                  0.0566121       -0.374173
1.836                  0.0541114       -0.374572
1.838                  0.0516093       -0.374956
1.84                   0.0491054       -0.375326
1.842                  0.0466001       -0.375682
1.844                  0.0440931       -0.376023
1.846                  0.0415846       -0.376351
1.848                  0.0390743       -0.376664
1.85                   0.0365624       -0.376963
1.852                  0.0340489       -0.377248
1.854                  0.0315338       -0.377518
1.856                   0.029017       -0.377774
1.858                  0.0264986       -0.378016
1.86                   0.0239786       -0.378243
1.862                  0.0214569       -0.378456
1.864                  0.0189335       -0.378654
1.866                  0.0164087       -0.378838
1.868                   0.013882       -0.379007
1.87                   0.0113539       -0.379161
1.872                 0.00882408       -0.379301
1.874                 0.00629272       -0.379426
1.876                 0.00375972       -0.379536
1.878                 0.00122534       -0.379631
1.88                 -0.00131072       -0.379711
1.882                -0.00384828       -0.379776
1.884                -0.00638719       -0.379826
1.886                -0.00892763        -0.37986
1.888                 -0.0114695       -0.379879
1.89                  -0.0140128       -0.379883
1.892                 -0.0165574       -0.379871
1.894                 -0.0191033       -0.379844
1.896                 -0.0216504       -0.379801
1.898                 -0.0241987       -0.379742
1.9                   -0.0267482       -0.379668
1.902                 -0.0292988       -0.379577
1.904                 -0.0318504        -0.37947
1.906                 -0.0344028       -0.379347
1.908                 -0.0369563       -0.379208
1.91                  -0.0395104       -0.379053
1.912                 -0.0420655       -0.378881
1.914                  -0.044621       -0.378692
1.916                 -0.0471771       -0.378487
1.918                 -0.0497338       -0.378265
1.92                  -0.0522908       -0.378026
1.922                  -0.054848        -0.37777
1.924                 -0.0574055       -0.377497
1.926                 -0.0599629       -0.377207
1.928                 -0.0625203         -0.3769
1.93                  -0.0650776       -0.376575
1.932                 -0.0676345       -0.376233
1.934                 -0.0701911       -0.375873
1.936                  -0.072747       -0.375495
1.938                 -0.0753022         -0.3751
1.94                  -0.0778566       -0.374686
1.942                 -0.0804101       -0.374255
1.944                 -0.0829623       -0.373806
1.946                 -0.0855132       -0.373338
1.948                 -0.0880628       -0.372852
1.95                  -0.0906107       -0.372348
1.952                 -0.0931568       -0.371826
1.954                 -0.0957009       -0.371284
1.956                  -0.098243       -0.370725
1.958                  -0.100783       -0.370146
1.96                    -0.10332       -0.369549
1.962                  -0.105854       -0.368933
1.964                  -0.108386       -0.368298
1.966                  -0.110914       -0.367644
1.968                   -0.11344       -0.366972
1.97                   -0.115961        -0.36628
1.972                  -0.118479       -0.365569
1.974                  -0.120993       -0.364839
1.976                  -0.123503       -0.364089
1.978                  -0.126009       -0.363321
1.98                    -0.12851       -0.362533
1.982                  -0.131006       -0.361726
1.984                  -0.133498       -0.360899
1.986                  -0.135983       -0.360053
1.988                  -0.138464       -0.359188
1.99                   -0.140939       -0.358304
1.992                  -0.143408         -0.3574
1.994                   -0.14587       -0.356476
1.996                  -0.148326       -0.355534
1.998                  -0.150776       -0.354572
2                      -0.153219        -0.35359
