! TOUCHSTONE file generated by CST MICROWAVE STUDIO
! Date and time: Sun Aug  2 11:33:45 2026
! Project name: Sonda-Coaxial_21mm_DisifixB_v2_Agua_Dest.cst
! Parameters = {h_recipiente=20; l_conector=50; r_arandela=35; r_ext=10.5; r_int=3; r_recipiente=100; z_recipiente=-100}
! Header version: 2018
! Port assignment regex: !\s*Touchstone port\s*([0-9]+)\s*=\s*(CST MWS port|CST DS port)\s*([0-9]+|Zmin|Zmax)\s*\(\"(.*)\"\)(\s*mode\s*([0-9]+))?.*
! Touchstone port assignment:
! Touchstone port 1 = CST MWS port 1 ("")
# GHz S RI R 50
0.001                   0.998605     -0.00987067
0.002                   0.998462      -0.0197385
0.003                   0.998226       -0.029601
0.004                   0.997897      -0.0394566
0.005                    0.99748      -0.0493044
0.006                   0.996977      -0.0591448
0.007                   0.996389      -0.0689793
0.008                   0.995719      -0.0788104
0.009                   0.994966      -0.0886411
0.01                     0.99413      -0.0984749
0.011                   0.993208       -0.108315
0.012                   0.992197       -0.118163
0.013                   0.991091       -0.128022
0.014                   0.989885       -0.137891
0.015                   0.988572       -0.147768
0.016                   0.987146        -0.15765
0.017                   0.985603       -0.167531
0.018                   0.983939       -0.177405
0.019                    0.98215       -0.187264
0.02                    0.980238       -0.197098
0.021                   0.978203         -0.2069
0.022                    0.97605       -0.216662
0.023                   0.973784       -0.226378
0.024                   0.971413       -0.236041
0.025                   0.968945       -0.245651
0.026                   0.966387       -0.255205
0.027                   0.963747       -0.264706
0.028                   0.961032       -0.274157
0.029                   0.958247       -0.283563
0.03                    0.955396       -0.292931
0.031                   0.952478       -0.302267
0.032                   0.949493       -0.311577
0.033                   0.946437       -0.320867
0.034                   0.943304       -0.330141
0.035                    0.94009       -0.339401
0.036                   0.936787       -0.348647
0.037                   0.933387       -0.357877
0.038                   0.929887       -0.367086
0.039                    0.92628       -0.376268
0.04                    0.922564       -0.385416
0.041                   0.918739       -0.394522
0.042                   0.914805       -0.403577
0.043                   0.910768       -0.412576
0.044                   0.906632       -0.421511
0.045                   0.902404       -0.430378
0.046                   0.898091       -0.439176
0.047                   0.893701       -0.447904
0.048                   0.889241       -0.456563
0.049                   0.884717       -0.465159
0.05                    0.880132       -0.473695
0.051                   0.875488       -0.482178
0.052                   0.870787       -0.490613
0.053                   0.866026       -0.499006
0.054                   0.861201       -0.507361
0.055                   0.856307        -0.51568
0.056                    0.85134       -0.523965
0.057                   0.846292       -0.532214
0.058                   0.841159       -0.540424
0.059                   0.835937       -0.548591
0.06                    0.830622       -0.556708
0.061                   0.825214       -0.564768
0.062                   0.819714       -0.572765
0.063                   0.814124       -0.580691
0.064                    0.80845       -0.588541
0.065                   0.802696        -0.59631
0.066                   0.796871       -0.603997
0.067                    0.79098       -0.611601
0.068                   0.785031       -0.619122
0.069                   0.779028       -0.626563
0.07                    0.772977        -0.63393
0.071                    0.76688       -0.641226
0.072                   0.760739       -0.648457
0.073                   0.754551       -0.655628
0.074                   0.748315       -0.662742
0.075                   0.742028       -0.669803
0.076                   0.735685       -0.676812
0.077                   0.729281       -0.683769
0.078                   0.722812       -0.690671
0.079                   0.716275       -0.697514
0.08                    0.709667       -0.704295
0.081                   0.702989       -0.711007
0.082                   0.696239       -0.717644
0.083                   0.689423       -0.724203
0.084                   0.682542       -0.730677
0.085                   0.675603       -0.737064
0.086                   0.668611       -0.743362
0.087                   0.661572        -0.74957
0.088                   0.654491        -0.75569
0.089                   0.647374       -0.761725
0.09                    0.640225       -0.767678
0.091                   0.633045       -0.773553
0.092                   0.625835       -0.779355
0.093                   0.618595       -0.785089
0.094                   0.611323       -0.790757
0.095                   0.604015       -0.796363
0.096                   0.596669       -0.801906
0.097                    0.58928       -0.807388
0.098                   0.581845       -0.812806
0.099                   0.574362       -0.818156
0.1                     0.566829       -0.823435
0.101                   0.559245       -0.828639
0.102                   0.551612       -0.833763
0.103                   0.543932       -0.838802
0.104                    0.53621       -0.843753
0.105                   0.528449       -0.848614
0.106                   0.520656       -0.853383
0.107                   0.512835       -0.858061
0.108                   0.504992        -0.86265
0.109                   0.497129       -0.867152
0.11                    0.489251       -0.871571
0.111                   0.481359       -0.875911
0.112                   0.473453       -0.880177
0.113                   0.465533       -0.884372
0.114                   0.457597         -0.8885
0.115                    0.44964       -0.892561
0.116                   0.441661       -0.896558
0.117                   0.433656       -0.900489
0.118                   0.425623       -0.904353
0.119                   0.417558       -0.908146
0.12                    0.409461       -0.911866
0.121                   0.401332       -0.915508
0.122                   0.393173       -0.919069
0.123                   0.384986       -0.922543
0.124                   0.376776        -0.92593
0.125                   0.368545       -0.929227
0.126                     0.3603       -0.932434
0.127                   0.352044       -0.935552
0.128                   0.343783       -0.938582
0.129                   0.335519       -0.941528
0.13                    0.327256       -0.944393
0.131                   0.318993       -0.947181
0.132                   0.310732       -0.949897
0.133                   0.302472       -0.952543
0.134                   0.294209       -0.955123
0.135                   0.285941       -0.957638
0.136                   0.277665       -0.960089
0.137                   0.269379       -0.962474
0.138                   0.261079       -0.964793
0.139                   0.252765       -0.967043
0.14                    0.244434        -0.96922
0.141                   0.236088        -0.97132
0.142                   0.227729       -0.973341
0.143                   0.219359       -0.975278
0.144                   0.210982       -0.977131
0.145                   0.202601       -0.978899
0.146                   0.194222        -0.98058
0.147                   0.185848       -0.982177
0.148                   0.177485       -0.983691
0.149                   0.169133       -0.985127
0.15                    0.160795       -0.986487
0.151                   0.152472       -0.987776
0.152                   0.144163       -0.988997
0.153                   0.135868       -0.990153
0.154                   0.127583       -0.991248
0.155                   0.119306       -0.992282
0.156                   0.111034       -0.993256
0.157                   0.102765       -0.994169
0.158                   0.094495       -0.995019
0.159                  0.0862234       -0.995803
0.16                   0.0779499       -0.996519
0.161                  0.0696754       -0.997162
0.162                  0.0614011       -0.997731
0.163                  0.0531297       -0.998223
0.164                  0.0448656       -0.998635
0.165                   0.036612       -0.998968
0.166                  0.0283724       -0.999222
0.167                  0.0201518       -0.999398
0.168                  0.0119527       -0.999499
0.169                 0.00377781       -0.999529
0.17                 -0.00437149        -0.99949
0.171                 -0.0124954       -0.999387
0.172                 -0.0205941       -0.999223
0.173                 -0.0286696       -0.999001
0.174                  -0.036724       -0.998723
0.175                 -0.0447604       -0.998391
0.176                 -0.0527818       -0.998004
0.177                 -0.0607903       -0.997561
0.178                 -0.0687884       -0.997061
0.179                 -0.0767773         -0.9965
0.18                  -0.0847563       -0.995876
0.181                 -0.0927252       -0.995186
0.182                  -0.100682       -0.994427
0.183                  -0.108624       -0.993597
0.184                  -0.116548       -0.992695
0.185                  -0.124449        -0.99172
0.186                  -0.132325       -0.990675
0.187                  -0.140171        -0.98956
0.188                  -0.147985       -0.988377
0.189                  -0.155765       -0.987132
0.19                    -0.16351       -0.985827
0.191                   -0.17122       -0.984465
0.192                  -0.178897       -0.983051
0.193                  -0.186542       -0.981586
0.194                  -0.194157       -0.980073
0.195                  -0.201747       -0.978512
0.196                  -0.209313       -0.976904
0.197                  -0.216858       -0.975245
0.198                  -0.224383       -0.973535
0.199                  -0.231891       -0.971771
0.2                    -0.239379       -0.969951
0.201                  -0.246847        -0.96807
0.202                  -0.254294       -0.966126
0.203                  -0.261715       -0.964119
0.204                  -0.269109       -0.962047
0.205                  -0.276469       -0.959911
0.206                  -0.283794       -0.957711
0.207                   -0.29108       -0.955449
0.208                  -0.298324        -0.95313
0.209                  -0.305526       -0.950756
0.21                   -0.312683       -0.948331
0.211                  -0.319798       -0.945859
0.212                   -0.32687       -0.943343
0.213                  -0.333904       -0.940784
0.214                    -0.3409       -0.938185
0.215                  -0.347863       -0.935546
0.216                  -0.354794       -0.932865
0.217                  -0.361696       -0.930142
0.218                   -0.36857       -0.927375
0.219                  -0.375417       -0.924559
0.22                   -0.382234       -0.921693
0.221                  -0.389021       -0.918773
0.222                  -0.395774       -0.915798
0.223                   -0.40249       -0.912766
0.224                  -0.409164       -0.909678
0.225                  -0.415791       -0.906535
0.226                  -0.422369       -0.903339
0.227                  -0.428892       -0.900094
0.228                  -0.435359       -0.896804
0.229                  -0.441768       -0.893475
0.23                   -0.448119       -0.890112
0.231                  -0.454413        -0.88672
0.232                  -0.460653       -0.883305
0.233                  -0.466841       -0.879869
0.234                  -0.472983       -0.876417
0.235                  -0.479083       -0.872949
0.236                  -0.485146       -0.869467
0.237                  -0.491176       -0.865969
0.238                  -0.497178       -0.862454
0.239                  -0.503153       -0.858918
0.24                   -0.509105       -0.855359
0.241                  -0.515034       -0.851773
0.242                  -0.520939       -0.848157
0.243                   -0.52682       -0.844507
0.244                  -0.532675       -0.840823
0.245                  -0.538502       -0.837103
0.246                  -0.544298       -0.833346
0.247                  -0.550061       -0.829552
0.248                  -0.555789       -0.825723
0.249                  -0.561481       -0.821861
0.25                   -0.567136       -0.817966
0.251                  -0.572755       -0.814041
0.252                  -0.578338       -0.810088
0.253                  -0.583887       -0.806107
0.254                  -0.589404       -0.802098
0.255                  -0.594889       -0.798061
0.256                  -0.600345       -0.793996
0.257                  -0.605772       -0.789899
0.258                  -0.611171        -0.78577
0.259                   -0.61654       -0.781606
0.26                    -0.62188       -0.777405
0.261                  -0.627186       -0.773164
0.262                  -0.632458       -0.768883
0.263                   -0.63769       -0.764562
0.264                   -0.64288       -0.760201
0.265                  -0.648024       -0.755801
0.266                  -0.653121       -0.751366
0.267                  -0.658167       -0.746899
0.268                  -0.663161       -0.742403
0.269                  -0.668104       -0.737882
0.27                   -0.672996        -0.73334
0.271                  -0.677839       -0.728781
0.272                  -0.682637       -0.724206
0.273                  -0.687391       -0.719618
0.274                  -0.692105       -0.715018
0.275                  -0.696784       -0.710404
0.276                  -0.701429       -0.705776
0.277                  -0.706044        -0.70113
0.278                  -0.710628       -0.696465
0.279                  -0.715182       -0.691778
0.28                   -0.719706       -0.687064
0.281                  -0.724198       -0.682322
0.282                  -0.728653       -0.677551
0.283                   -0.73307       -0.672749
0.284                  -0.737445       -0.667917
0.285                  -0.741774       -0.663057
0.286                  -0.746055       -0.658171
0.287                  -0.750286       -0.653262
0.288                  -0.754467       -0.648334
0.289                  -0.758596       -0.643393
0.29                   -0.762676        -0.63844
0.291                  -0.766709        -0.63348
0.292                  -0.770699       -0.628515
0.293                  -0.774649       -0.623546
0.294                  -0.778564       -0.618573
0.295                  -0.782446       -0.613595
0.296                  -0.786301        -0.60861
0.297                  -0.790128       -0.603615
0.298                  -0.793931       -0.598606
0.299                  -0.797708        -0.59358
0.3                    -0.801459       -0.588532
0.301                  -0.805181        -0.58346
0.302                   -0.80887       -0.578362
0.303                  -0.812522       -0.573237
0.304                  -0.816134       -0.568085
0.305                  -0.819702       -0.562909
0.306                  -0.823223       -0.557711
0.307                  -0.826694       -0.552496
0.308                  -0.830115       -0.547266
0.309                  -0.833487       -0.542028
0.31                    -0.83681       -0.536784
0.311                  -0.840089       -0.531538
0.312                  -0.843326       -0.526293
0.313                  -0.846528        -0.52105
0.314                  -0.849697       -0.515808
0.315                  -0.852838       -0.510565
0.316                  -0.855955       -0.505318
0.317                   -0.85905       -0.500064
0.318                  -0.862123       -0.494797
0.319                  -0.865174       -0.489514
0.32                     -0.8682       -0.484209
0.321                  -0.871199        -0.47888
0.322                  -0.874166       -0.473525
0.323                  -0.877095       -0.468142
0.324                  -0.879983       -0.462733
0.325                  -0.882824         -0.4573
0.326                  -0.885614       -0.451848
0.327                  -0.888351        -0.44638
0.328                  -0.891035       -0.440903
0.329                  -0.893666       -0.435421
0.33                   -0.896247       -0.429941
0.331                  -0.898782       -0.424465
0.332                  -0.901275       -0.418996
0.333                  -0.903733       -0.413536
0.334                  -0.906161       -0.408083
0.335                  -0.908564       -0.402635
0.336                  -0.910945       -0.397187
0.337                  -0.913308       -0.391735
0.338                  -0.915653       -0.386272
0.339                  -0.917978       -0.380793
0.34                   -0.920281       -0.375292
0.341                  -0.922557       -0.369765
0.342                  -0.924799       -0.364211
0.343                  -0.927002       -0.358628
0.344                  -0.929158       -0.353019
0.345                  -0.931263       -0.347387
0.346                  -0.933311       -0.341737
0.347                    -0.9353       -0.336076
0.348                   -0.93723       -0.330412
0.349                  -0.939102       -0.324751
0.35                   -0.940921       -0.319101
0.351                  -0.942692       -0.313464
0.352                  -0.944422       -0.307846
0.353                   -0.94612       -0.302245
0.354                  -0.947793        -0.29666
0.355                  -0.949448       -0.291086
0.356                  -0.951091       -0.285516
0.357                  -0.952723       -0.279943
0.358                  -0.954346       -0.274357
0.359                  -0.955957       -0.268749
0.36                   -0.957549       -0.263112
0.361                  -0.959116        -0.25744
0.362                  -0.960648        -0.25173
0.363                  -0.962135        -0.24598
0.364                  -0.963567       -0.240195
0.365                  -0.964934       -0.234379
0.366                  -0.966231       -0.228542
0.367                  -0.967453       -0.222693
0.368                    -0.9686       -0.216844
0.369                  -0.969676       -0.211005
0.37                   -0.970687       -0.205185
0.371                  -0.971643       -0.199392
0.372                  -0.972556       -0.193626
0.373                  -0.973437       -0.187888
0.374                  -0.974301       -0.182171
0.375                  -0.975155       -0.176463
0.376                  -0.976006       -0.170752
0.377                  -0.976857       -0.165019
0.378                  -0.977702       -0.159246
0.379                  -0.978532       -0.153415
0.38                   -0.979328       -0.147511
0.381                  -0.980069       -0.141521
0.382                  -0.980727        -0.13544
0.383                  -0.981273       -0.129271
0.384                  -0.981674       -0.123023
0.385                  -0.981901       -0.116715
0.386                  -0.981928       -0.110376
0.387                  -0.981734        -0.10404
0.388                  -0.981308      -0.0977511
0.389                  -0.980648      -0.0915539
0.39                   -0.979764      -0.0854956
0.391                  -0.978676      -0.0796228
0.392                  -0.977417      -0.0739776
0.393                  -0.976029      -0.0685943
0.394                  -0.974563      -0.0634986
0.395                  -0.973077      -0.0587038
0.396                  -0.971629      -0.0542101
0.397                  -0.970279      -0.0500045
0.398                  -0.969084      -0.0460603
0.399                  -0.968092      -0.0423391
0.4                    -0.967344      -0.0387913
0.401                  -0.966867      -0.0353597
0.402                  -0.966675      -0.0319829
0.403                   -0.96677      -0.0285982
0.404                  -0.967136       -0.025144
0.405                  -0.967748      -0.0215645
0.406                  -0.968567      -0.0178126
0.407                  -0.969547      -0.0138511
0.408                  -0.970635     -0.00965498
0.409                  -0.971776     -0.00521303
0.41                   -0.972915    -0.000525515
0.411                  -0.974001      0.00439436
0.412                  -0.974989      0.00952262
0.413                  -0.975843       0.0148279
0.414                  -0.976536       0.0202723
0.415                  -0.977053       0.0258158
0.416                  -0.977388       0.0314176
0.417                  -0.977544       0.0370394
0.418                  -0.977536       0.0426477
0.419                  -0.977381       0.0482154
0.42                   -0.977103       0.0537229
0.421                  -0.976728       0.0591581
0.422                  -0.976281       0.0645175
0.423                  -0.975785       0.0698032
0.424                  -0.975259       0.0750244
0.425                  -0.974717       0.0801931
0.426                  -0.974168       0.0853241
0.427                  -0.973614       0.0904332
0.428                  -0.973053       0.0955336
0.429                  -0.972478        0.100636
0.43                   -0.971879        0.105749
0.431                  -0.971245        0.110874
0.432                  -0.970562        0.116011
0.433                  -0.969821        0.121153
0.434                  -0.969013         0.12629
0.435                  -0.968133        0.131411
0.436                  -0.967181        0.136503
0.437                  -0.966159        0.141551
0.438                  -0.965074        0.146544
0.439                  -0.963938        0.151472
0.44                   -0.962762        0.156328
0.441                  -0.961561        0.161108
0.442                  -0.960348        0.165814
0.443                  -0.959138        0.170449
0.444                  -0.957942        0.175022
0.445                  -0.956768         0.17954
0.446                  -0.955624        0.184015
0.447                  -0.954512         0.18846
0.448                  -0.953431        0.192885
0.449                   -0.95238        0.197299
0.45                   -0.951353        0.201712
0.451                  -0.950344        0.206128
0.452                  -0.949348        0.210551
0.453                  -0.948357        0.214981
0.454                  -0.947368         0.21942
0.455                  -0.946376        0.223864
0.456                   -0.94538        0.228311
0.457                  -0.944379        0.232758
0.458                  -0.943377        0.237204
0.459                  -0.942374         0.24165
0.46                   -0.941374        0.246094
0.461                  -0.940381        0.250542
0.462                  -0.939397        0.254998
0.463                  -0.938422        0.259468
0.464                  -0.937456        0.263958
0.465                  -0.936494        0.268476
0.466                  -0.935533        0.273029
0.467                  -0.934565        0.277621
0.468                   -0.93358        0.282256
0.469                   -0.93257        0.286935
0.47                   -0.931523        0.291657
0.471                  -0.930431        0.296418
0.472                  -0.929285        0.301211
0.473                  -0.928078        0.306028
0.474                  -0.926806         0.31086
0.475                  -0.925469        0.315698
0.476                  -0.924066        0.320529
0.477                  -0.922602        0.325347
0.478                  -0.921082        0.330144
0.479                  -0.919514        0.334914
0.48                   -0.917905        0.339655
0.481                  -0.916263        0.344367
0.482                  -0.914595        0.349052
0.483                  -0.912907        0.353714
0.484                  -0.911202        0.358358
0.485                  -0.909481        0.362991
0.486                  -0.907744        0.367618
0.487                  -0.905989        0.372243
0.488                   -0.90421        0.376872
0.489                  -0.902403        0.381505
0.49                   -0.900561        0.386142
0.491                  -0.898678        0.390782
0.492                  -0.896752        0.395419
0.493                  -0.894777        0.400048
0.494                  -0.892754        0.404663
0.495                  -0.890684        0.409256
0.496                  -0.888569        0.413824
0.497                  -0.886415        0.418359
0.498                  -0.884228        0.422859
0.499                  -0.882014        0.427324
0.5                    -0.879781        0.431754
0.501                  -0.877535        0.436153
0.502                  -0.875281        0.440526
0.503                  -0.873021         0.44488
0.504                  -0.870756        0.449221
0.505                  -0.868485        0.453556
0.506                  -0.866205        0.457892
0.507                  -0.863908        0.462233
0.508                   -0.86159        0.466582
0.509                  -0.859243        0.470938
0.51                   -0.856858        0.475301
0.511                  -0.854432        0.479667
0.512                  -0.851958        0.484028
0.513                  -0.849436        0.488379
0.514                  -0.846864        0.492714
0.515                  -0.844246        0.497024
0.516                  -0.841584        0.501305
0.517                  -0.838885        0.505554
0.518                  -0.836156        0.509768
0.519                  -0.833402         0.51395
0.52                    -0.83063        0.518103
0.521                  -0.827843        0.522231
0.522                  -0.825043        0.526343
0.523                  -0.822229        0.530445
0.524                  -0.819398        0.534544
0.525                  -0.816544        0.538647
0.526                  -0.813657        0.542758
0.527                  -0.810728        0.546876
0.528                  -0.807748        0.551001
0.529                  -0.804704        0.555126
0.53                   -0.801591        0.559245
0.531                  -0.798401        0.563345
0.532                  -0.795131        0.567415
0.533                  -0.791783        0.571442
0.534                  -0.788361        0.575414
0.535                  -0.784871         0.57932
0.536                  -0.781325        0.583153
0.537                  -0.777732         0.58691
0.538                  -0.774105        0.590588
0.539                  -0.770454        0.594193
0.54                   -0.766786         0.59773
0.541                  -0.763108        0.601208
0.542                  -0.759417        0.604638
0.543                  -0.755711        0.608029
0.544                  -0.751979        0.611389
0.545                   -0.74821        0.614719
0.546                  -0.744387        0.618019
0.547                  -0.740495        0.621282
0.548                  -0.736517        0.624491
0.549                  -0.732442        0.627625
0.55                   -0.728264        0.630658
0.551                  -0.723983        0.633557
0.552                   -0.71961        0.636288
0.553                  -0.715164        0.638817
0.554                  -0.710676        0.641114
0.555                  -0.706186        0.643153
0.556                  -0.701742        0.644918
0.557                  -0.697398        0.646404
0.558                  -0.693212         0.64762
0.559                  -0.689242        0.648586
0.56                   -0.685541        0.649339
0.561                  -0.682156        0.649929
0.562                  -0.679122        0.650416
0.563                  -0.676461        0.650869
0.564                  -0.674179        0.651362
0.565                  -0.672267        0.651973
0.566                  -0.670696        0.652772
0.567                  -0.669424        0.653827
0.568                  -0.668391        0.655193
0.569                  -0.667531        0.656911
0.57                   -0.666768        0.659005
0.571                  -0.666022        0.661483
0.572                  -0.665217        0.664336
0.573                  -0.664279        0.667538
0.574                  -0.663145        0.671047
0.575                  -0.661765        0.674811
0.576                  -0.660101        0.678769
0.577                  -0.658131        0.682856
0.578                  -0.655849        0.687008
0.579                  -0.653263        0.691161
0.58                   -0.650395        0.695262
0.581                  -0.647275        0.699265
0.582                   -0.64394        0.703135
0.583                  -0.640433         0.70685
0.584                  -0.636793        0.710397
0.585                  -0.633059        0.713777
0.586                  -0.629264        0.716996
0.587                  -0.625434        0.720069
0.588                  -0.621585        0.723012
0.589                  -0.617729        0.725844
0.59                   -0.613866        0.728579
0.591                  -0.609994        0.731228
0.592                  -0.606106        0.733797
0.593                  -0.602195        0.736284
0.594                  -0.598252        0.738683
0.595                  -0.594276         0.74098
0.596                   -0.59027        0.743159
0.597                  -0.586243          0.7452
0.598                  -0.582213        0.747087
0.599                  -0.578206        0.748806
0.6                    -0.574251        0.750347
0.601                  -0.570384         0.75171
0.602                  -0.566644        0.752903
0.603                  -0.563067        0.753946
0.604                  -0.559687        0.754866
0.605                  -0.556533        0.755701
0.606                  -0.553623        0.756496
0.607                  -0.550966        0.757299
0.608                   -0.54856        0.758164
0.609                   -0.54639        0.759139
0.61                   -0.544429        0.760272
0.611                  -0.542642        0.761603
0.612                  -0.540985        0.763161
0.613                  -0.539408        0.764967
0.614                  -0.537858        0.767028
0.615                  -0.536286        0.769341
0.616                  -0.534642        0.771891
0.617                  -0.532883        0.774653
0.618                  -0.530976        0.777595
0.619                  -0.528896        0.780679
0.62                   -0.526628        0.783864
0.621                  -0.524165        0.787111
0.622                  -0.521513        0.790382
0.623                  -0.518684        0.793642
0.624                  -0.515695        0.796866
0.625                  -0.512566        0.800033
0.626                  -0.509323         0.80313
0.627                  -0.505987         0.80615
0.628                   -0.50258        0.809093
0.629                  -0.499118        0.811964
0.63                   -0.495615        0.814771
0.631                  -0.492079        0.817523
0.632                  -0.488514         0.82023
0.633                   -0.48492        0.822898
0.634                  -0.481293        0.825535
0.635                   -0.47763        0.828142
0.636                  -0.473924        0.830718
0.637                  -0.470172        0.833259
0.638                  -0.466371        0.835759
0.639                  -0.462522         0.83821
0.64                   -0.458628        0.840604
0.641                  -0.454694        0.842933
0.642                  -0.450729        0.845191
0.643                  -0.446745        0.847375
0.644                  -0.442752        0.849483
0.645                  -0.438762        0.851519
0.646                  -0.434785        0.853488
0.647                   -0.43083        0.855399
0.648                  -0.426902        0.857262
0.649                  -0.423004        0.859087
0.65                   -0.419136        0.860886
0.651                  -0.415291        0.862668
0.652                  -0.411466        0.864441
0.653                  -0.407651        0.866209
0.654                  -0.403838        0.867975
0.655                  -0.400019        0.869736
0.656                  -0.396187        0.871488
0.657                  -0.392336        0.873225
0.658                  -0.388465         0.87494
0.659                  -0.384575        0.876624
0.66                    -0.38067        0.878269
0.661                  -0.376757         0.87987
0.662                  -0.372845        0.881424
0.663                  -0.368942        0.882931
0.664                   -0.36506        0.884393
0.665                  -0.361207        0.885816
0.666                   -0.35739        0.887211
0.667                  -0.353612        0.888586
0.668                  -0.349876        0.889955
0.669                  -0.346177         0.89133
0.67                   -0.342511        0.892721
0.671                  -0.338868        0.894136
0.672                  -0.335237        0.895583
0.673                  -0.331605        0.897064
0.674                  -0.327962        0.898577
0.675                  -0.324295        0.900119
0.676                  -0.320595        0.901682
0.677                  -0.316855        0.903257
0.678                  -0.313073        0.904834
0.679                  -0.309247        0.906401
0.68                   -0.305381         0.90795
0.681                  -0.301482        0.909473
0.682                  -0.297557        0.910964
0.683                  -0.293615        0.912423
0.684                  -0.289663        0.913851
0.685                  -0.285711        0.915253
0.686                  -0.281761        0.916635
0.687                  -0.277816        0.918006
0.688                  -0.273876        0.919376
0.689                  -0.269934        0.920753
0.69                   -0.265984        0.922144
0.691                  -0.262015        0.923553
0.692                  -0.258014        0.924981
0.693                   -0.25397        0.926425
0.694                  -0.249872        0.927877
0.695                   -0.24571        0.929328
0.696                  -0.241478        0.930764
0.697                  -0.237173        0.932172
0.698                  -0.232799        0.933535
0.699                  -0.228362         0.93484
0.7                    -0.223871        0.936075
0.701                   -0.21934        0.937233
0.702                  -0.214784        0.938308
0.703                  -0.210219        0.939302
0.704                  -0.205658         0.94022
0.705                  -0.201114        0.941072
0.706                  -0.196595        0.941871
0.707                  -0.192104        0.942634
0.708                  -0.187639        0.943375
0.709                  -0.183193        0.944111
0.71                   -0.178752        0.944852
0.711                  -0.174299        0.945608
0.712                  -0.169815         0.94638
0.713                  -0.165277        0.947164
0.714                  -0.160664        0.947948
0.715                  -0.155959        0.948716
0.716                  -0.151147        0.949443
0.717                  -0.146221        0.950101
0.718                  -0.141181        0.950657
0.719                  -0.136034         0.95108
0.72                   -0.130797        0.951336
0.721                  -0.125495        0.951399
0.722                   -0.12016        0.951244
0.723                   -0.11483        0.950855
0.724                  -0.109547        0.950225
0.725                  -0.104357        0.949356
0.726                 -0.0993038        0.948258
0.727                 -0.0944301        0.946954
0.728                 -0.0897726        0.945474
0.729                 -0.0853641        0.943856
0.73                  -0.0812277        0.942145
0.731                 -0.0773773        0.940389
0.732                 -0.0738175        0.938639
0.733                 -0.0705424        0.936949
0.734                 -0.0675365        0.935368
0.735                  -0.064775        0.933942
0.736                 -0.0622238        0.932714
0.737                 -0.0598417        0.931717
0.738                 -0.0575829        0.930978
0.739                 -0.0553947        0.930516
0.74                  -0.0532226        0.930339
0.741                 -0.0510116        0.930445
0.742                 -0.0487072        0.930822
0.743                 -0.0462551        0.931451
0.744                 -0.0436062        0.932299
0.745                 -0.0407169        0.933326
0.746                   -0.03755        0.934484
0.747                 -0.0340771        0.935718
0.748                 -0.0302802        0.936965
0.749                 -0.0261511         0.93816
0.75                  -0.0216955        0.939235
0.751                  -0.016932         0.94012
0.752                 -0.0118926         0.94075
0.753                -0.00662315        0.941064
0.754                -0.00118162         0.94101
0.755                 0.00436235        0.940543
0.756                 0.00992868        0.939637
0.757                  0.0154302        0.938278
0.758                  0.0207767        0.936469
0.759                  0.0258774        0.934235
0.76                   0.0306457        0.931617
0.761                  0.0350011        0.928676
0.762                  0.0388774        0.925488
0.763                  0.0422234        0.922146
0.764                  0.0450058        0.918751
0.765                  0.0472136        0.915413
0.766                  0.0488589        0.912243
0.767                   0.049976        0.909348
0.768                  0.0506216        0.906828
0.769                   0.050872         0.90477
0.77                   0.0508209        0.903242
0.771                  0.0505743        0.902295
0.772                  0.0502464        0.901952
0.773                  0.0499526        0.902217
0.774                  0.0498071        0.903065
0.775                  0.0499143        0.904454
0.776                  0.0503662        0.906316
0.777                   0.051237        0.908572
0.778                  0.0525831        0.911128
0.779                  0.0544371        0.913883
0.78                   0.0568101        0.916736
0.781                  0.0596929        0.919589
0.782                  0.0630543        0.922352
0.783                   0.066848        0.924945
0.784                  0.0710158        0.927305
0.785                  0.0754888        0.929385
0.786                   0.080195        0.931157
0.787                  0.0850622        0.932609
0.788                   0.090024        0.933746
0.789                  0.0950191        0.934586
0.79                   0.0999982        0.935157
0.791                   0.104923        0.935497
0.792                   0.109768        0.935644
0.793                    0.11452         0.93564
0.794                   0.119177        0.935522
0.795                   0.123746        0.935322
0.796                   0.128241        0.935065
0.797                   0.132679        0.934768
0.798                    0.13708         0.93444
0.799                   0.141461        0.934082
0.8                     0.145837        0.933688
0.801                   0.150218        0.933248
0.802                   0.154608        0.932748
0.803                   0.159006        0.932173
0.804                   0.163401        0.931512
0.805                   0.167782        0.930754
0.806                   0.172131        0.929895
0.807                   0.176431        0.928934
0.808                   0.180661        0.927876
0.809                   0.184805        0.926732
0.81                    0.188847        0.925519
0.811                   0.192777        0.924254
0.812                   0.196588        0.922959
0.813                    0.20028        0.921657
0.814                   0.203857        0.920368
0.815                   0.207328        0.919111
0.816                   0.210705        0.917904
0.817                   0.214002        0.916759
0.818                   0.217237        0.915685
0.819                   0.220425        0.914687
0.82                    0.223583        0.913766
0.821                   0.226724        0.912921
0.822                   0.229863        0.912149
0.823                   0.233008        0.911445
0.824                   0.236167        0.910803
0.825                   0.239348        0.910219
0.826                   0.242555        0.909688
0.827                   0.245793        0.909206
0.828                   0.249066         0.90877
0.829                   0.252379        0.908379
0.83                    0.255737         0.90803
0.831                   0.259148        0.907721
0.832                   0.262618        0.907449
0.833                   0.266157        0.907207
0.834                   0.269771         0.90699
0.835                   0.273471        0.906788
0.836                    0.27726         0.90659
0.837                   0.281145        0.906381
0.838                   0.285127        0.906148
0.839                   0.289204        0.905875
0.84                    0.293373        0.905547
0.841                   0.297625        0.905149
0.842                   0.301949         0.90467
0.843                   0.306332        0.904099
0.844                   0.310759        0.903431
0.845                   0.315215        0.902663
0.846                   0.319684        0.901797
0.847                   0.324153        0.900837
0.848                   0.328611         0.89979
0.849                   0.333047        0.898665
0.85                    0.337457        0.897475
0.851                   0.341838        0.896229
0.852                   0.346192        0.894937
0.853                   0.350523        0.893608
0.854                   0.354835        0.892249
0.855                   0.359135        0.890862
0.856                   0.363431        0.889448
0.857                   0.367729        0.888005
0.858                   0.372033         0.88653
0.859                   0.376346        0.885015
0.86                    0.380669        0.883456
0.861                      0.385        0.881845
0.862                   0.389333        0.880178
0.863                   0.393664         0.87845
0.864                   0.397984        0.876659
0.865                   0.402286        0.874808
0.866                   0.406564        0.872897
0.867                   0.410811        0.870934
0.868                   0.415023        0.868924
0.869                   0.419198        0.866875
0.87                    0.423338        0.864795
0.871                   0.427445         0.86269
0.872                   0.431524        0.860566
0.873                   0.435581        0.858427
0.874                   0.439625        0.856275
0.875                   0.443662        0.854107
0.876                   0.447698        0.851921
0.877                   0.451739        0.849713
0.878                   0.455787        0.847475
0.879                   0.459845        0.845202
0.88                    0.463911        0.842886
0.881                   0.467984        0.840522
0.882                    0.47206        0.838107
0.883                   0.476135        0.835635
0.884                   0.480206        0.833107
0.885                   0.484271        0.830522
0.886                   0.488328        0.827878
0.887                   0.492377        0.825177
0.888                    0.49642        0.822415
0.889                    0.50046         0.81959
0.89                      0.5045        0.816694
0.891                    0.50854        0.813719
0.892                   0.512581        0.810651
0.893                   0.516618        0.807476
0.894                    0.52064        0.804176
0.895                   0.524634        0.800735
0.896                   0.528577        0.797139
0.897                   0.532441        0.793375
0.898                   0.536192        0.789439
0.899                   0.539791        0.785334
0.9                     0.543197        0.781075
0.901                   0.546372        0.776686
0.902                   0.549278        0.772202
0.903                   0.551887        0.767672
0.904                    0.55418        0.763152
0.905                   0.556153        0.758706
0.906                   0.557815        0.754401
0.907                   0.559197        0.750304
0.908                   0.560343        0.746476
0.909                   0.561315        0.742967
0.91                     0.56219        0.739814
0.911                   0.563055        0.737034
0.912                   0.564001        0.734622
0.913                   0.565121        0.732549
0.914                     0.5665        0.730764
0.915                   0.568211        0.729192
0.916                   0.570307        0.727738
0.917                    0.57282        0.726296
0.918                    0.57575        0.724747
0.919                   0.579072        0.722974
0.92                    0.582726        0.720867
0.921                   0.586627        0.718327
0.922                   0.590663         0.71528
0.923                   0.594702        0.711679
0.924                   0.598603        0.707509
0.925                   0.602218        0.702791
0.926                   0.605405        0.697584
0.927                   0.608037        0.691982
0.928                   0.610011        0.686106
0.929                   0.611253        0.680107
0.93                    0.611725         0.67415
0.931                   0.611431        0.668407
0.932                   0.610415         0.66305
0.933                   0.608759        0.658237
0.934                   0.606582        0.654103
0.935                   0.604035        0.650755
0.936                   0.601286        0.648263
0.937                   0.598517        0.646656
0.938                   0.595913        0.645922
0.939                   0.593648        0.646005
0.94                    0.591881        0.646816
0.941                   0.590743         0.64823
0.942                   0.590333        0.650099
0.943                   0.590713        0.652261
0.944                   0.591906        0.654545
0.945                   0.593897        0.656786
0.946                   0.596636         0.65883
0.947                   0.600039        0.660543
0.948                   0.604002        0.661817
0.949                   0.608403        0.662577
0.95                     0.61311        0.662777
0.951                   0.617994        0.662405
0.952                   0.622933         0.66148
0.953                    0.62782        0.660043
0.954                   0.632568        0.658158
0.955                   0.637113        0.655901
0.956                   0.641415        0.653354
0.957                    0.64546          0.6506
0.958                   0.649254        0.647714
0.959                   0.652821        0.644757
0.96                    0.656197        0.641779
0.961                   0.659426        0.638809
0.962                   0.662553        0.635859
0.963                    0.66562        0.632926
0.964                    0.66866        0.629991
0.965                   0.671693        0.627028
0.966                   0.674728        0.624004
0.967                   0.677756        0.620886
0.968                   0.680759        0.617646
0.969                   0.683703        0.614263
0.97                    0.686552        0.610729
0.971                    0.68926        0.607047
0.972                   0.691786        0.603235
0.973                   0.694092        0.599326
0.974                   0.696149        0.595361
0.975                   0.697939         0.59139
0.976                   0.699458        0.587471
0.977                   0.700715        0.583658
0.978                   0.701735        0.580005
0.979                   0.702553        0.576557
0.98                    0.703217        0.573351
0.981                    0.70378         0.57041
0.982                   0.704299        0.567744
0.983                   0.704829        0.565351
0.984                   0.705423        0.563214
0.985                   0.706127        0.561307
0.986                   0.706979        0.559595
0.987                   0.708003        0.558039
0.988                   0.709217        0.556596
0.989                   0.710625        0.555224
0.99                    0.712223        0.553886
0.991                      0.714        0.552547
0.992                    0.71594        0.551182
0.993                   0.718022        0.549771
0.994                   0.720229        0.548301
0.995                   0.722541        0.546766
0.996                   0.724942        0.545163
0.997                   0.727421        0.543493
0.998                   0.729971        0.541758
0.999                   0.732587        0.539959
1                       0.735268        0.538095
1.001                   0.738014        0.536163
1.002                   0.740825        0.534157
1.003                   0.743699        0.532067
1.004                   0.746633        0.529882
1.005                   0.749619         0.52759
1.006                   0.752643        0.525178
1.007                   0.755691        0.522636
1.008                   0.758741         0.51996
1.009                   0.761773        0.517147
1.01                    0.764764        0.514201
1.011                   0.767692        0.511133
1.012                   0.770538        0.507958
1.013                   0.773288        0.504696
1.014                   0.775934         0.50137
1.015                   0.778473        0.498004
1.016                    0.78091        0.494621
1.017                   0.783256        0.491242
1.018                   0.785526        0.487884
1.019                    0.78774        0.484557
1.02                    0.789918        0.481264
1.021                   0.792082        0.478003
1.022                   0.794249        0.474764
1.023                   0.796432        0.471533
1.024                   0.798639        0.468291
1.025                   0.800872         0.46502
1.026                   0.803123          0.4617
1.027                    0.80538        0.458315
1.028                   0.807627        0.454854
1.029                   0.809843        0.451313
1.03                    0.812005        0.447694
1.031                   0.814094        0.444006
1.032                   0.816092        0.440265
1.033                   0.817988        0.436491
1.034                   0.819777        0.432708
1.035                   0.821461        0.428942
1.036                   0.823051        0.425216
1.037                   0.824563        0.421549
1.038                    0.82602        0.417954
1.039                   0.827448        0.414439
1.04                    0.828873           0.411
1.041                   0.830318         0.40763
1.042                   0.831805         0.40431
1.043                   0.833348        0.401019
1.044                   0.834952        0.397731
1.045                   0.836617        0.394423
1.046                   0.838332        0.391068
1.047                   0.840081        0.387651
1.048                   0.841842        0.384157
1.049                   0.843591        0.380584
1.05                    0.845303        0.376936
1.051                   0.846959        0.373227
1.052                   0.848543        0.369475
1.053                    0.85005        0.365705
1.054                   0.851481        0.361941
1.055                   0.852849        0.358208
1.056                   0.854175        0.354524
1.057                   0.855487        0.350898
1.058                   0.856817         0.34733
1.059                   0.858196        0.343809
1.06                    0.859653         0.34031
1.061                    0.86121          0.3368
1.062                   0.862876        0.333234
1.063                   0.864647        0.329566
1.064                   0.866505        0.325749
1.065                   0.868413        0.321738
1.066                   0.870323          0.3175
1.067                   0.872174        0.313016
1.068                   0.873897        0.308285
1.069                   0.875424        0.303324
1.07                    0.876688        0.298173
1.071                   0.877635         0.29289
1.072                   0.878225        0.287549
1.073                   0.878441        0.282237
1.074                    0.87829        0.277046
1.075                   0.877805        0.272065
1.076                   0.877044        0.267375
1.077                   0.876088        0.263038
1.078                   0.875036        0.259093
1.079                   0.873996        0.255554
1.08                    0.873081        0.252398
1.081                   0.872396        0.249575
1.082                   0.872029        0.247002
1.083                   0.872046        0.244572
1.084                   0.872481         0.24216
1.085                   0.873332        0.239633
1.086                   0.874559        0.236856
1.087                   0.876083        0.233708
1.088                   0.877791         0.23009
1.089                   0.879543        0.225934
1.09                     0.88118        0.221212
1.091                   0.882534        0.215938
1.092                    0.88344        0.210175
1.093                   0.883752        0.204028
1.094                   0.883351        0.197642
1.095                   0.882156        0.191194
1.096                   0.880134        0.184881
1.097                   0.877299        0.178907
1.098                   0.873723        0.173472
1.099                   0.869524        0.168757
1.1                     0.864864        0.164911
1.101                   0.859941         0.16204
1.102                   0.854977        0.160201
1.103                     0.8502        0.159396
1.104                   0.845836         0.15957
1.105                   0.842093        0.160619
1.106                   0.839148        0.162391
1.107                   0.837134        0.164696
1.108                    0.83614        0.167321
1.109                   0.836198         0.17004
1.11                     0.83729        0.172628
1.111                   0.839343        0.174877
1.112                   0.842245        0.176603
1.113                   0.845843        0.177659
1.114                   0.849963        0.177941
1.115                   0.854417        0.177391
1.116                   0.859017        0.175998
1.117                   0.863586        0.173793
1.118                   0.867968        0.170846
1.119                   0.872037        0.167255
1.12                      0.8757        0.163139
1.121                   0.878902        0.158626
1.122                   0.881622        0.153839
1.123                   0.883872        0.148896
1.124                   0.885686        0.143893
1.125                   0.887119        0.138905
1.126                   0.888236         0.13398
1.127                     0.8891        0.129143
1.128                   0.889769        0.124393
1.129                   0.890287        0.119713
1.13                    0.890681        0.115076
1.131                   0.890956        0.110449
1.132                   0.891101        0.105802
1.133                   0.891086        0.101116
1.134                    0.89087        0.096387
1.135                   0.890406       0.0916303
1.136                    0.88965       0.0868813
1.137                   0.888564       0.0821951
1.138                   0.887126       0.0776436
1.139                   0.885335       0.0733097
1.14                    0.883213       0.0692814
1.141                   0.880809       0.0656441
1.142                   0.878194        0.062473
1.143                   0.875462       0.0598261
1.144                   0.872722       0.0577383
1.145                   0.870094       0.0562171
1.146                   0.867698       0.0552403
1.147                   0.865649       0.0547567
1.148                   0.864047       0.0546879
1.149                   0.862971       0.0549333
1.15                    0.862475        0.055376
1.151                   0.862583       0.0558904
1.152                   0.863288       0.0563499
1.153                   0.864555       0.0566353
1.154                   0.866323       0.0566412
1.155                   0.868508       0.0562827
1.156                   0.871013       0.0554993
1.157                   0.873735        0.054257
1.158                   0.876568       0.0525488
1.159                   0.879415       0.0503924
1.16                    0.882191        0.047827
1.161                   0.884829       0.0449077
1.162                   0.887282       0.0416999
1.163                   0.889525       0.0382726
1.164                   0.891552       0.0346928
1.165                   0.893374       0.0310193
1.166                   0.895019       0.0272993
1.167                   0.896521       0.0235654
1.168                   0.897917       0.0198343
1.169                   0.899246       0.0161079
1.17                    0.900536       0.0123749
1.171                    0.90181      0.00861434
1.172                   0.903077       0.0047998
1.173                   0.904334     0.000903547
1.174                   0.905565     -0.00309894
1.175                   0.906746      -0.0072253
1.176                   0.907846      -0.0114834
1.177                    0.90883      -0.0158698
1.178                   0.909665      -0.0203691
1.179                   0.910321      -0.0249555
1.18                     0.91078      -0.0295942
1.181                    0.91103      -0.0342451
1.182                   0.911073       -0.038866
1.183                   0.910924      -0.0434167
1.184                   0.910607      -0.0478623
1.185                   0.910154      -0.0521765
1.186                   0.909603      -0.0563434
1.187                   0.908994      -0.0603585
1.188                   0.908363      -0.0642286
1.189                   0.907745      -0.0679705
1.19                    0.907162      -0.0716082
1.191                    0.90663      -0.0751705
1.192                   0.906153       -0.078687
1.193                   0.905725      -0.0821849
1.194                   0.905332      -0.0856858
1.195                   0.904953      -0.0892034
1.196                   0.904567      -0.0927417
1.197                    0.90415      -0.0962954
1.198                   0.903686        -0.09985
1.199                   0.903163       -0.103384
1.2                     0.902579       -0.106872
1.201                   0.901943       -0.110288
1.202                   0.901274       -0.113608
1.203                     0.9006       -0.116814
1.204                   0.899954         -0.1199
1.205                   0.899376       -0.122868
1.206                   0.898903       -0.125733
1.207                   0.898567       -0.128523
1.208                   0.898395       -0.131276
1.209                   0.898401       -0.134036
1.21                    0.898586       -0.136854
1.211                   0.898937       -0.139778
1.212                   0.899427       -0.142853
1.213                   0.900018       -0.146114
1.214                   0.900662       -0.149587
1.215                   0.901306       -0.153281
1.216                   0.901897       -0.157191
1.217                   0.902385       -0.161298
1.218                    0.90273       -0.165567
1.219                   0.902903       -0.169956
1.22                    0.902888       -0.174416
1.221                   0.902688       -0.178898
1.222                   0.902319       -0.183356
1.223                    0.90181       -0.187753
1.224                   0.901202       -0.192065
1.225                   0.900539       -0.196281
1.226                   0.899867        -0.20041
1.227                   0.899228       -0.204473
1.228                   0.898651       -0.208508
1.229                   0.898155       -0.212561
1.23                    0.897738       -0.216683
1.231                   0.897383       -0.220927
1.232                   0.897054       -0.225337
1.233                     0.8967       -0.229947
1.234                   0.896258       -0.234775
1.235                   0.895659       -0.239818
1.236                   0.894836       -0.245052
1.237                   0.893727       -0.250433
1.238                   0.892282       -0.255898
1.239                   0.890473        -0.26137
1.24                    0.888291       -0.266763
1.241                   0.885753        -0.27199
1.242                   0.882902        -0.27697
1.243                   0.879801       -0.281635
1.244                   0.876532       -0.285938
1.245                   0.873191       -0.289853
1.246                   0.869874       -0.293385
1.247                   0.866678       -0.296567
1.248                   0.863685       -0.299456
1.249                   0.860958       -0.302133
1.25                    0.858535       -0.304697
1.251                   0.856424       -0.307254
1.252                     0.8546       -0.309909
1.253                   0.853009       -0.312757
1.254                   0.851567       -0.315876
1.255                    0.85017       -0.319319
1.256                   0.848699       -0.323104
1.257                   0.847032       -0.327216
1.258                    0.84505       -0.331603
1.259                   0.842652       -0.336181
1.26                    0.839759       -0.340834
1.261                   0.836328       -0.345429
1.262                   0.832351       -0.349816
1.263                   0.827859       -0.353848
1.264                   0.822925       -0.357385
1.265                   0.817657       -0.360307
1.266                   0.812195       -0.362524
1.267                   0.806697       -0.363981
1.268                   0.801335       -0.364663
1.269                   0.796283       -0.364601
1.27                    0.791702       -0.363864
1.271                   0.787734        -0.36256
1.272                   0.784492       -0.360829
1.273                   0.782053       -0.358832
1.274                   0.780453       -0.356742
1.275                   0.779689       -0.354738
1.276                   0.779716       -0.352987
1.277                   0.780453        -0.35164
1.278                   0.781792       -0.350825
1.279                   0.783599       -0.350637
1.28                    0.785729       -0.351138
1.281                   0.788032       -0.352356
1.282                   0.790362       -0.354282
1.283                   0.792584       -0.356881
1.284                   0.794583       -0.360092
1.285                   0.796264       -0.363834
1.286                   0.797556       -0.368017
1.287                   0.798415       -0.372545
1.288                   0.798815       -0.377325
1.289                   0.798753        -0.38227
1.29                    0.798238       -0.387303
1.291                    0.79729       -0.392359
1.292                   0.795934       -0.397385
1.293                   0.794196       -0.402339
1.294                     0.7921       -0.407188
1.295                   0.789665       -0.411902
1.296                   0.786907       -0.416453
1.297                   0.783839       -0.420813
1.298                   0.780471       -0.424947
1.299                   0.776817       -0.428816
1.3                     0.772896       -0.432372
1.301                   0.768736       -0.435567
1.302                   0.764377       -0.438346
1.303                   0.759876       -0.440659
1.304                   0.755304       -0.442462
1.305                   0.750745       -0.443721
1.306                   0.746298       -0.444421
1.307                    0.74207       -0.444564
1.308                    0.73817        -0.44418
1.309                   0.734707        -0.44332
1.31                    0.731776       -0.442064
1.311                   0.729461       -0.440512
1.312                    0.72782       -0.438784
1.313                   0.726888       -0.437015
1.314                   0.726666       -0.435343
1.315                   0.727125       -0.433909
1.316                   0.728208       -0.432844
1.317                   0.729826       -0.432262
1.318                   0.731869       -0.432256
1.319                    0.73421       -0.432889
1.32                    0.736711       -0.434196
1.321                   0.739233       -0.436179
1.322                   0.741644       -0.438807
1.323                   0.743825       -0.442022
1.324                   0.745678       -0.445744
1.325                   0.747128       -0.449875
1.326                   0.748129       -0.454305
1.327                   0.748663       -0.458926
1.328                   0.748738       -0.463633
1.329                   0.748387       -0.468331
1.33                     0.74766       -0.472944
1.331                   0.746622       -0.477417
1.332                   0.745342       -0.481715
1.333                    0.74389       -0.485825
1.334                   0.742331       -0.489755
1.335                   0.740715       -0.493528
1.336                   0.739083       -0.497179
1.337                   0.737454        -0.50075
1.338                   0.735833       -0.504281
1.339                    0.73421        -0.50781
1.34                    0.732559       -0.511362
1.341                    0.73085       -0.514954
1.342                   0.729046       -0.518584
1.343                   0.727113        -0.52224
1.344                    0.72502       -0.525893
1.345                   0.722751       -0.529505
1.346                   0.720297        -0.53303
1.347                   0.717669        -0.53642
1.348                   0.714889       -0.539629
1.349                   0.711996       -0.542617
1.35                    0.709038       -0.545357
1.351                   0.706071       -0.547832
1.352                   0.703157       -0.550043
1.353                   0.700354       -0.552006
1.354                   0.697717       -0.553753
1.355                   0.695289       -0.555327
1.356                   0.693103       -0.556783
1.357                   0.691174       -0.558181
1.358                   0.689506       -0.559582
1.359                   0.688083       -0.561044
1.36                    0.686879        -0.56262
1.361                   0.685854        -0.56435
1.362                   0.684963       -0.566265
1.363                   0.684158       -0.568379
1.364                   0.683388       -0.570697
1.365                   0.682609       -0.573206
1.366                   0.681784       -0.575888
1.367                   0.680884       -0.578716
1.368                   0.679891       -0.581658
1.369                   0.678799       -0.584683
1.37                    0.677609       -0.587763
1.371                   0.676333       -0.590874
1.372                   0.674986          -0.594
1.373                   0.673586       -0.597135
1.374                   0.672152       -0.600279
1.375                   0.670698        -0.60344
1.376                   0.669233       -0.606634
1.377                   0.667759       -0.609877
1.378                   0.666269       -0.613187
1.379                   0.664751        -0.61658
1.38                    0.663183       -0.620066
1.381                   0.661541       -0.623651
1.382                   0.659799       -0.627329
1.383                   0.657931       -0.631088
1.384                   0.655916       -0.634908
1.385                   0.653737        -0.63876
1.386                   0.651387       -0.642614
1.387                   0.648867       -0.646437
1.388                   0.646189       -0.650195
1.389                   0.643372       -0.653862
1.39                    0.640445       -0.657417
1.391                   0.637439       -0.660848
1.392                   0.634388       -0.664153
1.393                   0.631327       -0.667341
1.394                   0.628283       -0.670431
1.395                   0.625277       -0.673451
1.396                   0.622321       -0.676432
1.397                   0.619416        -0.67941
1.398                   0.616549       -0.682419
1.399                     0.6137       -0.685487
1.4                     0.610836       -0.688636
1.401                   0.607921       -0.691878
1.402                   0.604912       -0.695212
1.403                    0.60177       -0.698622
1.404                   0.598458       -0.702085
1.405                   0.594948       -0.705561
1.406                   0.591223       -0.709006
1.407                   0.587278       -0.712371
1.408                   0.583125       -0.715604
1.409                   0.578787       -0.718659
1.41                    0.574302       -0.721496
1.411                   0.569716       -0.724087
1.412                   0.565084       -0.726417
1.413                   0.560462       -0.728487
1.414                   0.555905       -0.730313
1.415                    0.55146       -0.731927
1.416                   0.547166       -0.733371
1.417                   0.543046       -0.734698
1.418                   0.539108       -0.735967
1.419                   0.535342       -0.737234
1.42                    0.531723       -0.738552
1.421                   0.528209       -0.739965
1.422                   0.524747       -0.741502
1.423                   0.521277       -0.743176
1.424                   0.517734       -0.744983
1.425                   0.514058       -0.746899
1.426                   0.510195       -0.748879
1.427                   0.506102       -0.750868
1.428                   0.501756       -0.752795
1.429                    0.49715       -0.754583
1.43                    0.492299       -0.756153
1.431                   0.487242       -0.757429
1.432                   0.482034       -0.758346
1.433                   0.476749       -0.758851
1.434                   0.471475       -0.758911
1.435                   0.466307       -0.758513
1.436                   0.461343       -0.757668
1.437                   0.456681        -0.75641
1.438                   0.452406       -0.754795
1.439                   0.448593       -0.752898
1.44                    0.445299        -0.75081
1.441                   0.442559       -0.748634
1.442                   0.440386       -0.746478
1.443                    0.43877       -0.744451
1.444                   0.437678       -0.742659
1.445                   0.437055       -0.741198
1.446                   0.436829       -0.740148
1.447                   0.436914       -0.739578
1.448                   0.437212       -0.739531
1.449                   0.437619       -0.740037
1.45                    0.438029       -0.741099
1.451                   0.438341       -0.742703
1.452                   0.438457       -0.744818
1.453                   0.438289       -0.747393
1.454                   0.437762       -0.750364
1.455                   0.436811       -0.753659
1.456                   0.435391       -0.757192
1.457                   0.433467       -0.760877
1.458                   0.431024       -0.764621
1.459                    0.42806       -0.768333
1.46                    0.424588       -0.771923
1.461                   0.420636       -0.775303
1.462                   0.416243       -0.778394
1.463                   0.411464       -0.781121
1.464                   0.406362       -0.783421
1.465                   0.401012       -0.785239
1.466                   0.395497       -0.786534
1.467                   0.389907       -0.787277
1.468                   0.384337       -0.787455
1.469                   0.378886       -0.787071
1.47                    0.373652       -0.786145
1.471                    0.36873       -0.784714
1.472                   0.364209       -0.782832
1.473                   0.360169       -0.780571
1.474                   0.356677       -0.778018
1.475                   0.353783        -0.77527
1.476                   0.351519       -0.772438
1.477                   0.349896       -0.769634
1.478                   0.348903       -0.766975
1.479                   0.348507       -0.764574
1.48                    0.348651       -0.762535
1.481                    0.34926       -0.760952
1.482                   0.350241       -0.759899
1.483                   0.351488       -0.759432
1.484                   0.352887       -0.759585
1.485                    0.35432       -0.760365
1.486                   0.355671       -0.761757
1.487                   0.356832       -0.763724
1.488                   0.357706       -0.766206
1.489                   0.358213       -0.769126
1.49                    0.358294       -0.772398
1.491                    0.35791       -0.775924
1.492                   0.357044       -0.779607
1.493                   0.355702       -0.783351
1.494                   0.353906        -0.78707
1.495                   0.351697       -0.790689
1.496                   0.349128       -0.794147
1.497                   0.346257       -0.797401
1.498                   0.343149       -0.800423
1.499                   0.339864       -0.803204
1.5                     0.336457       -0.805748
1.501                   0.332977        -0.80807
1.502                   0.329458       -0.810193
1.503                   0.325925       -0.812146
1.504                    0.32239       -0.813955
1.505                   0.318856       -0.815645
1.506                   0.315316       -0.817234
1.507                   0.311759       -0.818732
1.508                   0.308172       -0.820138
1.509                   0.304545       -0.821444
1.51                     0.30087       -0.822632
1.511                   0.297149       -0.823682
1.512                   0.293393       -0.824566
1.513                   0.289624        -0.82526
1.514                   0.285872       -0.825743
1.515                   0.282179       -0.826002
1.516                   0.278592       -0.826033
1.517                    0.27516       -0.825846
1.518                   0.271936       -0.825462
1.519                   0.268966       -0.824919
1.52                    0.266288       -0.824265
1.521                   0.263932       -0.823559
1.522                    0.26191       -0.822867
1.523                   0.260222       -0.822258
1.524                    0.25885       -0.821802
1.525                   0.257761       -0.821564
1.526                   0.256907       -0.821598
1.527                   0.256227       -0.821948
1.528                   0.255657       -0.822644
1.529                   0.255122       -0.823697
1.53                    0.254552       -0.825104
1.531                   0.253879       -0.826846
1.532                   0.253043       -0.828887
1.533                   0.251994       -0.831185
1.534                   0.250699       -0.833684
1.535                   0.249134       -0.836328
1.536                   0.247292       -0.839059
1.537                   0.245181       -0.841823
1.538                   0.242818       -0.844572
1.539                    0.24023       -0.847266
1.54                    0.237449       -0.849877
1.541                   0.234513       -0.852388
1.542                   0.231454       -0.854793
1.543                   0.228306       -0.857093
1.544                   0.225094       -0.859299
1.545                   0.221836       -0.861427
1.546                   0.218543       -0.863495
1.547                   0.215219       -0.865522
1.548                   0.211859       -0.867522
1.549                   0.208453       -0.869508
1.55                    0.204989       -0.871483
1.551                   0.201452       -0.873449
1.552                   0.197828       -0.875397
1.553                   0.194108       -0.877315
1.554                   0.190287       -0.879188
1.555                   0.186363       -0.880997
1.556                   0.182342       -0.882723
1.557                   0.178238       -0.884351
1.558                   0.174064       -0.885869
1.559                   0.169841       -0.887268
1.56                     0.16559       -0.888548
1.561                    0.16133       -0.889714
1.562                    0.15708       -0.890775
1.563                   0.152853       -0.891747
1.564                   0.148656       -0.892649
1.565                    0.14449       -0.893498
1.566                   0.140352       -0.894315
1.567                   0.136229       -0.895114
1.568                   0.132107       -0.895906
1.569                   0.127967       -0.896696
1.57                     0.12379       -0.897483
1.571                   0.119556       -0.898257
1.572                    0.11525       -0.899004
1.573                   0.110863       -0.899704
1.574                    0.10639       -0.900335
1.575                   0.101834       -0.900873
1.576                  0.0972052       -0.901294
1.577                  0.0925214        -0.90158
1.578                  0.0878043       -0.901715
1.579                  0.0830802       -0.901693
1.58                   0.0783766       -0.901513
1.581                    0.07372       -0.901182
1.582                   0.069133       -0.900716
1.583                  0.0646344       -0.900136
1.584                  0.0602343       -0.899467
1.585                  0.0559355       -0.898736
1.586                  0.0517325       -0.897968
1.587                   0.047611       -0.897187
1.588                  0.0435502        -0.89641
1.589                  0.0395247       -0.895647
1.59                   0.0355061       -0.894898
1.591                  0.0314662       -0.894154
1.592                  0.0273799       -0.893397
1.593                  0.0232278       -0.892598
1.594                  0.0189994       -0.891723
1.595                  0.0146939       -0.890734
1.596                  0.0103225        -0.88959
1.597                 0.00590758       -0.888253
1.598                 0.00148399       -0.886688
1.599                 -0.0029035        -0.88487
1.6                  -0.00720222       -0.882783
1.601                 -0.0113536       -0.880423
1.602                  -0.015297       -0.877803
1.603                  -0.018973       -0.874947
1.604                 -0.0223261       -0.871896
1.605                 -0.0253093       -0.868701
1.606                 -0.0278866       -0.865428
1.607                 -0.0300351       -0.862147
1.608                 -0.0317464       -0.858938
1.609                 -0.0330293       -0.855879
1.61                   -0.033908       -0.853049
1.611                 -0.0344228       -0.850521
1.612                 -0.0346287       -0.848361
1.613                 -0.0345934       -0.846623
1.614                 -0.0343948       -0.845348
1.615                 -0.0341178       -0.844561
1.616                 -0.0338522       -0.844273
1.617                 -0.0336887       -0.844474
1.618                 -0.0337157        -0.84514
1.619                 -0.0340161        -0.84623
1.62                  -0.0346646       -0.847687
1.621                 -0.0357242       -0.849442
1.622                 -0.0372446       -0.851414
1.623                 -0.0392603       -0.853513
1.624                 -0.0417887       -0.855645
1.625                 -0.0448289       -0.857712
1.626                 -0.0483626       -0.859617
1.627                 -0.0523527        -0.86127
1.628                 -0.0567459       -0.862584
1.629                 -0.0614723       -0.863488
1.63                  -0.0664498       -0.863921
1.631                 -0.0715849       -0.863839
1.632                 -0.0767766        -0.86322
1.633                 -0.0819208       -0.862056
1.634                 -0.0869125       -0.860365
1.635                  -0.091652       -0.858181
1.636                 -0.0960473        -0.85556
1.637                  -0.100019       -0.852574
1.638                  -0.103502        -0.84931
1.639                  -0.106453       -0.845868
1.64                   -0.108846       -0.842353
1.641                  -0.110678       -0.838874
1.642                  -0.111968       -0.835537
1.643                  -0.112757       -0.832443
1.644                  -0.113104       -0.829681
1.645                  -0.113085       -0.827327
1.646                  -0.112789       -0.825436
1.647                  -0.112313       -0.824046
1.648                  -0.111758       -0.823172
1.649                  -0.111223       -0.822809
1.65                   -0.110803       -0.822932
1.651                  -0.110583       -0.823496
1.652                  -0.110633       -0.824443
1.653                   -0.11101       -0.825705
1.654                   -0.11175       -0.827206
1.655                  -0.112875       -0.828866
1.656                  -0.114388       -0.830609
1.657                  -0.116277       -0.832364
1.658                  -0.118516       -0.834067
1.659                  -0.121072       -0.835667
1.66                   -0.123903       -0.837122
1.661                  -0.126964       -0.838404
1.662                  -0.130213       -0.839496
1.663                  -0.133608       -0.840392
1.664                  -0.137114       -0.841092
1.665                  -0.140701       -0.841602
1.666                  -0.144347       -0.841932
1.667                  -0.148036        -0.84209
1.668                  -0.151756       -0.842084
1.669                  -0.155501       -0.841917
1.67                   -0.159264       -0.841589
1.671                  -0.163038       -0.841096
1.672                  -0.166814       -0.840428
1.673                  -0.170576       -0.839576
1.674                  -0.174305       -0.838528
1.675                  -0.177974       -0.837275
1.676                  -0.181551       -0.835814
1.677                  -0.184998       -0.834145
1.678                  -0.188274       -0.832279
1.679                  -0.191339       -0.830238
1.68                   -0.194154       -0.828051
1.681                  -0.196685        -0.82576
1.682                  -0.198905       -0.823415
1.683                    -0.2008       -0.821072
1.684                  -0.202365       -0.818793
1.685                  -0.203609       -0.816641
1.686                  -0.204557       -0.814676
1.687                  -0.205245       -0.812954
1.688                  -0.205721       -0.811523
1.689                  -0.206042       -0.810419
1.69                   -0.206272       -0.809664
1.691                  -0.206478        -0.80927
1.692                  -0.206726        -0.80923
1.693                   -0.20708       -0.809526
1.694                  -0.207596       -0.810126
1.695                  -0.208322       -0.810992
1.696                  -0.209293       -0.812073
1.697                  -0.210536       -0.813317
1.698                  -0.212061       -0.814671
1.699                  -0.213871       -0.816082
1.7                    -0.215953       -0.817501
1.701                  -0.218291       -0.818888
1.702                  -0.220861       -0.820206
1.703                  -0.223634       -0.821431
1.704                   -0.22658       -0.822544
1.705                  -0.229671       -0.823536
1.706                  -0.232879       -0.824401
1.707                   -0.23618       -0.825143
1.708                  -0.239557       -0.825766
1.709                  -0.242994       -0.826276
1.71                   -0.246481       -0.826681
1.711                  -0.250012       -0.826988
1.712                  -0.253582         -0.8272
1.713                   -0.25719        -0.82732
1.714                  -0.260831       -0.827348
1.715                  -0.264503       -0.827283
1.716                  -0.268201        -0.82712
1.717                  -0.271919       -0.826857
1.718                  -0.275646       -0.826491
1.719                  -0.279374        -0.82602
1.72                   -0.283089       -0.825445
1.721                   -0.28678       -0.824769
1.722                  -0.290433       -0.823999
1.723                  -0.294038       -0.823143
1.724                  -0.297587       -0.822214
1.725                  -0.301073       -0.821225
1.726                  -0.304494        -0.82019
1.727                   -0.30785       -0.819123
1.728                  -0.311145       -0.818037
1.729                  -0.314385       -0.816943
1.73                    -0.31758       -0.815851
1.731                   -0.32074       -0.814767
1.732                  -0.323874       -0.813694
1.733                  -0.326994       -0.812631
1.734                  -0.330107       -0.811577
1.735                  -0.333222       -0.810528
1.736                  -0.336343       -0.809479
1.737                  -0.339474       -0.808422
1.738                  -0.342615       -0.807354
1.739                  -0.345765        -0.80627
1.74                   -0.348924       -0.805165
1.741                  -0.352089       -0.804039
1.742                  -0.355257        -0.80289
1.743                  -0.358427       -0.801719
1.744                  -0.361598       -0.800527
1.745                  -0.364771       -0.799317
1.746                  -0.367947       -0.798088
1.747                   -0.37113       -0.796844
1.748                  -0.374324       -0.795582
1.749                  -0.377532       -0.794301
1.75                   -0.380758       -0.792998
1.751                  -0.384006       -0.791667
1.752                  -0.387278       -0.790304
1.753                  -0.390574       -0.788903
1.754                  -0.393895       -0.787454
1.755                  -0.397237       -0.785953
1.756                  -0.400598       -0.784394
1.757                  -0.403975       -0.782769
1.758                  -0.407361       -0.781075
1.759                  -0.410753       -0.779309
1.76                   -0.414145       -0.777465
1.761                  -0.417534        -0.77554
1.762                  -0.420914       -0.773531
1.763                  -0.424281       -0.771433
1.764                  -0.427628        -0.76924
1.765                   -0.43095       -0.766945
1.766                  -0.434236       -0.764541
1.767                  -0.437475       -0.762019
1.768                  -0.440649       -0.759373
1.769                  -0.443737       -0.756597
1.77                   -0.446715        -0.75369
1.771                  -0.449555       -0.750654
1.772                  -0.452224         -0.7475
1.773                   -0.45469       -0.744246
1.774                  -0.456921        -0.74092
1.775                  -0.458891       -0.737559
1.776                  -0.460576       -0.734209
1.777                  -0.461965       -0.730926
1.778                  -0.463058        -0.72777
1.779                  -0.463867       -0.724806
1.78                   -0.464425       -0.722099
1.781                  -0.464776        -0.71971
1.782                  -0.464983       -0.717691
1.783                  -0.465123       -0.716081
1.784                  -0.465285       -0.714903
1.785                  -0.465565       -0.714159
1.786                  -0.466061        -0.71383
1.787                  -0.466872       -0.713871
1.788                  -0.468084       -0.714216
1.789                  -0.469771       -0.714777
1.79                   -0.471986       -0.715446
1.791                  -0.474757       -0.716104
1.792                  -0.478087       -0.716624
1.793                  -0.481947       -0.716878
1.794                  -0.486279       -0.716746
1.795                  -0.490996       -0.716122
1.796                  -0.495991       -0.714917
1.797                  -0.501134       -0.713073
1.798                  -0.506284       -0.710558
1.799                  -0.511296       -0.707375
1.8                    -0.516027       -0.703559
1.801                  -0.520344       -0.699175
1.802                  -0.524133        -0.69432
1.803                  -0.527303       -0.689111
1.804                  -0.529793       -0.683684
1.805                  -0.531572       -0.678184
1.806                  -0.532643       -0.672757
1.807                  -0.533042       -0.667546
1.808                  -0.532832       -0.662679
1.809                  -0.532103       -0.658266
1.81                   -0.530967        -0.65439
1.811                  -0.529545       -0.651111
1.812                  -0.527965       -0.648456
1.813                  -0.526357       -0.646426
1.814                  -0.524841       -0.644994
1.815                  -0.523526       -0.644108
1.816                  -0.522501       -0.643698
1.817                  -0.521836       -0.643681
1.818                  -0.521578       -0.643966
1.819                  -0.521753       -0.644458
1.82                   -0.522366       -0.645067
1.821                  -0.523403       -0.645708
1.822                  -0.524836       -0.646309
1.823                  -0.526626        -0.64681
1.824                  -0.528728       -0.647164
1.825                  -0.531093       -0.647339
1.826                  -0.533676       -0.647312
1.827                  -0.536432       -0.647074
1.828                  -0.539322       -0.646622
1.829                  -0.542316       -0.645956
1.83                   -0.545385       -0.645079
1.831                   -0.54851       -0.643997
1.832                  -0.551671       -0.642709
1.833                  -0.554852       -0.641216
1.834                  -0.558035       -0.639516
1.835                  -0.561201       -0.637602
1.836                  -0.564325        -0.63547
1.837                  -0.567378       -0.633117
1.838                  -0.570329       -0.630542
1.839                  -0.573139       -0.627752
1.84                    -0.57577       -0.624762
1.841                  -0.578181       -0.621593
1.842                  -0.580334        -0.61828
1.843                  -0.582198       -0.614863
1.844                  -0.583748       -0.611395
1.845                  -0.584969       -0.607933
1.846                  -0.585858       -0.604539
1.847                  -0.586428       -0.601277
1.848                  -0.586703       -0.598208
1.849                  -0.586722       -0.595387
1.85                   -0.586536       -0.592861
1.851                  -0.586202       -0.590667
1.852                  -0.585788       -0.588827
1.853                  -0.585363       -0.587346
1.854                  -0.584996       -0.586219
1.855                  -0.584752       -0.585423
1.856                  -0.584688       -0.584922
1.857                  -0.584852       -0.584672
1.858                  -0.585279       -0.584619
1.859                  -0.585993       -0.584705
1.86                   -0.587001       -0.584872
1.861                  -0.588301       -0.585062
1.862                  -0.589877       -0.585225
1.863                  -0.591704       -0.585314
1.864                  -0.593752       -0.585296
1.865                  -0.595984       -0.585143
1.866                  -0.598365       -0.584841
1.867                  -0.600856       -0.584381
1.868                  -0.603427       -0.583765
1.869                  -0.606048          -0.583
1.87                   -0.608697       -0.582098
1.871                  -0.611358       -0.581072
1.872                   -0.61402       -0.579936
1.873                  -0.616676       -0.578703
1.874                  -0.619326       -0.577382
1.875                  -0.621968        -0.57598
1.876                  -0.624603       -0.574501
1.877                  -0.627231       -0.572945
1.878                   -0.62985       -0.571309
1.879                  -0.632456       -0.569589
1.88                   -0.635039       -0.567783
1.881                  -0.637589       -0.565888
1.882                  -0.640091       -0.563904
1.883                  -0.642529       -0.561836
1.884                  -0.644887       -0.559693
1.885                  -0.647151       -0.557488
1.886                  -0.649306       -0.555239
1.887                  -0.651343       -0.552969
1.888                  -0.653259       -0.550702
1.889                  -0.655055       -0.548466
1.89                   -0.656738       -0.546286
1.891                  -0.658322       -0.544188
1.892                  -0.659827       -0.542194
1.893                  -0.661278       -0.540322
1.894                  -0.662704       -0.538583
1.895                  -0.664134       -0.536984
1.896                    -0.6656       -0.535524
1.897                  -0.667132       -0.534194
1.898                  -0.668758       -0.532982
1.899                  -0.670503       -0.531868
1.9                    -0.672387       -0.530829
1.901                  -0.674423        -0.52984
1.902                   -0.67662       -0.528873
1.903                  -0.678982         -0.5279
1.904                  -0.681508       -0.526895
1.905                   -0.68419       -0.525833
1.906                   -0.68702       -0.524693
1.907                  -0.689984       -0.523455
1.908                   -0.69307       -0.522104
1.909                  -0.696263       -0.520628
1.91                   -0.699548       -0.519016
1.911                   -0.70291       -0.517262
1.912                  -0.706336       -0.515359
1.913                  -0.709815       -0.513304
1.914                  -0.713333       -0.511091
1.915                   -0.71688       -0.508717
1.916                  -0.720446       -0.506179
1.917                  -0.724017       -0.503471
1.918                  -0.727583       -0.500588
1.919                   -0.73113       -0.497529
1.92                   -0.734643       -0.494287
1.921                  -0.738106        -0.49086
1.922                  -0.741501       -0.487248
1.923                   -0.74481       -0.483451
1.924                  -0.748013       -0.479471
1.925                  -0.751088       -0.475314
1.926                  -0.754016       -0.470989
1.927                  -0.756777       -0.466507
1.928                   -0.75935       -0.461883
1.929                  -0.761717       -0.457133
1.93                   -0.763865       -0.452277
1.931                  -0.765777       -0.447337
1.932                  -0.767443       -0.442337
1.933                  -0.768853       -0.437303
1.934                  -0.770001       -0.432261
1.935                  -0.770883       -0.427241
1.936                    -0.7715       -0.422271
1.937                  -0.771854       -0.417383
1.938                  -0.771952       -0.412607
1.939                  -0.771805       -0.407976
1.94                   -0.771428       -0.403523
1.941                  -0.770841       -0.399277
1.942                   -0.77007        -0.39527
1.943                  -0.769146       -0.391529
1.944                  -0.768107       -0.388079
1.945                  -0.766995        -0.38494
1.946                  -0.765859       -0.382124
1.947                  -0.764751       -0.379637
1.948                  -0.763727       -0.377476
1.949                  -0.762845       -0.375626
1.95                    -0.76216       -0.374061
1.951                  -0.761726       -0.372744
1.952                   -0.76159       -0.371626
1.953                  -0.761791       -0.370648
1.954                  -0.762356        -0.36974
1.955                  -0.763299       -0.368827
1.956                  -0.764618        -0.36783
1.957                  -0.766293       -0.366666
1.958                  -0.768289       -0.365261
1.959                  -0.770553       -0.363541
1.96                   -0.773015        -0.36145
1.961                  -0.775594       -0.358941
1.962                  -0.778198       -0.355988
1.963                  -0.780729       -0.352584
1.964                  -0.783088       -0.348744
1.965                  -0.785179       -0.344504
1.966                  -0.786916        -0.33992
1.967                  -0.788224        -0.33507
1.968                  -0.789046       -0.330044
1.969                  -0.789348       -0.324945
1.97                   -0.789115       -0.319882
1.971                  -0.788358       -0.314965
1.972                  -0.787114       -0.310302
1.973                  -0.785438       -0.305989
1.974                  -0.783409       -0.302106
1.975                  -0.781119       -0.298718
1.976                  -0.778672       -0.295867
1.977                  -0.776178       -0.293569
1.978                  -0.773747       -0.291819
1.979                  -0.771485       -0.290586
1.98                   -0.769484       -0.289821
1.981                  -0.767825       -0.289454
1.982                   -0.76657       -0.289404
1.983                  -0.765758       -0.289579
1.984                   -0.76541       -0.289885
1.985                  -0.765525       -0.290229
1.986                  -0.766081       -0.290524
1.987                  -0.767044       -0.290694
1.988                  -0.768362       -0.290676
1.989                  -0.769978        -0.29042
1.99                   -0.771828       -0.289895
1.991                   -0.77385       -0.289084
1.992                  -0.775983       -0.287985
1.993                  -0.778173       -0.286606
1.994                  -0.780375       -0.284967
1.995                  -0.782554       -0.283092
1.996                  -0.784683       -0.281007
1.997                  -0.786748       -0.278738
1.998                  -0.788738        -0.27631
1.999                   -0.79065       -0.273741
2                      -0.792483       -0.271044
