! TOUCHSTONE file generated by CST MICROWAVE STUDIO
! Date and time: Sun Aug  2 11:33:43 2026
! Project name: Sonda-Coaxial_21mm_DisifixB_v2_Agua_Dest.cst
! Parameters = {h_recipiente=20; l_conector=50; r_arandela=35; r_ext=10.5; r_int=3; r_recipiente=100; z_recipiente=-30}
! Header version: 2018
! Port assignment regex: !\s*Touchstone port\s*([0-9]+)\s*=\s*(CST MWS port|CST DS port)\s*([0-9]+|Zmin|Zmax)\s*\(\"(.*)\"\)(\s*mode\s*([0-9]+))?.*
! Touchstone port assignment:
! Touchstone port 1 = CST MWS port 1 ("")
# GHz S RI R 50
0.001                    0.99995       -0.010024
0.002                   0.999786      -0.0200457
0.003                   0.999513      -0.0300627
0.004                   0.999132      -0.0400727
0.005                   0.998643      -0.0500734
0.006                   0.998046      -0.0600628
0.007                   0.997343      -0.0700386
0.008                   0.996535      -0.0799988
0.009                   0.995621      -0.0899416
0.01                    0.994605      -0.0998651
0.011                   0.993486       -0.109768
0.012                   0.992266       -0.119648
0.013                   0.990947       -0.129504
0.014                   0.989529       -0.139335
0.015                   0.988014       -0.149139
0.016                   0.986405       -0.158917
0.017                   0.984701       -0.168666
0.018                   0.982904       -0.178386
0.019                   0.981016       -0.188077
0.02                    0.979039       -0.197738
0.021                   0.976972       -0.207368
0.022                   0.974817       -0.216968
0.023                   0.972576       -0.226537
0.024                    0.97025       -0.236075
0.025                   0.967838       -0.245583
0.026                   0.965342       -0.255059
0.027                   0.962763       -0.264505
0.028                   0.960101        -0.27392
0.029                   0.957356       -0.283305
0.03                    0.954528       -0.292659
0.031                   0.951619       -0.301982
0.032                   0.948627       -0.311275
0.033                   0.945553       -0.320538
0.034                   0.942396       -0.329769
0.035                   0.939157        -0.33897
0.036                   0.935835        -0.34814
0.037                    0.93243       -0.357278
0.038                    0.92894       -0.366384
0.039                   0.925367       -0.375457
0.04                    0.921709       -0.384497
0.041                   0.917966       -0.393503
0.042                   0.914138       -0.402474
0.043                   0.910223       -0.411409
0.044                   0.906222       -0.420306
0.045                   0.902135       -0.429165
0.046                    0.89796       -0.437984
0.047                   0.893699       -0.446761
0.048                    0.88935       -0.455496
0.049                   0.884915       -0.464186
0.05                    0.880392       -0.472829
0.051                   0.875782       -0.481425
0.052                   0.871086       -0.489972
0.053                   0.866304       -0.498466
0.054                   0.861436       -0.506908
0.055                   0.856484       -0.515295
0.056                   0.851448       -0.523625
0.057                   0.846329       -0.531897
0.058                   0.841129       -0.540108
0.059                   0.835848       -0.548258
0.06                    0.830488       -0.556346
0.061                    0.82505       -0.564368
0.062                   0.819535       -0.572325
0.063                   0.813946       -0.580215
0.064                   0.808284       -0.588037
0.065                    0.80255        -0.59579
0.066                   0.796746       -0.603473
0.067                   0.790874       -0.611085
0.068                   0.784936       -0.618625
0.069                   0.778934       -0.626094
0.07                    0.772868       -0.633491
0.071                   0.766741       -0.640815
0.072                   0.760554       -0.648067
0.073                    0.75431       -0.655245
0.074                   0.748008       -0.662352
0.075                   0.741652       -0.669385
0.076                   0.735242       -0.676346
0.077                    0.72878       -0.683235
0.078                   0.722266       -0.690052
0.079                   0.715702       -0.696797
0.08                    0.709089       -0.703472
0.081                   0.702427       -0.710075
0.082                   0.695717       -0.716608
0.083                   0.688962       -0.723071
0.084                   0.682159       -0.729464
0.085                   0.675311       -0.735788
0.086                   0.668418       -0.742042
0.087                    0.66148       -0.748227
0.088                   0.654497       -0.754344
0.089                    0.64747       -0.760392
0.09                    0.640399       -0.766371
0.091                   0.633284       -0.772282
0.092                   0.626126       -0.778124
0.093                   0.618923       -0.783896
0.094                   0.611678       -0.789599
0.095                   0.604389       -0.795233
0.096                   0.597057       -0.800796
0.097                   0.589683       -0.806288
0.098                   0.582266       -0.811709
0.099                   0.574806       -0.817058
0.1                     0.567305       -0.822334
0.101                   0.559763       -0.827537
0.102                    0.55218       -0.832665
0.103                   0.544556       -0.837719
0.104                   0.536893       -0.842697
0.105                   0.529191       -0.847597
0.106                   0.521452       -0.852421
0.107                   0.513675       -0.857166
0.108                   0.505863       -0.861832
0.109                   0.498016       -0.866418
0.11                    0.490135       -0.870924
0.111                   0.482222       -0.875348
0.112                   0.474277       -0.879691
0.113                   0.466303       -0.883951
0.114                   0.458301       -0.888128
0.115                   0.450273       -0.892223
0.116                   0.442218       -0.896234
0.117                    0.43414       -0.900161
0.118                    0.42604       -0.904005
0.119                   0.417918       -0.907765
0.12                    0.409778       -0.911442
0.121                   0.401619       -0.915036
0.122                   0.393445       -0.918546
0.123                   0.385254       -0.921974
0.124                   0.377052       -0.925319
0.125                   0.368836       -0.928582
0.126                   0.360609       -0.931765
0.127                   0.352373       -0.934866
0.128                   0.344127       -0.937888
0.129                   0.335875        -0.94083
0.13                    0.327615       -0.943694
0.131                    0.31935        -0.94648
0.132                    0.31108       -0.949189
0.133                   0.302805       -0.951821
0.134                   0.294527       -0.954378
0.135                   0.286245       -0.956861
0.136                   0.277962       -0.959269
0.137                   0.269675       -0.961604
0.138                   0.261387       -0.963867
0.139                   0.253098       -0.966057
0.14                    0.244808       -0.968176
0.141                   0.236516       -0.970223
0.142                   0.228224         -0.9722
0.143                    0.21993       -0.974107
0.144                   0.211637       -0.975944
0.145                   0.203343       -0.977712
0.146                   0.195048        -0.97941
0.147                   0.186754       -0.981038
0.148                    0.17846       -0.982598
0.149                   0.170166       -0.984088
0.15                    0.161872       -0.985509
0.151                   0.153579       -0.986861
0.152                   0.145287       -0.988144
0.153                   0.136997       -0.989357
0.154                   0.128707         -0.9905
0.155                    0.12042       -0.991574
0.156                   0.112136       -0.992578
0.157                   0.103854       -0.993511
0.158                  0.0955762       -0.994374
0.159                  0.0873028       -0.995166
0.16                    0.079034       -0.995888
0.161                  0.0707712       -0.996539
0.162                  0.0625148       -0.997118
0.163                  0.0542656       -0.997627
0.164                  0.0460244       -0.998065
0.165                  0.0377927       -0.998431
0.166                  0.0295704       -0.998726
0.167                  0.0213591        -0.99895
0.168                  0.0131599       -0.999103
0.169                 0.00497295       -0.999186
0.17                 -0.00319997       -0.999198
0.171                 -0.0113582        -0.99914
0.172                 -0.0195012       -0.999012
0.173                 -0.0276273       -0.998815
0.174                  -0.035736       -0.998549
0.175                 -0.0438267       -0.998214
0.176                 -0.0518983       -0.997812
0.177                 -0.0599498       -0.997342
0.178                 -0.0679806       -0.996805
0.179                   -0.07599       -0.996202
0.18                  -0.0839773       -0.995534
0.181                 -0.0919418       -0.994801
0.182                 -0.0998829       -0.994003
0.183                    -0.1078       -0.993142
0.184                  -0.115693       -0.992219
0.185                  -0.123561       -0.991233
0.186                  -0.131403       -0.990186
0.187                   -0.13922       -0.989078
0.188                  -0.147011       -0.987909
0.189                  -0.154775       -0.986681
0.19                   -0.162512       -0.985394
0.191                  -0.170223       -0.984049
0.192                  -0.177906       -0.982646
0.193                  -0.185562       -0.981186
0.194                  -0.193189       -0.979668
0.195                  -0.200789       -0.978094
0.196                   -0.20836       -0.976465
0.197                  -0.215903       -0.974779
0.198                  -0.223417       -0.973039
0.199                  -0.230902       -0.971244
0.2                    -0.238357       -0.969394
0.201                  -0.245783        -0.96749
0.202                  -0.253179       -0.965533
0.203                  -0.260545       -0.963522
0.204                   -0.26788       -0.961458
0.205                  -0.275183       -0.959342
0.206                  -0.282456       -0.957173
0.207                  -0.289697       -0.954952
0.208                  -0.296905       -0.952679
0.209                  -0.304081       -0.950355
0.21                   -0.311224       -0.947981
0.211                  -0.318333       -0.945556
0.212                  -0.325408        -0.94308
0.213                  -0.332449       -0.940556
0.214                  -0.339455       -0.937982
0.215                  -0.346425        -0.93536
0.216                  -0.353359        -0.93269
0.217                  -0.360258       -0.929973
0.218                  -0.367119       -0.927209
0.219                  -0.373943       -0.924399
0.22                    -0.38073       -0.921544
0.221                   -0.38748       -0.918644
0.222                  -0.394191         -0.9157
0.223                  -0.400864       -0.912714
0.224                  -0.407498       -0.909684
0.225                  -0.414094       -0.906613
0.226                  -0.420651       -0.903501
0.227                  -0.427169       -0.900349
0.228                  -0.433648       -0.897157
0.229                  -0.440087       -0.893927
0.23                   -0.446488       -0.890659
0.231                   -0.45285       -0.887353
0.232                  -0.459173       -0.884011
0.233                  -0.465457       -0.880632
0.234                  -0.471702       -0.877219
0.235                  -0.477909        -0.87377
0.236                  -0.484078       -0.870287
0.237                  -0.490209        -0.86677
0.238                  -0.496301        -0.86322
0.239                  -0.502357       -0.859637
0.24                   -0.508375       -0.856021
0.241                  -0.514355       -0.852373
0.242                  -0.520299       -0.848693
0.243                  -0.526206       -0.844981
0.244                  -0.532076       -0.841238
0.245                   -0.53791       -0.837464
0.246                  -0.543708       -0.833658
0.247                  -0.549469       -0.829822
0.248                  -0.555195       -0.825954
0.249                  -0.560884       -0.822056
0.25                   -0.566538       -0.818127
0.251                  -0.572155       -0.814167
0.252                  -0.577736       -0.810177
0.253                  -0.583281       -0.806156
0.254                  -0.588789       -0.802105
0.255                  -0.594261       -0.798023
0.256                  -0.599696       -0.793911
0.257                  -0.605094       -0.789769
0.258                  -0.610455       -0.785597
0.259                  -0.615778       -0.781396
0.26                   -0.621063       -0.777165
0.261                  -0.626311       -0.772904
0.262                  -0.631519       -0.768615
0.263                  -0.636689       -0.764297
0.264                   -0.64182       -0.759951
0.265                  -0.646911       -0.755577
0.266                  -0.651962       -0.751175
0.267                  -0.656974       -0.746747
0.268                  -0.661945       -0.742292
0.269                  -0.666875       -0.737811
0.27                   -0.671765       -0.733306
0.271                  -0.676614       -0.728775
0.272                  -0.681421        -0.72422
0.273                  -0.686188       -0.719642
0.274                  -0.690913       -0.715041
0.275                  -0.695597       -0.710418
0.276                  -0.700239       -0.705773
0.277                   -0.70484       -0.701108
0.278                    -0.7094       -0.696423
0.279                   -0.71392       -0.691718
0.28                   -0.718398       -0.686994
0.281                  -0.722836       -0.682252
0.282                  -0.727234       -0.677491
0.283                  -0.731592       -0.672714
0.284                   -0.73591        -0.66792
0.285                  -0.740189        -0.66311
0.286                   -0.74443       -0.658284
0.287                  -0.748632       -0.653442
0.288                  -0.752796       -0.648585
0.289                  -0.756922       -0.643713
0.29                   -0.761012       -0.638826
0.291                  -0.765064       -0.633925
0.292                   -0.76908       -0.629009
0.293                   -0.77306       -0.624078
0.294                  -0.777005       -0.619134
0.295                  -0.780914       -0.614175
0.296                  -0.784789       -0.609202
0.297                  -0.788628       -0.604214
0.298                  -0.792434       -0.599212
0.299                  -0.796205       -0.594195
0.3                    -0.799942       -0.589163
0.301                  -0.803645       -0.584117
0.302                  -0.807314       -0.579055
0.303                  -0.810949       -0.573978
0.304                  -0.814551       -0.568886
0.305                  -0.818119       -0.563778
0.306                  -0.821652       -0.558654
0.307                  -0.825152       -0.553515
0.308                  -0.828617        -0.54836
0.309                  -0.832048       -0.543188
0.31                   -0.835444       -0.538001
0.311                  -0.838806       -0.532797
0.312                  -0.842132       -0.527578
0.313                  -0.845423       -0.522342
0.314                  -0.848678        -0.51709
0.315                  -0.851897       -0.511823
0.316                  -0.855079       -0.506539
0.317                  -0.858225        -0.50124
0.318                  -0.861334       -0.495926
0.319                  -0.864407       -0.490596
0.32                   -0.867441       -0.485252
0.321                  -0.870438       -0.479892
0.322                  -0.873396       -0.474519
0.323                  -0.876317       -0.469131
0.324                  -0.879199       -0.463729
0.325                  -0.882043       -0.458314
0.326                  -0.884848       -0.452886
0.327                  -0.887614       -0.447445
0.328                  -0.890341       -0.441991
0.329                  -0.893028       -0.436526
0.33                   -0.895677       -0.431049
0.331                  -0.898286        -0.42556
0.332                  -0.900856        -0.42006
0.333                  -0.903387       -0.414549
0.334                  -0.905878       -0.409028
0.335                   -0.90833       -0.403497
0.336                  -0.910743       -0.397955
0.337                  -0.913115       -0.392404
0.338                  -0.915449       -0.386843
0.339                  -0.917742       -0.381272
0.34                   -0.919996       -0.375693
0.341                   -0.92221       -0.370104
0.342                  -0.924384       -0.364507
0.343                  -0.926518       -0.358901
0.344                  -0.928612       -0.353286
0.345                  -0.930666       -0.347664
0.346                  -0.932678       -0.342033
0.347                   -0.93465       -0.336394
0.348                  -0.936581       -0.330748
0.349                  -0.938471       -0.325094
0.35                   -0.940318       -0.319433
0.351                  -0.942124       -0.313765
0.352                  -0.943887        -0.30809
0.353                  -0.945607       -0.302409
0.354                  -0.947284       -0.296723
0.355                  -0.948917       -0.291031
0.356                  -0.950506       -0.285334
0.357                  -0.952051       -0.279633
0.358                  -0.953551       -0.273928
0.359                  -0.955006       -0.268221
0.36                   -0.956415       -0.262511
0.361                  -0.957779       -0.256799
0.362                  -0.959096       -0.251087
0.363                  -0.960367       -0.245375
0.364                  -0.961591       -0.239664
0.365                  -0.962768       -0.233956
0.366                  -0.963898        -0.22825
0.367                  -0.964982       -0.222548
0.368                  -0.966019       -0.216852
0.369                  -0.967008       -0.211162
0.37                   -0.967952       -0.205479
0.371                  -0.968848       -0.199804
0.372                  -0.969699       -0.194139
0.373                  -0.970504       -0.188485
0.374                  -0.971264       -0.182842
0.375                  -0.971979       -0.177212
0.376                   -0.97265       -0.171596
0.377                  -0.973277       -0.165995
0.378                  -0.973863       -0.160409
0.379                  -0.974406        -0.15484
0.38                   -0.974909       -0.149288
0.381                  -0.975372       -0.143755
0.382                  -0.975795        -0.13824
0.383                  -0.976181       -0.132745
0.384                  -0.976531        -0.12727
0.385                  -0.976844       -0.121816
0.386                  -0.977123       -0.116383
0.387                  -0.977369       -0.110971
0.388                  -0.977582       -0.105581
0.389                  -0.977764       -0.100212
0.39                   -0.977916      -0.0948655
0.391                  -0.978039      -0.0895406
0.392                  -0.978135      -0.0842374
0.393                  -0.978203      -0.0789556
0.394                  -0.978246      -0.0736956
0.395                  -0.978264      -0.0684562
0.396                  -0.978259      -0.0632379
0.397                   -0.97823      -0.0580401
0.398                  -0.978179      -0.0528622
0.399                  -0.978107      -0.0477035
0.4                    -0.978014      -0.0425644
0.401                  -0.977901      -0.0374435
0.402                  -0.977768      -0.0323406
0.403                  -0.977616      -0.0272551
0.404                  -0.977446      -0.0221865
0.405                  -0.977258      -0.0171343
0.406                  -0.977052      -0.0120978
0.407                  -0.976829     -0.00707656
0.408                  -0.976588     -0.00207044
0.409                  -0.976331      0.00292171
0.41                   -0.976056      0.00789991
0.411                  -0.975765       0.0128646
0.412                  -0.975458       0.0178165
0.413                  -0.975134       0.0227561
0.414                  -0.974793       0.0276831
0.415                  -0.974437       0.0325982
0.416                  -0.974064       0.0375019
0.417                  -0.973675       0.0423942
0.418                  -0.973269       0.0472753
0.419                  -0.972848       0.0521457
0.42                    -0.97241       0.0570054
0.421                  -0.971957       0.0618548
0.422                  -0.971487       0.0666938
0.423                  -0.971002       0.0715227
0.424                  -0.970501       0.0763416
0.425                  -0.969985       0.0811508
0.426                  -0.969453       0.0859504
0.427                  -0.968905       0.0907406
0.428                  -0.968343       0.0955218
0.429                  -0.967766        0.100294
0.43                   -0.967173        0.105057
0.431                  -0.966567        0.109812
0.432                  -0.965945        0.114559
0.433                   -0.96531        0.119298
0.434                   -0.96466        0.124029
0.435                  -0.963996        0.128753
0.436                  -0.963318         0.13347
0.437                  -0.962627        0.138181
0.438                  -0.961921        0.142886
0.439                  -0.961202        0.147585
0.44                   -0.960469        0.152279
0.441                  -0.959723        0.156969
0.442                  -0.958962        0.161654
0.443                  -0.958188        0.166336
0.444                  -0.957399        0.171015
0.445                  -0.956596         0.17569
0.446                  -0.955778        0.180364
0.447                  -0.954945        0.185036
0.448                  -0.954097        0.189706
0.449                  -0.953232        0.194376
0.45                   -0.952352        0.199045
0.451                  -0.951455        0.203713
0.452                   -0.95054        0.208381
0.453                  -0.949607         0.21305
0.454                  -0.948656        0.217719
0.455                  -0.947686        0.222388
0.456                  -0.946696        0.227058
0.457                  -0.945687        0.231728
0.458                  -0.944656        0.236398
0.459                  -0.943603        0.241069
0.46                   -0.942529        0.245739
0.461                  -0.941431         0.25041
0.462                  -0.940311         0.25508
0.463                  -0.939167        0.259749
0.464                  -0.937998        0.264417
0.465                  -0.936805        0.269083
0.466                  -0.935587        0.273746
0.467                  -0.934344        0.278408
0.468                  -0.933075        0.283066
0.469                   -0.93178         0.28772
0.47                    -0.93046         0.29237
0.471                  -0.929114        0.297014
0.472                  -0.927742        0.301654
0.473                  -0.926344        0.306288
0.474                   -0.92492        0.310915
0.475                   -0.92347        0.315536
0.476                  -0.921995        0.320149
0.477                  -0.920495        0.324755
0.478                   -0.91897        0.329353
0.479                   -0.91742        0.333943
0.48                   -0.915846        0.338525
0.481                  -0.914249        0.343097
0.482                  -0.912627        0.347662
0.483                  -0.910982        0.352218
0.484                  -0.909314        0.356766
0.485                  -0.907624        0.361305
0.486                  -0.905911        0.365836
0.487                  -0.904175         0.37036
0.488                  -0.902417        0.374876
0.489                  -0.900638        0.379385
0.49                   -0.898836        0.383886
0.491                  -0.897012        0.388382
0.492                  -0.895165        0.392872
0.493                  -0.893296        0.397356
0.494                  -0.891404        0.401835
0.495                  -0.889488         0.40631
0.496                  -0.887549         0.41078
0.497                  -0.885585        0.415246
0.498                  -0.883596        0.419709
0.499                  -0.881581        0.424168
0.5                    -0.879539        0.428624
0.501                  -0.877469        0.433078
0.502                   -0.87537        0.437528
0.503                  -0.873242        0.441975
0.504                  -0.871083        0.446418
0.505                  -0.868891        0.450859
0.506                  -0.866666        0.455294
0.507                  -0.864407        0.459726
0.508                  -0.862112        0.464151
0.509                  -0.859781        0.468571
0.51                   -0.857411        0.472983
0.511                  -0.855003        0.477387
0.512                  -0.852554        0.481781
0.513                  -0.850065        0.486164
0.514                  -0.847534        0.490534
0.515                   -0.84496        0.494891
0.516                  -0.842344        0.499231
0.517                  -0.839683        0.503554
0.518                  -0.836979        0.507857
0.519                  -0.834231        0.512139
0.52                   -0.831438        0.516397
0.521                  -0.828602         0.52063
0.522                  -0.825722        0.524835
0.523                  -0.822798         0.52901
0.524                  -0.819831        0.533153
0.525                  -0.816823        0.537263
0.526                  -0.813774        0.541336
0.527                  -0.810685        0.545372
0.528                  -0.807557        0.549367
0.529                  -0.804392        0.553322
0.53                   -0.801191        0.557233
0.531                  -0.797957        0.561099
0.532                  -0.794691        0.564918
0.533                  -0.791395         0.56869
0.534                  -0.788071        0.572414
0.535                  -0.784721        0.576087
0.536                  -0.781348         0.57971
0.537                  -0.777953        0.583281
0.538                   -0.77454          0.5868
0.539                  -0.771109        0.590267
0.54                   -0.767665        0.593682
0.541                  -0.764209        0.597044
0.542                  -0.760742        0.600354
0.543                  -0.757269        0.603612
0.544                  -0.753791        0.606819
0.545                  -0.750309        0.609974
0.546                  -0.746827         0.61308
0.547                  -0.743346        0.616137
0.548                  -0.739868        0.619146
0.549                  -0.736394        0.622108
0.55                   -0.732928        0.625024
0.551                  -0.729469        0.627895
0.552                  -0.726019        0.630724
0.553                  -0.722581        0.633512
0.554                  -0.719154        0.636259
0.555                   -0.71574        0.638968
0.556                   -0.71234         0.64164
0.557                  -0.708955        0.644276
0.558                  -0.705585        0.646879
0.559                  -0.702231         0.64945
0.56                   -0.698894         0.65199
0.561                  -0.695573          0.6545
0.562                  -0.692269        0.656983
0.563                  -0.688982         0.65944
0.564                  -0.685712        0.661872
0.565                   -0.68246         0.66428
0.566                  -0.679225        0.666665
0.567                  -0.676008        0.669029
0.568                  -0.672808        0.671373
0.569                  -0.669624        0.673698
0.57                   -0.666457        0.676005
0.571                  -0.663307        0.678296
0.572                  -0.660173         0.68057
0.573                  -0.657056        0.682829
0.574                  -0.653955        0.685074
0.575                  -0.650869        0.687305
0.576                  -0.647799        0.689523
0.577                  -0.644745         0.69173
0.578                  -0.641705        0.693926
0.579                  -0.638682        0.696111
0.58                   -0.635672        0.698287
0.581                  -0.632678        0.700454
0.582                  -0.629699        0.702613
0.583                  -0.626733        0.704765
0.584                  -0.623782        0.706911
0.585                  -0.620846        0.709051
0.586                  -0.617923        0.711187
0.587                  -0.615013        0.713318
0.588                  -0.612118        0.715447
0.589                  -0.609235        0.717574
0.59                   -0.606365        0.719699
0.591                  -0.603507        0.721825
0.592                  -0.600661        0.723952
0.593                  -0.597827         0.72608
0.594                  -0.595003        0.728212
0.595                   -0.59219        0.730347
0.596                  -0.589385        0.732487
0.597                   -0.58659        0.734633
0.598                  -0.583802        0.736785
0.599                  -0.581021        0.738945
0.6                    -0.578246        0.741113
0.601                  -0.575475        0.743291
0.602                  -0.572708        0.745478
0.603                  -0.569943        0.747675
0.604                  -0.567179        0.749884
0.605                  -0.564414        0.752104
0.606                  -0.561648        0.754336
0.607                  -0.558879         0.75658
0.608                  -0.556104        0.758836
0.609                  -0.553324        0.761104
0.61                   -0.550536        0.763385
0.611                  -0.547739        0.765678
0.612                  -0.544932        0.767983
0.613                  -0.542112        0.770299
0.614                  -0.539279        0.772626
0.615                  -0.536432        0.774964
0.616                  -0.533568        0.777311
0.617                  -0.530687        0.779667
0.618                  -0.527787        0.782031
0.619                  -0.524868        0.784403
0.62                   -0.521929         0.78678
0.621                  -0.518968        0.789162
0.622                  -0.515985        0.791548
0.623                  -0.512978        0.793937
0.624                  -0.509949        0.796327
0.625                  -0.506895        0.798718
0.626                  -0.503817        0.801107
0.627                  -0.500714        0.803494
0.628                  -0.497587        0.805877
0.629                  -0.494434        0.808256
0.63                   -0.491257        0.810629
0.631                  -0.488054        0.812994
0.632                  -0.484828        0.815352
0.633                  -0.481577          0.8177
0.634                  -0.478302        0.820038
0.635                  -0.475004        0.822366
0.636                  -0.471683        0.824681
0.637                  -0.468339        0.826984
0.638                  -0.464973        0.829273
0.639                  -0.461586        0.831549
0.64                   -0.458178        0.833811
0.641                  -0.454749        0.836058
0.642                  -0.451301        0.838289
0.643                  -0.447834        0.840506
0.644                  -0.444347        0.842707
0.645                  -0.440843        0.844892
0.646                   -0.43732        0.847061
0.647                   -0.43378        0.849214
0.648                  -0.430223        0.851352
0.649                  -0.426649        0.853473
0.65                   -0.423058        0.855579
0.651                  -0.419451        0.857669
0.652                  -0.415828        0.859743
0.653                  -0.412189        0.861801
0.654                  -0.408533        0.863843
0.655                  -0.404861         0.86587
0.656                  -0.401173        0.867881
0.657                  -0.397468        0.869876
0.658                  -0.393747        0.871855
0.659                  -0.390009        0.873818
0.66                   -0.386254        0.875765
0.661                  -0.382483        0.877696
0.662                  -0.378694        0.879609
0.663                  -0.374887        0.881506
0.664                  -0.371064        0.883385
0.665                  -0.367222        0.885246
0.666                  -0.363363        0.887089
0.667                  -0.359486        0.888913
0.668                  -0.355591        0.890718
0.669                  -0.351678        0.892503
0.67                   -0.347748        0.894268
0.671                    -0.3438        0.896011
0.672                  -0.339833        0.897733
0.673                   -0.33585        0.899433
0.674                   -0.33185        0.901111
0.675                  -0.327833        0.902765
0.676                  -0.323799        0.904395
0.677                  -0.319749        0.906002
0.678                  -0.315683        0.907583
0.679                  -0.311602         0.90914
0.68                   -0.307507        0.910671
0.681                  -0.303397        0.912177
0.682                  -0.299273        0.913657
0.683                  -0.295136        0.915111
0.684                  -0.290986        0.916538
0.685                  -0.286824        0.917939
0.686                  -0.282649        0.919314
0.687                  -0.278463        0.920663
0.688                  -0.274266        0.921985
0.689                  -0.270057        0.923281
0.69                   -0.265838        0.924551
0.691                  -0.261608        0.925795
0.692                  -0.257368        0.927013
0.693                  -0.253117        0.928206
0.694                  -0.248855        0.929373
0.695                  -0.244583        0.930514
0.696                  -0.240299         0.93163
0.697                  -0.236005         0.93272
0.698                  -0.231698        0.933784
0.699                   -0.22738        0.934823
0.7                    -0.223049        0.935835
0.701                  -0.218705        0.936821
0.702                  -0.214348        0.937779
0.703                  -0.209976         0.93871
0.704                  -0.205591        0.939612
0.705                   -0.20119        0.940485
0.706                  -0.196774        0.941327
0.707                  -0.192342        0.942138
0.708                  -0.187893        0.942916
0.709                  -0.183429        0.943659
0.71                   -0.178948        0.944366
0.711                  -0.174451        0.945035
0.712                  -0.169937        0.945665
0.713                  -0.165408        0.946253
0.714                  -0.160864        0.946798
0.715                  -0.156305        0.947297
0.716                  -0.151733        0.947749
0.717                  -0.147148        0.948151
0.718                  -0.142553        0.948501
0.719                  -0.137948        0.948797
0.72                   -0.133337        0.949038
0.721                  -0.128721         0.94922
0.722                  -0.124102        0.949343
0.723                  -0.119484        0.949405
0.724                  -0.114868        0.949403
0.725                   -0.11026        0.949337
0.726                  -0.105662        0.949206
0.727                  -0.101076        0.949009
0.728                 -0.0965086        0.948746
0.729                 -0.0919624        0.948415
0.73                  -0.0874415        0.948017
0.731                 -0.0829496        0.947553
0.732                 -0.0784913        0.947023
0.733                 -0.0740711        0.946429
0.734                 -0.0696936        0.945771
0.735                  -0.065362        0.945052
0.736                  -0.061081        0.944275
0.737                 -0.0568549        0.943441
0.738                 -0.0526875        0.942554
0.739                 -0.0485818        0.941618
0.74                   -0.044542        0.940635
0.741                 -0.0405711        0.939611
0.742                 -0.0366716        0.938549
0.743                 -0.0328471        0.937455
0.744                 -0.0290984        0.936333
0.745                  -0.025428        0.935189
0.746                 -0.0218371        0.934028
0.747                 -0.0183275        0.932855
0.748                 -0.0148985        0.931677
0.749                 -0.0115508          0.9305
0.75                 -0.00828363        0.929329
0.751                -0.00509616        0.928169
0.752                -0.00198661        0.927028
0.753                 0.00104597         0.92591
0.754                 0.00400524        0.924821
0.755                 0.00689356        0.923766
0.756                 0.00971378        0.922751
0.757                  0.0124705        0.921781
0.758                  0.0151676        0.920859
0.759                  0.0178097        0.919991
0.76                   0.0204009        0.919179
0.761                  0.0229478        0.918428
0.762                  0.0254546         0.91774
0.763                  0.0279277        0.917118
0.764                  0.0303725        0.916564
0.765                  0.0327955        0.916079
0.766                  0.0352026        0.915664
0.767                  0.0375992         0.91532
0.768                  0.0399921        0.915047
0.769                  0.0423879        0.914844
0.77                   0.0447912         0.91471
0.771                   0.047209        0.914644
0.772                  0.0496466        0.914643
0.773                  0.0521097        0.914706
0.774                  0.0546023        0.914829
0.775                  0.0571304        0.915009
0.776                  0.0596973        0.915242
0.777                  0.0623083        0.915525
0.778                  0.0649671        0.915854
0.779                   0.067676        0.916223
0.78                   0.0704384        0.916628
0.781                   0.073257        0.917065
0.782                  0.0761337        0.917528
0.783                  0.0790697        0.918013
0.784                   0.082066        0.918514
0.785                  0.0851234        0.919026
0.786                  0.0882427        0.919545
0.787                  0.0914225        0.920065
0.788                  0.0946638        0.920583
0.789                  0.0979638        0.921093
0.79                    0.101322         0.92159
0.791                   0.104737        0.922072
0.792                   0.108205        0.922534
0.793                   0.111726        0.922972
0.794                   0.115297        0.923384
0.795                   0.118915        0.923767
0.796                   0.122576        0.924117
0.797                   0.126278        0.924433
0.798                   0.130018        0.924713
0.799                   0.133793        0.924955
0.8                     0.137599        0.925158
0.801                   0.141435        0.925321
0.802                   0.145296        0.925445
0.803                   0.149178        0.925527
0.804                    0.15308         0.92557
0.805                      0.157        0.925572
0.806                   0.160934        0.925534
0.807                    0.16488        0.925458
0.808                   0.168836        0.925344
0.809                   0.172799        0.925193
0.81                     0.17677        0.925006
0.811                   0.180745        0.924786
0.812                   0.184723        0.924532
0.813                   0.188705        0.924248
0.814                   0.192688        0.923934
0.815                   0.196673        0.923591
0.816                   0.200658        0.923221
0.817                   0.204645        0.922826
0.818                   0.208633        0.922406
0.819                   0.212623        0.921963
0.82                    0.216615        0.921497
0.821                   0.220609         0.92101
0.822                   0.224605        0.920503
0.823                   0.228607        0.919975
0.824                   0.232613        0.919426
0.825                   0.236625        0.918859
0.826                   0.240643        0.918271
0.827                   0.244669        0.917663
0.828                   0.248702        0.917035
0.829                   0.252745        0.916386
0.83                    0.256798        0.915715
0.831                    0.26086        0.915022
0.832                   0.264934        0.914306
0.833                   0.269018        0.913565
0.834                   0.273115        0.912799
0.835                   0.277222        0.912006
0.836                   0.281341        0.911185
0.837                   0.285471        0.910335
0.838                   0.289612        0.909455
0.839                   0.293763        0.908544
0.84                    0.297924        0.907599
0.841                   0.302093        0.906621
0.842                    0.30627        0.905609
0.843                   0.310454         0.90456
0.844                   0.314644        0.903475
0.845                   0.318837        0.902353
0.846                   0.323033        0.901193
0.847                   0.327232        0.899995
0.848                    0.33143        0.898759
0.849                   0.335627        0.897484
0.85                    0.339821        0.896171
0.851                   0.344011         0.89482
0.852                   0.348196         0.89343
0.853                   0.352374        0.892004
0.854                   0.356545        0.890541
0.855                   0.360706        0.889041
0.856                   0.364859        0.887507
0.857                      0.369        0.885938
0.858                    0.37313        0.884335
0.859                   0.377249        0.882701
0.86                    0.381356        0.881034
0.861                   0.385451        0.879338
0.862                   0.389534        0.877612
0.863                   0.393605        0.875857
0.864                   0.397665        0.874074
0.865                   0.401714        0.872265
0.866                   0.405752        0.870429
0.867                    0.40978        0.868566
0.868                     0.4138        0.866679
0.869                   0.417812        0.864765
0.87                    0.421816        0.862826
0.871                   0.425815         0.86086
0.872                   0.429809        0.858868
0.873                   0.433799        0.856849
0.874                   0.437785        0.854802
0.875                   0.441769        0.852725
0.876                   0.445751        0.850617
0.877                   0.449733        0.848478
0.878                   0.453713        0.846304
0.879                   0.457694        0.844094
0.88                    0.461673        0.841845
0.881                   0.465652        0.839557
0.882                    0.46963        0.837225
0.883                   0.473606        0.834849
0.884                   0.477578        0.832425
0.885                   0.481545        0.829951
0.886                   0.485506        0.827424
0.887                   0.489458        0.824842
0.888                   0.493399        0.822203
0.889                   0.497326        0.819505
0.89                    0.501236        0.816745
0.891                   0.505125        0.813922
0.892                    0.50899        0.811035
0.893                   0.512826        0.808081
0.894                    0.51663        0.805061
0.895                   0.520397        0.801973
0.896                   0.524122        0.798818
0.897                     0.5278        0.795595
0.898                   0.531426        0.792306
0.899                   0.534996        0.788951
0.9                     0.538503        0.785533
0.901                   0.541944        0.782053
0.902                   0.545312        0.778514
0.903                   0.548604        0.774919
0.904                   0.551814        0.771272
0.905                   0.554937        0.767576
0.906                    0.55797        0.763837
0.907                   0.560908        0.760059
0.908                   0.563748        0.756247
0.909                   0.566487        0.752409
0.91                    0.569121        0.748549
0.911                   0.571649        0.744674
0.912                   0.574068        0.740792
0.913                   0.576378        0.736908
0.914                   0.578577        0.733031
0.915                   0.580666        0.729168
0.916                   0.582646        0.725326
0.917                   0.584516        0.721513
0.918                    0.58628        0.717736
0.919                    0.58794        0.714002
0.92                    0.589499         0.71032
0.921                    0.59096        0.706694
0.922                   0.592327        0.703133
0.923                   0.593606        0.699643
0.924                   0.594803         0.69623
0.925                   0.595922        0.692899
0.926                   0.596971        0.689655
0.927                   0.597956        0.686503
0.928                   0.598885        0.683448
0.929                   0.599764        0.680491
0.93                    0.600603        0.677637
0.931                   0.601409        0.674886
0.932                   0.602189        0.672242
0.933                   0.602954        0.669703
0.934                    0.60371        0.667272
0.935                   0.604467        0.664945
0.936                   0.605232        0.662724
0.937                   0.606013        0.660604
0.938                   0.606819        0.658584
0.939                   0.607657        0.656661
0.94                    0.608534         0.65483
0.941                   0.609457        0.653087
0.942                   0.610433        0.651426
0.943                   0.611467        0.649844
0.944                   0.612565        0.648332
0.945                   0.613732        0.646885
0.946                   0.614971        0.645497
0.947                   0.616288         0.64416
0.948                   0.617683        0.642867
0.949                   0.619161         0.64161
0.95                    0.620723        0.640383
0.951                   0.622369        0.639177
0.952                   0.624101        0.637986
0.953                   0.625917        0.636802
0.954                   0.627817        0.635617
0.955                   0.629799        0.634425
0.956                   0.631862        0.633218
0.957                   0.634003        0.631991
0.958                   0.636218        0.630738
0.959                   0.638504        0.629451
0.96                    0.640857        0.628127
0.961                   0.643273        0.626761
0.962                   0.645746        0.625348
0.963                   0.648273        0.623884
0.964                   0.650847        0.622366
0.965                   0.653463        0.620791
0.966                   0.656117        0.619158
0.967                   0.658801        0.617464
0.968                   0.661512        0.615709
0.969                   0.664243        0.613893
0.97                    0.666989        0.612014
0.971                   0.669745        0.610073
0.972                   0.672506        0.608073
0.973                   0.675267        0.606013
0.974                   0.678024        0.603896
0.975                   0.680773        0.601723
0.976                    0.68351        0.599498
0.977                   0.686232        0.597223
0.978                   0.688936        0.594901
0.979                    0.69162        0.592535
0.98                     0.69428        0.590129
0.981                   0.696916        0.587685
0.982                   0.699526        0.585207
0.983                    0.70211        0.582699
0.984                   0.704667        0.580163
0.985                   0.707196        0.577604
0.986                   0.709699        0.575023
0.987                   0.712176        0.572425
0.988                   0.714628        0.569811
0.989                   0.717055        0.567184
0.99                     0.71946        0.564546
0.991                   0.721844        0.561899
0.992                    0.72421        0.559246
0.993                   0.726558        0.556586
0.994                   0.728891        0.553921
0.995                   0.731211        0.551251
0.996                    0.73352        0.548578
0.997                    0.73582          0.5459
0.998                   0.738114        0.543218
0.999                   0.740402        0.540531
1                       0.742687        0.537838
1.001                    0.74497        0.535138
1.002                   0.747252         0.53243
1.003                   0.749535        0.529712
1.004                    0.75182        0.526982
1.005                   0.754107         0.52424
1.006                   0.756396        0.521484
1.007                   0.758687         0.51871
1.008                   0.760981        0.515918
1.009                   0.763277        0.513106
1.01                    0.765575        0.510272
1.011                   0.767872        0.507414
1.012                   0.770169        0.504531
1.013                   0.772463        0.501622
1.014                   0.774754        0.498685
1.015                   0.777039        0.495719
1.016                   0.779317        0.492725
1.017                   0.781586          0.4897
1.018                   0.783844        0.486645
1.019                   0.786089         0.48356
1.02                    0.788319        0.480445
1.021                   0.790532        0.477301
1.022                   0.792726        0.474128
1.023                   0.794899        0.470928
1.024                    0.79705        0.467701
1.025                   0.799178        0.464449
1.026                   0.801281        0.461173
1.027                   0.803358        0.457875
1.028                   0.805409        0.454557
1.029                   0.807433        0.451221
1.03                    0.809429        0.447869
1.031                   0.811398        0.444501
1.032                   0.813341        0.441122
1.033                   0.815257        0.437731
1.034                   0.817147        0.434331
1.035                   0.819013        0.430923
1.036                   0.820856        0.427509
1.037                   0.822677         0.42409
1.038                   0.824479        0.420667
1.039                   0.826262        0.417239
1.04                     0.82803        0.413809
1.041                   0.829783        0.410374
1.042                   0.831524        0.406936
1.043                   0.833255        0.403494
1.044                   0.834979        0.400045
1.045                   0.836696         0.39659
1.046                   0.838409        0.393127
1.047                   0.840119        0.389653
1.048                   0.841827        0.386166
1.049                   0.843535        0.382663
1.05                    0.845243        0.379142
1.051                   0.846952          0.3756
1.052                   0.848661        0.372033
1.053                    0.85037        0.368437
1.054                   0.852079        0.364811
1.055                   0.853785        0.361149
1.056                   0.855487        0.357449
1.057                   0.857183        0.353707
1.058                   0.858869        0.349919
1.059                   0.860543        0.346084
1.06                    0.862201        0.342197
1.061                   0.863838        0.338257
1.062                    0.86545        0.334261
1.063                   0.867032        0.330208
1.064                   0.868578        0.326096
1.065                   0.870083        0.321925
1.066                    0.87154        0.317695
1.067                   0.872945        0.313405
1.068                   0.874289        0.309057
1.069                   0.875568        0.304654
1.07                    0.876774        0.300196
1.071                   0.877902        0.295687
1.072                   0.878945        0.291132
1.073                   0.879898        0.286534
1.074                   0.880755        0.281899
1.075                    0.88151        0.277232
1.076                   0.882158         0.27254
1.077                   0.882697         0.26783
1.078                   0.883121        0.263109
1.079                   0.883428        0.258385
1.08                    0.883615        0.253668
1.081                    0.88368        0.248964
1.082                   0.883624        0.244285
1.083                   0.883445        0.239638
1.084                   0.883145        0.235033
1.085                   0.882725        0.230481
1.086                   0.882188        0.225989
1.087                   0.881538        0.221568
1.088                   0.880778        0.217226
1.089                   0.879914        0.212973
1.09                    0.878951        0.208817
1.091                   0.877898        0.204765
1.092                    0.87676        0.200825
1.093                   0.875548        0.197003
1.094                   0.874269        0.193306
1.095                   0.872933         0.18974
1.096                    0.87155        0.186307
1.097                   0.870131        0.183012
1.098                   0.868686        0.179857
1.099                   0.867226        0.176845
1.1                     0.865763        0.173975
1.101                   0.864309        0.171248
1.102                   0.862873        0.168661
1.103                   0.861468        0.166214
1.104                   0.860104        0.163901
1.105                   0.858791         0.16172
1.106                   0.857541        0.159665
1.107                   0.856362        0.157729
1.108                   0.855264        0.155907
1.109                   0.854256        0.154189
1.11                    0.853344        0.152569
1.111                   0.852536        0.151037
1.112                   0.851838        0.149582
1.113                   0.851255        0.148197
1.114                   0.850792        0.146869
1.115                   0.850451        0.145588
1.116                   0.850235        0.144344
1.117                   0.850146        0.143125
1.118                   0.850183        0.141921
1.119                   0.850346         0.14072
1.12                    0.850634        0.139512
1.121                   0.851044        0.138287
1.122                   0.851572        0.137034
1.123                   0.852215        0.135745
1.124                   0.852966        0.134409
1.125                   0.853822        0.133019
1.126                   0.854774        0.131566
1.127                   0.855816        0.130044
1.128                   0.856941        0.128447
1.129                    0.85814        0.126769
1.13                    0.859405        0.125005
1.131                   0.860728        0.123151
1.132                   0.862099        0.121205
1.133                   0.863511        0.119165
1.134                   0.864954        0.117029
1.135                    0.86642        0.114797
1.136                     0.8679        0.112469
1.137                   0.869386        0.110048
1.138                   0.870871        0.107533
1.139                   0.872345         0.10493
1.14                    0.873804        0.102239
1.141                   0.875239       0.0994668
1.142                   0.876646       0.0966161
1.143                   0.878019       0.0936921
1.144                   0.879352       0.0907002
1.145                   0.880644       0.0876456
1.146                   0.881889       0.0845341
1.147                   0.883086       0.0813714
1.148                   0.884231       0.0781635
1.149                   0.885326       0.0749162
1.15                    0.886368       0.0716352
1.151                   0.887357        0.068326
1.152                   0.888295        0.064994
1.153                   0.889182       0.0616443
1.154                    0.89002       0.0582816
1.155                   0.890812       0.0549101
1.156                   0.891559       0.0515338
1.157                   0.892264       0.0481561
1.158                   0.892932       0.0447799
1.159                   0.893565       0.0414077
1.16                    0.894166       0.0380413
1.161                   0.894739       0.0346821
1.162                   0.895287        0.031331
1.163                   0.895815       0.0279883
1.164                   0.896326        0.024654
1.165                   0.896822       0.0213275
1.166                   0.897307       0.0180078
1.167                   0.897784       0.0146935
1.168                   0.898255       0.0113829
1.169                   0.898721      0.00807391
1.17                    0.899186      0.00476438
1.171                    0.89965      0.00145182
1.172                   0.900115     -0.00186636
1.173                    0.90058     -0.00519282
1.174                   0.901046     -0.00853026
1.175                   0.901513      -0.0118813
1.176                    0.90198      -0.0152486
1.177                   0.902445      -0.0186346
1.178                   0.902909      -0.0220416
1.179                   0.903368      -0.0254715
1.18                    0.903822      -0.0289262
1.181                   0.904267      -0.0324072
1.182                   0.904701      -0.0359157
1.183                   0.905123      -0.0394525
1.184                   0.905528      -0.0430181
1.185                   0.905915      -0.0466127
1.186                    0.90628      -0.0502359
1.187                   0.906621      -0.0538872
1.188                   0.906936      -0.0575655
1.189                   0.907222      -0.0612698
1.19                    0.907477      -0.0649982
1.191                   0.907698       -0.068749
1.192                   0.907885        -0.07252
1.193                   0.908035      -0.0763088
1.194                   0.908147      -0.0801132
1.195                   0.908221      -0.0839302
1.196                   0.908257      -0.0877575
1.197                   0.908254      -0.0915922
1.198                   0.908212      -0.0954316
1.199                   0.908132      -0.0992733
1.2                     0.908016       -0.103115
1.201                   0.907865       -0.106954
1.202                    0.90768       -0.110788
1.203                   0.907463       -0.114617
1.204                   0.907217       -0.118437
1.205                   0.906944       -0.122249
1.206                   0.906646       -0.126052
1.207                   0.906327       -0.129844
1.208                   0.905988       -0.133628
1.209                   0.905632       -0.137402
1.21                    0.905263       -0.141168
1.211                   0.904882       -0.144927
1.212                   0.904493       -0.148681
1.213                   0.904095       -0.152433
1.214                   0.903693       -0.156184
1.215                   0.903287       -0.159938
1.216                   0.902877       -0.163698
1.217                   0.902465       -0.167467
1.218                   0.902051        -0.17125
1.219                   0.901634       -0.175048
1.22                    0.901214       -0.178868
1.221                   0.900788       -0.182712
1.222                   0.900355       -0.186584
1.223                   0.899913       -0.190487
1.224                   0.899457       -0.194426
1.225                   0.898984       -0.198404
1.226                   0.898491       -0.202422
1.227                   0.897972       -0.206484
1.228                   0.897422       -0.210592
1.229                   0.896835       -0.214747
1.23                    0.896206        -0.21895
1.231                   0.895528       -0.223201
1.232                   0.894794         -0.2275
1.233                      0.894       -0.231845
1.234                   0.893136       -0.236235
1.235                   0.892198       -0.240667
1.236                   0.891178       -0.245137
1.237                   0.890069       -0.249642
1.238                   0.888867       -0.254175
1.239                   0.887565       -0.258733
1.24                    0.886157       -0.263308
1.241                   0.884639       -0.267892
1.242                   0.883007       -0.272479
1.243                   0.881257        -0.27706
1.244                   0.879387       -0.281626
1.245                   0.877394       -0.286168
1.246                   0.875276       -0.290676
1.247                   0.873035        -0.29514
1.248                   0.870671       -0.299551
1.249                   0.868185       -0.303898
1.25                    0.865579        -0.30817
1.251                   0.862858       -0.312359
1.252                   0.860027       -0.316453
1.253                    0.85709       -0.320444
1.254                   0.854054       -0.324322
1.255                   0.850927       -0.328079
1.256                   0.847717       -0.331707
1.257                   0.844434       -0.335197
1.258                   0.841086       -0.338545
1.259                   0.837684       -0.341744
1.26                     0.83424       -0.344789
1.261                   0.830766       -0.347676
1.262                   0.827272       -0.350404
1.263                   0.823772       -0.352969
1.264                   0.820277       -0.355372
1.265                   0.816802       -0.357612
1.266                   0.813357       -0.359692
1.267                   0.809956       -0.361615
1.268                    0.80661       -0.363384
1.269                   0.803332       -0.365003
1.27                    0.800133        -0.36648
1.271                   0.797023       -0.367822
1.272                   0.794014       -0.369035
1.273                   0.791113        -0.37013
1.274                   0.788331       -0.371115
1.275                   0.785674       -0.372001
1.276                    0.78315       -0.372799
1.277                   0.780763       -0.373521
1.278                    0.77852       -0.374179
1.279                   0.776424       -0.374784
1.28                    0.774476        -0.37535
1.281                   0.772679        -0.37589
1.282                   0.771032       -0.376415
1.283                   0.769535       -0.376938
1.284                   0.768186       -0.377473
1.285                   0.766981        -0.37803
1.286                   0.765917       -0.378622
1.287                   0.764988        -0.37926
1.288                   0.764188       -0.379955
1.289                    0.76351       -0.380715
1.29                    0.762948       -0.381551
1.291                   0.762491       -0.382471
1.292                   0.762132       -0.383481
1.293                    0.76186        -0.38459
1.294                   0.761667       -0.385801
1.295                    0.76154        -0.38712
1.296                   0.761471       -0.388551
1.297                   0.761448       -0.390095
1.298                    0.76146       -0.391754
1.299                   0.761498       -0.393529
1.3                      0.76155       -0.395419
1.301                   0.761606       -0.397424
1.302                   0.761658       -0.399539
1.303                   0.761694       -0.401763
1.304                   0.761708       -0.404092
1.305                   0.761689        -0.40652
1.306                   0.761631       -0.409042
1.307                   0.761527       -0.411653
1.308                   0.761371       -0.414346
1.309                   0.761157       -0.417114
1.31                    0.760881        -0.41995
1.311                   0.760538       -0.422847
1.312                   0.760127       -0.425798
1.313                   0.759645       -0.428794
1.314                    0.75909       -0.431828
1.315                   0.758463       -0.434893
1.316                   0.757763       -0.437982
1.317                   0.756991       -0.441088
1.318                   0.756149       -0.444203
1.319                   0.755239       -0.447323
1.32                    0.754265       -0.450441
1.321                   0.753228       -0.453551
1.322                   0.752134       -0.456651
1.323                   0.750985       -0.459734
1.324                   0.749787       -0.462798
1.325                   0.748544        -0.46584
1.326                   0.747261       -0.468857
1.327                   0.745942       -0.471848
1.328                   0.744592       -0.474812
1.329                   0.743216       -0.477749
1.33                    0.741818       -0.480658
1.331                   0.740404        -0.48354
1.332                   0.738976       -0.486396
1.333                   0.737539       -0.489229
1.334                   0.736096       -0.492039
1.335                    0.73465        -0.49483
1.336                   0.733204       -0.497604
1.337                    0.73176       -0.500363
1.338                    0.73032       -0.503112
1.339                   0.728885       -0.505853
1.34                    0.727456        -0.50859
1.341                   0.726033       -0.511325
1.342                   0.724617       -0.514063
1.343                   0.723206       -0.516806
1.344                   0.721799       -0.519557
1.345                   0.720396       -0.522319
1.346                   0.718995       -0.525095
1.347                   0.717594       -0.527887
1.348                   0.716189       -0.530697
1.349                    0.71478       -0.533527
1.35                    0.713364       -0.536378
1.351                   0.711937        -0.53925
1.352                   0.710496       -0.542145
1.353                    0.70904       -0.545063
1.354                   0.707565       -0.548003
1.355                   0.706068       -0.550965
1.356                   0.704546       -0.553948
1.357                   0.702998       -0.556951
1.358                   0.701421       -0.559973
1.359                   0.699813       -0.563011
1.36                    0.698171       -0.566065
1.361                   0.696495       -0.569131
1.362                   0.694784       -0.572207
1.363                   0.693035       -0.575292
1.364                    0.69125       -0.578382
1.365                   0.689426       -0.581476
1.366                   0.687565       -0.584571
1.367                   0.685667       -0.587665
1.368                   0.683732       -0.590755
1.369                   0.681761       -0.593841
1.37                    0.679755       -0.596919
1.371                   0.677716       -0.599988
1.372                   0.675645       -0.603047
1.373                   0.673544       -0.606096
1.374                   0.671414       -0.609133
1.375                   0.669257       -0.612157
1.376                   0.667074        -0.61517
1.377                   0.664868        -0.61817
1.378                    0.66264       -0.621159
1.379                   0.660392       -0.624137
1.38                    0.658124       -0.627106
1.381                   0.655838       -0.630066
1.382                   0.653535       -0.633019
1.383                   0.651214       -0.635968
1.384                   0.648877       -0.638913
1.385                   0.646524       -0.641857
1.386                   0.644153       -0.644802
1.387                   0.641763        -0.64775
1.388                   0.639355       -0.650702
1.389                   0.636925       -0.653662
1.39                    0.634471        -0.65663
1.391                   0.631993       -0.659608
1.392                   0.629485       -0.662597
1.393                   0.626947         -0.6656
1.394                   0.624373       -0.668615
1.395                   0.621761       -0.671644
1.396                   0.619107       -0.674686
1.397                   0.616406       -0.677741
1.398                   0.613655       -0.680808
1.399                   0.610848       -0.683885
1.4                     0.607983        -0.68697
1.401                   0.605055        -0.69006
1.402                   0.602059       -0.693151
1.403                   0.598992       -0.696242
1.404                    0.59585       -0.699325
1.405                   0.592631       -0.702398
1.406                    0.58933       -0.705455
1.407                   0.585947        -0.70849
1.408                   0.582477       -0.711496
1.409                   0.578921       -0.714467
1.41                    0.575278       -0.717397
1.411                   0.571547       -0.720277
1.412                   0.567728       -0.723101
1.413                   0.563823       -0.725862
1.414                   0.559834       -0.728551
1.415                   0.555763       -0.731161
1.416                   0.551615       -0.733685
1.417                   0.547392       -0.736115
1.418                     0.5431       -0.738444
1.419                   0.538746       -0.740666
1.42                    0.534333       -0.742775
1.421                   0.529871       -0.744764
1.422                   0.525367       -0.746629
1.423                   0.520828       -0.748364
1.424                   0.516264       -0.749966
1.425                   0.511683       -0.751431
1.426                   0.507095       -0.752758
1.427                    0.50251       -0.753944
1.428                   0.497939       -0.754989
1.429                    0.49339       -0.755892
1.43                    0.488875       -0.756655
1.431                   0.484404        -0.75728
1.432                   0.479987        -0.75777
1.433                   0.475634       -0.758127
1.434                   0.471354       -0.758358
1.435                   0.467157       -0.758467
1.436                   0.463052        -0.75846
1.437                   0.459047       -0.758345
1.438                    0.45515       -0.758129
1.439                   0.451367       -0.757821
1.44                    0.447705        -0.75743
1.441                    0.44417       -0.756966
1.442                   0.440766       -0.756438
1.443                   0.437497       -0.755857
1.444                   0.434365       -0.755233
1.445                   0.431374       -0.754578
1.446                   0.428523       -0.753903
1.447                   0.425813       -0.753218
1.448                   0.423243       -0.752536
1.449                   0.420812       -0.751865
1.45                    0.418515       -0.751218
1.451                    0.41635       -0.750604
1.452                   0.414312       -0.750033
1.453                   0.412396       -0.749515
1.454                   0.410595       -0.749058
1.455                   0.408904       -0.748672
1.456                   0.407313       -0.748362
1.457                   0.405816       -0.748137
1.458                   0.404404       -0.748001
1.459                   0.403067       -0.747961
1.46                    0.401798       -0.748021
1.461                   0.400586       -0.748183
1.462                   0.399421       -0.748452
1.463                   0.398294       -0.748828
1.464                   0.397196       -0.749312
1.465                   0.396115       -0.749905
1.466                   0.395044       -0.750604
1.467                   0.393973        -0.75141
1.468                   0.392894       -0.752319
1.469                   0.391796       -0.753328
1.47                    0.390674       -0.754433
1.471                   0.389518        -0.75563
1.472                   0.388323       -0.756913
1.473                   0.387081       -0.758277
1.474                   0.385788       -0.759716
1.475                   0.384438       -0.761224
1.476                   0.383028       -0.762793
1.477                   0.381553       -0.764417
1.478                    0.38001        -0.76609
1.479                   0.378398       -0.767803
1.48                    0.376716       -0.769549
1.481                   0.374962       -0.771323
1.482                   0.373137       -0.773116
1.483                   0.371241       -0.774922
1.484                   0.369275       -0.776735
1.485                   0.367242       -0.778548
1.486                   0.365144       -0.780356
1.487                   0.362983       -0.782154
1.488                   0.360763       -0.783937
1.489                   0.358487         -0.7857
1.49                     0.35616        -0.78744
1.491                   0.353785       -0.789153
1.492                   0.351367       -0.790836
1.493                    0.34891       -0.792488
1.494                   0.346419       -0.794105
1.495                   0.343898       -0.795689
1.496                   0.341352       -0.797237
1.497                   0.338785       -0.798749
1.498                   0.336202       -0.800226
1.499                   0.333606       -0.801669
1.5                     0.331001       -0.803078
1.501                   0.328391       -0.804455
1.502                   0.325779       -0.805803
1.503                   0.323168       -0.807122
1.504                    0.32056       -0.808417
1.505                   0.317958       -0.809688
1.506                   0.315363       -0.810939
1.507                   0.312777       -0.812173
1.508                   0.310201       -0.813392
1.509                   0.307635         -0.8146
1.51                     0.30508       -0.815799
1.511                   0.302536       -0.816993
1.512                   0.300002       -0.818183
1.513                   0.297478       -0.819373
1.514                   0.294963       -0.820565
1.515                   0.292454       -0.821761
1.516                   0.289952       -0.822963
1.517                   0.287455       -0.824174
1.518                   0.284959       -0.825393
1.519                   0.282465       -0.826624
1.52                    0.279969       -0.827867
1.521                   0.277469       -0.829123
1.522                   0.274964       -0.830392
1.523                   0.272452       -0.831674
1.524                   0.269929        -0.83297
1.525                   0.267395        -0.83428
1.526                   0.264847       -0.835604
1.527                   0.262283        -0.83694
1.528                   0.259702       -0.838288
1.529                   0.257102       -0.839647
1.53                    0.254482       -0.841016
1.531                    0.25184       -0.842395
1.532                   0.249175       -0.843782
1.533                   0.246486       -0.845176
1.534                   0.243772       -0.846576
1.535                   0.241032        -0.84798
1.536                   0.238266       -0.849388
1.537                   0.235474       -0.850798
1.538                   0.232654       -0.852209
1.539                   0.229807       -0.853621
1.54                    0.226933       -0.855032
1.541                    0.22403       -0.856442
1.542                   0.221099       -0.857849
1.543                    0.21814       -0.859254
1.544                   0.215152       -0.860655
1.545                   0.212135       -0.862051
1.546                    0.20909       -0.863443
1.547                   0.206015       -0.864831
1.548                   0.202911       -0.866213
1.549                   0.199776       -0.867589
1.55                     0.19661       -0.868959
1.551                   0.193412       -0.870322
1.552                   0.190182       -0.871679
1.553                   0.186918       -0.873029
1.554                    0.18362        -0.87437
1.555                   0.180285       -0.875703
1.556                   0.176913       -0.877027
1.557                   0.173503        -0.87834
1.558                   0.170052       -0.879641
1.559                   0.166559        -0.88093
1.56                    0.163024       -0.882204
1.561                   0.159443       -0.883461
1.562                   0.155816         -0.8847
1.563                   0.152142       -0.885918
1.564                   0.148417       -0.887112
1.565                   0.144643        -0.88828
1.566                   0.140817       -0.889418
1.567                   0.136938       -0.890524
1.568                   0.133006       -0.891592
1.569                   0.129021       -0.892621
1.57                    0.124982       -0.893604
1.571                   0.120889       -0.894539
1.572                   0.116743        -0.89542
1.573                   0.112545       -0.896244
1.574                   0.108297       -0.897005
1.575                   0.103999       -0.897698
1.576                  0.0996559        -0.89832
1.577                  0.0952683       -0.898865
1.578                    0.09084       -0.899329
1.579                  0.0863745       -0.899708
1.58                   0.0818762       -0.899996
1.581                  0.0773493       -0.900191
1.582                  0.0727992       -0.900288
1.583                  0.0682309       -0.900284
1.584                  0.0636507       -0.900176
1.585                  0.0590645       -0.899962
1.586                  0.0544787       -0.899638
1.587                  0.0499005       -0.899204
1.588                  0.0453367       -0.898658
1.589                  0.0407946          -0.898
1.59                   0.0362817        -0.89723
1.591                   0.031806       -0.896348
1.592                  0.0273741       -0.895355
1.593                  0.0229946       -0.894255
1.594                  0.0186744       -0.893048
1.595                  0.0144213       -0.891739
1.596                  0.0102419        -0.89033
1.597                 0.00614372       -0.888828
1.598                 0.00213343       -0.887236
1.599                -0.00178311        -0.88556
1.6                  -0.00559978       -0.883807
1.601                -0.00931147       -0.881983
1.602                 -0.0129131       -0.880095
1.603                 -0.0164003       -0.878151
1.604                 -0.0197697        -0.87616
1.605                  -0.023018       -0.874128
1.606                 -0.0261431       -0.872065
1.607                  -0.029143        -0.86998
1.608                  -0.032017       -0.867882
1.609                 -0.0347648       -0.865778
1.61                  -0.0373873        -0.86368
1.611                 -0.0398852       -0.861594
1.612                 -0.0422607       -0.859531
1.613                 -0.0445168       -0.857499
1.614                 -0.0466568       -0.855506
1.615                 -0.0486845        -0.85356
1.616                 -0.0506045       -0.851669
1.617                 -0.0524229        -0.84984
1.618                 -0.0541448        -0.84808
1.619                 -0.0557771       -0.846396
1.62                  -0.0573263       -0.844792
1.621                 -0.0588005       -0.843274
1.622                 -0.0602064       -0.841847
1.623                 -0.0615523       -0.840513
1.624                 -0.0628466       -0.839276
1.625                 -0.0640972       -0.838139
1.626                 -0.0653132       -0.837103
1.627                 -0.0665024       -0.836169
1.628                 -0.0676737       -0.835337
1.629                 -0.0688352       -0.834606
1.63                  -0.0699951       -0.833975
1.631                 -0.0711618       -0.833443
1.632                 -0.0723424       -0.833007
1.633                 -0.0735446       -0.832663
1.634                 -0.0747753       -0.832408
1.635                 -0.0760412       -0.832238
1.636                 -0.0773483       -0.832147
1.637                 -0.0787021       -0.832132
1.638                 -0.0801078       -0.832186
1.639                 -0.0815694       -0.832303
1.64                  -0.0830916       -0.832478
1.641                 -0.0846771       -0.832703
1.642                 -0.0863288       -0.832973
1.643                 -0.0880485       -0.833281
1.644                 -0.0898378        -0.83362
1.645                 -0.0916977       -0.833984
1.646                 -0.0936285       -0.834365
1.647                 -0.0956295       -0.834759
1.648                 -0.0977002       -0.835159
1.649                 -0.0998389       -0.835558
1.65                   -0.102044       -0.835951
1.651                  -0.104313       -0.836332
1.652                  -0.106644       -0.836697
1.653                  -0.109032       -0.837041
1.654                  -0.111475        -0.83736
1.655                  -0.113969        -0.83765
1.656                  -0.116511       -0.837907
1.657                  -0.119095       -0.838129
1.658                  -0.121718       -0.838313
1.659                  -0.124375       -0.838458
1.66                   -0.127062       -0.838561
1.661                  -0.129775       -0.838621
1.662                  -0.132508       -0.838639
1.663                  -0.135259       -0.838613
1.664                  -0.138023       -0.838544
1.665                  -0.140795       -0.838433
1.666                  -0.143572       -0.838281
1.667                   -0.14635       -0.838088
1.668                  -0.149126       -0.837856
1.669                  -0.151898       -0.837588
1.67                   -0.154661       -0.837285
1.671                  -0.157414       -0.836949
1.672                  -0.160155       -0.836583
1.673                  -0.162881        -0.83619
1.674                  -0.165591       -0.835771
1.675                  -0.168284        -0.83533
1.676                  -0.170959        -0.83487
1.677                  -0.173615       -0.834392
1.678                  -0.176253         -0.8339
1.679                   -0.17887       -0.833397
1.68                    -0.18147       -0.832884
1.681                   -0.18405       -0.832365
1.682                  -0.186612        -0.83184
1.683                  -0.189158       -0.831314
1.684                  -0.191687       -0.830787
1.685                  -0.194202        -0.83026
1.686                  -0.196703       -0.829737
1.687                  -0.199191       -0.829218
1.688                  -0.201669       -0.828704
1.689                  -0.204138       -0.828197
1.69                   -0.206599       -0.827697
1.691                  -0.209055       -0.827204
1.692                  -0.211505        -0.82672
1.693                  -0.213953       -0.826245
1.694                  -0.216399       -0.825778
1.695                  -0.218845       -0.825321
1.696                  -0.221292       -0.824872
1.697                  -0.223742       -0.824431
1.698                  -0.226196       -0.823999
1.699                  -0.228655       -0.823575
1.7                     -0.23112       -0.823158
1.701                  -0.233591       -0.822749
1.702                  -0.236071       -0.822346
1.703                  -0.238559       -0.821949
1.704                  -0.241056       -0.821558
1.705                  -0.243564       -0.821172
1.706                  -0.246081       -0.820791
1.707                  -0.248611       -0.820414
1.708                  -0.251152       -0.820041
1.709                  -0.253705       -0.819672
1.71                   -0.256271       -0.819306
1.711                   -0.25885       -0.818944
1.712                  -0.261442       -0.818584
1.713                   -0.26405       -0.818226
1.714                  -0.266672       -0.817872
1.715                   -0.26931       -0.817519
1.716                  -0.271965       -0.817169
1.717                  -0.274637       -0.816821
1.718                  -0.277328       -0.816475
1.719                  -0.280038        -0.81613
1.72                   -0.282768       -0.815787
1.721                  -0.285521       -0.815444
1.722                  -0.288296       -0.815102
1.723                  -0.291096        -0.81476
1.724                  -0.293922       -0.814417
1.725                  -0.296776       -0.814072
1.726                  -0.299658       -0.813725
1.727                  -0.302571       -0.813373
1.728                  -0.305517       -0.813017
1.729                  -0.308497       -0.812652
1.73                   -0.311512        -0.81228
1.731                  -0.314564       -0.811896
1.732                  -0.317655       -0.811499
1.733                  -0.320786       -0.811086
1.734                  -0.323958       -0.810654
1.735                  -0.327172       -0.810201
1.736                  -0.330429       -0.809723
1.737                   -0.33373       -0.809217
1.738                  -0.337075       -0.808679
1.739                  -0.340464       -0.808106
1.74                   -0.343897       -0.807493
1.741                  -0.347373       -0.806836
1.742                  -0.350892       -0.806131
1.743                  -0.354452       -0.805375
1.744                  -0.358051       -0.804562
1.745                  -0.361688       -0.803689
1.746                   -0.36536       -0.802751
1.747                  -0.369065       -0.801745
1.748                  -0.372798       -0.800665
1.749                  -0.376556        -0.79951
1.75                   -0.380335       -0.798274
1.751                  -0.384131       -0.796955
1.752                  -0.387938       -0.795549
1.753                  -0.391751       -0.794055
1.754                  -0.395565       -0.792469
1.755                  -0.399375        -0.79079
1.756                  -0.403172       -0.789016
1.757                  -0.406953       -0.787147
1.758                  -0.410709       -0.785181
1.759                  -0.414435        -0.78312
1.76                   -0.418122       -0.780964
1.761                  -0.421765       -0.778713
1.762                  -0.425357       -0.776371
1.763                  -0.428891       -0.773939
1.764                   -0.43236       -0.771421
1.765                  -0.435758       -0.768819
1.766                  -0.439079       -0.766139
1.767                  -0.442317       -0.763384
1.768                  -0.445466       -0.760561
1.769                  -0.448521       -0.757675
1.77                   -0.451477       -0.754732
1.771                   -0.45433        -0.75174
1.772                  -0.457077       -0.748704
1.773                  -0.459714       -0.745634
1.774                  -0.462239       -0.742535
1.775                   -0.46465       -0.739417
1.776                  -0.466945       -0.736288
1.777                  -0.469125       -0.733156
1.778                  -0.471189       -0.730029
1.779                  -0.473139       -0.726915
1.78                   -0.474975       -0.723824
1.781                  -0.476701       -0.720763
1.782                   -0.47832        -0.71774
1.783                  -0.479834       -0.714763
1.784                  -0.481249        -0.71184
1.785                  -0.482569       -0.708977
1.786                    -0.4838        -0.70618
1.787                  -0.484948       -0.703457
1.788                   -0.48602       -0.700812
1.789                  -0.487022        -0.69825
1.79                   -0.487963       -0.695776
1.791                  -0.488849       -0.693394
1.792                   -0.48969       -0.691105
1.793                  -0.490493       -0.688914
1.794                  -0.491266        -0.68682
1.795                  -0.492019       -0.684824
1.796                  -0.492758       -0.682928
1.797                  -0.493494       -0.681129
1.798                  -0.494234       -0.679427
1.799                  -0.494986       -0.677819
1.8                    -0.495758       -0.676303
1.801                  -0.496557       -0.674874
1.802                   -0.49739        -0.67353
1.803                  -0.498264       -0.672264
1.804                  -0.499184       -0.671073
1.805                  -0.500157       -0.669949
1.806                  -0.501187       -0.668888
1.807                  -0.502278       -0.667883
1.808                  -0.503435       -0.666926
1.809                  -0.504659       -0.666011
1.81                   -0.505954       -0.665131
1.811                  -0.507321       -0.664279
1.812                   -0.50876       -0.663447
1.813                  -0.510273       -0.662629
1.814                  -0.511858       -0.661816
1.815                  -0.513515       -0.661003
1.816                  -0.515241       -0.660183
1.817                  -0.517036       -0.659349
1.818                  -0.518895       -0.658495
1.819                  -0.520816       -0.657615
1.82                   -0.522795       -0.656705
1.821                  -0.524827        -0.65576
1.822                  -0.526909       -0.654775
1.823                  -0.529035       -0.653746
1.824                    -0.5312       -0.652671
1.825                  -0.533399       -0.651546
1.826                  -0.535626       -0.650371
1.827                  -0.537877       -0.649142
1.828                  -0.540146       -0.647859
1.829                  -0.542427       -0.646523
1.83                   -0.544715       -0.645132
1.831                  -0.547005       -0.643687
1.832                  -0.549293        -0.64219
1.833                  -0.551572       -0.640643
1.834                   -0.55384       -0.639046
1.835                  -0.556091       -0.637402
1.836                  -0.558322       -0.635715
1.837                   -0.56053       -0.633986
1.838                  -0.562711       -0.632219
1.839                  -0.564863       -0.630418
1.84                   -0.566984       -0.628585
1.841                  -0.569071       -0.626725
1.842                  -0.571124       -0.624841
1.843                  -0.573141       -0.622937
1.844                  -0.575122       -0.621017
1.845                  -0.577066       -0.619084
1.846                  -0.578973       -0.617142
1.847                  -0.580843       -0.615194
1.848                  -0.582678       -0.613243
1.849                  -0.584478       -0.611293
1.85                   -0.586245       -0.609347
1.851                  -0.587979       -0.607407
1.852                  -0.589683       -0.605476
1.853                  -0.591358       -0.603555
1.854                  -0.593005       -0.601648
1.855                  -0.594628       -0.599756
1.856                  -0.596227        -0.59788
1.857                  -0.597805       -0.596022
1.858                  -0.599364       -0.594184
1.859                  -0.600906       -0.592366
1.86                   -0.602434       -0.590569
1.861                  -0.603948       -0.588793
1.862                  -0.605451        -0.58704
1.863                  -0.606945       -0.585309
1.864                  -0.608432       -0.583602
1.865                  -0.609914       -0.581918
1.866                  -0.611392       -0.580257
1.867                  -0.612868       -0.578621
1.868                  -0.614344       -0.577008
1.869                  -0.615822       -0.575419
1.87                   -0.617302       -0.573854
1.871                  -0.618787       -0.572313
1.872                  -0.620279       -0.570796
1.873                  -0.621779       -0.569303
1.874                  -0.623289       -0.567835
1.875                   -0.62481       -0.566391
1.876                  -0.626345       -0.564971
1.877                  -0.627896       -0.563575
1.878                  -0.629465       -0.562204
1.879                  -0.631054       -0.560857
1.88                   -0.632666       -0.559533
1.881                  -0.634302       -0.558233
1.882                  -0.635967       -0.556956
1.883                  -0.637662       -0.555701
1.884                   -0.63939       -0.554466
1.885                  -0.641156       -0.553252
1.886                  -0.642961       -0.552056
1.887                  -0.644808       -0.550876
1.888                  -0.646702       -0.549711
1.889                  -0.648645       -0.548558
1.89                   -0.650641       -0.547414
1.891                  -0.652693       -0.546275
1.892                  -0.654803       -0.545139
1.893                  -0.656975       -0.544001
1.894                  -0.659211       -0.542857
1.895                  -0.661513       -0.541701
1.896                  -0.663885       -0.540529
1.897                  -0.666327       -0.539334
1.898                   -0.66884       -0.538112
1.899                  -0.671427       -0.536855
1.9                    -0.674086       -0.535556
1.901                  -0.676817        -0.53421
1.902                  -0.679621       -0.532809
1.903                  -0.682494       -0.531345
1.904                  -0.685436       -0.529812
1.905                  -0.688443       -0.528202
1.906                  -0.691511       -0.526508
1.907                  -0.694636       -0.524722
1.908                  -0.697814       -0.522839
1.909                  -0.701038       -0.520851
1.91                   -0.704302       -0.518752
1.911                  -0.707598       -0.516536
1.912                  -0.710919       -0.514197
1.913                  -0.714257       -0.511732
1.914                  -0.717601       -0.509137
1.915                  -0.720943       -0.506407
1.916                  -0.724272        -0.50354
1.917                  -0.727578       -0.500536
1.918                   -0.73085       -0.497392
1.919                  -0.734077        -0.49411
1.92                   -0.737248        -0.49069
1.921                  -0.740352       -0.487135
1.922                  -0.743378       -0.483447
1.923                  -0.746314       -0.479632
1.924                  -0.749151       -0.475695
1.925                  -0.751877       -0.471642
1.926                  -0.754484        -0.46748
1.927                  -0.756961       -0.463217
1.928                  -0.759301       -0.458862
1.929                  -0.761495       -0.454426
1.93                   -0.763536        -0.44992
1.931                  -0.765419       -0.445354
1.932                  -0.767138        -0.44074
1.933                  -0.768689       -0.436092
1.934                  -0.770069       -0.431422
1.935                  -0.771278       -0.426743
1.936                  -0.772313       -0.422068
1.937                  -0.773176       -0.417412
1.938                  -0.773869       -0.412787
1.939                  -0.774395       -0.408206
1.94                   -0.774757       -0.403684
1.941                  -0.774962       -0.399231
1.942                  -0.775016        -0.39486
1.943                  -0.774927       -0.390583
1.944                  -0.774703        -0.38641
1.945                  -0.774354       -0.382352
1.946                   -0.77389       -0.378416
1.947                  -0.773323       -0.374611
1.948                  -0.772664       -0.370943
1.949                  -0.771926       -0.367419
1.95                   -0.771121       -0.364042
1.951                  -0.770264       -0.360817
1.952                  -0.769366       -0.357745
1.953                  -0.768442       -0.354827
1.954                  -0.767504       -0.352062
1.955                  -0.766567       -0.349449
1.956                  -0.765642       -0.346986
1.957                  -0.764743       -0.344667
1.958                   -0.76388       -0.342488
1.959                  -0.763066       -0.340443
1.96                   -0.762311       -0.338525
1.961                  -0.761624       -0.336724
1.962                  -0.761015       -0.335034
1.963                   -0.76049       -0.333444
1.964                  -0.760058       -0.331944
1.965                  -0.759723       -0.330523
1.966                   -0.75949       -0.329171
1.967                  -0.759363       -0.327877
1.968                  -0.759344       -0.326629
1.969                  -0.759434       -0.325416
1.97                   -0.759633       -0.324227
1.971                   -0.75994       -0.323052
1.972                  -0.760353       -0.321879
1.973                   -0.76087       -0.320699
1.974                  -0.761486       -0.319502
1.975                  -0.762196        -0.31828
1.976                  -0.762995       -0.317023
1.977                  -0.763877       -0.315725
1.978                  -0.764836       -0.314379
1.979                  -0.765863        -0.31298
1.98                   -0.766952       -0.311522
1.981                  -0.768095       -0.310001
1.982                  -0.769283       -0.308416
1.983                  -0.770509       -0.306762
1.984                  -0.771765        -0.30504
1.985                  -0.773044       -0.303248
1.986                  -0.774336       -0.301388
1.987                  -0.775636        -0.29946
1.988                  -0.776936       -0.297467
1.989                  -0.778231        -0.29541
1.99                   -0.779513       -0.293294
1.991                  -0.780779       -0.291121
1.992                  -0.782022       -0.288896
1.993                   -0.78324       -0.286623
1.994                   -0.78443       -0.284306
1.995                  -0.785587       -0.281951
1.996                   -0.78671       -0.279563
1.997                  -0.787799       -0.277146
1.998                  -0.788851       -0.274705
1.999                  -0.789868       -0.272245
2                      -0.790848       -0.269769
