! TOUCHSTONE file generated by CST MICROWAVE STUDIO
! Date and time: Sun Aug  2 11:33:42 2026
! Project name: Sonda-Coaxial_21mm_DisifixB_v2_Agua_Dest.cst
! Parameters = {h_recipiente=20; l_conector=50; r_arandela=35; r_ext=10.5; r_int=3; r_recipiente=100; z_recipiente=-10}
! Header version: 2018
! Port assignment regex: !\s*Touchstone port\s*([0-9]+)\s*=\s*(CST MWS port|CST DS port)\s*([0-9]+|Zmin|Zmax)\s*\(\"(.*)\"\)(\s*mode\s*([0-9]+))?.*
! Touchstone port assignment:
! Touchstone port 1 = CST MWS port 1 ("")
# GHz S RI R 50
0.001                   0.992614      -0.0097047
0.002                   0.992485      -0.0194089
0.003                   0.992269       -0.029112
0.004                   0.991967      -0.0388136
0.005                   0.991578      -0.0485131
0.006                   0.991103      -0.0582099
0.007                   0.990542      -0.0679036
0.008                   0.989893      -0.0775936
0.009                   0.989157      -0.0872792
0.01                    0.988335        -0.09696
0.011                   0.987424       -0.106635
0.012                   0.986426       -0.116305
0.013                    0.98534       -0.125967
0.014                   0.984165       -0.135622
0.015                   0.982902        -0.14527
0.016                   0.981551       -0.154908
0.017                    0.98011       -0.164537
0.018                   0.978579       -0.174156
0.019                   0.976959       -0.183764
0.02                    0.975249       -0.193361
0.021                   0.973448       -0.202944
0.022                   0.971557       -0.212515
0.023                   0.969575       -0.222071
0.024                   0.967501       -0.231612
0.025                   0.965336       -0.241137
0.026                   0.963079       -0.250644
0.027                    0.96073       -0.260134
0.028                   0.958288       -0.269605
0.029                   0.955755       -0.279055
0.03                    0.953128       -0.288484
0.031                   0.950408       -0.297891
0.032                   0.947595       -0.307274
0.033                   0.944689       -0.316633
0.034                    0.94169       -0.325965
0.035                   0.938597       -0.335271
0.036                   0.935411       -0.344547
0.037                   0.932132       -0.353795
0.038                   0.928759       -0.363011
0.039                   0.925292       -0.372195
0.04                    0.921732       -0.381345
0.041                    0.91808        -0.39046
0.042                   0.914334       -0.399538
0.043                   0.910496       -0.408579
0.044                   0.906565       -0.417581
0.045                   0.902542       -0.426541
0.046                   0.898427        -0.43546
0.047                   0.894221       -0.444336
0.048                   0.889924       -0.453166
0.049                   0.885537       -0.461951
0.05                     0.88106       -0.470687
0.051                   0.876493       -0.479375
0.052                   0.871838       -0.488012
0.053                   0.867095       -0.496597
0.054                   0.862264       -0.505129
0.055                   0.857347       -0.513606
0.056                   0.852344       -0.522027
0.057                   0.847257       -0.530391
0.058                   0.842086       -0.538696
0.059                   0.836831       -0.546941
0.06                    0.831494       -0.555125
0.061                   0.826077       -0.563247
0.062                   0.820579       -0.571305
0.063                   0.815003       -0.579298
0.064                   0.809349       -0.587225
0.065                   0.803618       -0.595086
0.066                   0.797812       -0.602878
0.067                   0.791931       -0.610601
0.068                   0.785978       -0.618254
0.069                   0.779953       -0.625836
0.07                    0.773857       -0.633347
0.071                   0.767693       -0.640784
0.072                   0.761461       -0.648148
0.073                   0.755162       -0.655437
0.074                   0.748798       -0.662651
0.075                   0.742371        -0.66979
0.076                   0.735882       -0.676852
0.077                   0.729331       -0.683837
0.078                   0.722721       -0.690744
0.079                   0.716053       -0.697573
0.08                    0.709328       -0.704324
0.081                   0.702548       -0.710996
0.082                   0.695714       -0.717588
0.083                   0.688828       -0.724101
0.084                   0.681891       -0.730533
0.085                   0.674903       -0.736886
0.086                   0.667868       -0.743158
0.087                   0.660786        -0.74935
0.088                   0.653658       -0.755461
0.089                   0.646485       -0.761491
0.09                     0.63927       -0.767441
0.091                   0.632012       -0.773309
0.092                   0.624715       -0.779097
0.093                   0.617378       -0.784805
0.094                   0.610003       -0.790431
0.095                   0.602591       -0.795977
0.096                   0.595144       -0.801443
0.097                   0.587661       -0.806828
0.098                   0.580146       -0.812134
0.099                   0.572598       -0.817359
0.1                     0.565019       -0.822505
0.101                    0.55741       -0.827572
0.102                   0.549771       -0.832559
0.103                   0.542104       -0.837468
0.104                   0.534409       -0.842299
0.105                   0.526688       -0.847051
0.106                   0.518942       -0.851725
0.107                   0.511171       -0.856321
0.108                   0.503375       -0.860841
0.109                   0.495557       -0.865283
0.11                    0.487716       -0.869649
0.111                   0.479853       -0.873938
0.112                    0.47197       -0.878151
0.113                   0.464066       -0.882289
0.114                   0.456142       -0.886352
0.115                   0.448199       -0.890339
0.116                   0.440238       -0.894251
0.117                   0.432259       -0.898089
0.118                   0.424263       -0.901853
0.119                    0.41625       -0.905543
0.12                    0.408221       -0.909159
0.121                   0.400177       -0.912702
0.122                   0.392116       -0.916171
0.123                   0.384041       -0.919568
0.124                   0.375952       -0.922891
0.125                    0.36785       -0.926142
0.126                   0.359733       -0.929321
0.127                   0.351605       -0.932427
0.128                   0.343463       -0.935461
0.129                    0.33531       -0.938423
0.13                    0.327145       -0.941313
0.131                   0.318969       -0.944131
0.132                   0.310782       -0.946878
0.133                   0.302585       -0.949553
0.134                   0.294378       -0.952156
0.135                   0.286162       -0.954687
0.136                   0.277937       -0.957147
0.137                   0.269703       -0.959536
0.138                   0.261461       -0.961852
0.139                   0.253212       -0.964097
0.14                    0.244956       -0.966271
0.141                   0.236693       -0.968373
0.142                   0.228423       -0.970403
0.143                   0.220149       -0.972361
0.144                   0.211869       -0.974248
0.145                   0.203586       -0.976063
0.146                   0.195297       -0.977806
0.147                   0.187006       -0.979477
0.148                   0.178712       -0.981076
0.149                   0.170415       -0.982603
0.15                    0.162117       -0.984057
0.151                   0.153818        -0.98544
0.152                   0.145519        -0.98675
0.153                    0.13722       -0.987989
0.154                   0.128923       -0.989155
0.155                   0.120627       -0.990248
0.156                   0.112333        -0.99127
0.157                   0.104043       -0.992219
0.158                   0.095756       -0.993096
0.159                  0.0874739         -0.9939
0.16                    0.079198       -0.994633
0.161                   0.070927       -0.995293
0.162                   0.062664       -0.995881
0.163                  0.0544086       -0.996397
0.164                  0.0461615       -0.996842
0.165                  0.0379238       -0.997214
0.166                  0.0296956       -0.997515
0.167                   0.021479       -0.997745
0.168                  0.0132742       -0.997903
0.169                 0.00508176        -0.99799
0.17                 -0.00309691       -0.998007
0.171                 -0.0112615       -0.997953
0.172                  -0.019411       -0.997829
0.173                 -0.0275448       -0.997635
0.174                 -0.0356616       -0.997371
0.175                 -0.0437608       -0.997038
0.176                 -0.0518415       -0.996636
0.177                 -0.0599034       -0.996166
0.178                 -0.0679451       -0.995627
0.179                 -0.0759662       -0.995021
0.18                  -0.0839659       -0.994348
0.181                 -0.0919429       -0.993608
0.182                 -0.0998971       -0.992802
0.183                  -0.107827        -0.99193
0.184                  -0.115733       -0.990993
0.185                  -0.123614       -0.989992
0.186                  -0.131469       -0.988926
0.187                  -0.139297       -0.987798
0.188                  -0.147098       -0.986606
0.189                  -0.154871       -0.985353
0.19                   -0.162616       -0.984038
0.191                  -0.170331       -0.982662
0.192                  -0.178017       -0.981226
0.193                  -0.185673       -0.979731
0.194                  -0.193298       -0.978177
0.195                  -0.200892       -0.976564
0.196                  -0.208454       -0.974895
0.197                  -0.215984       -0.973169
0.198                  -0.223482       -0.971387
0.199                  -0.230946       -0.969549
0.2                    -0.238377       -0.967658
0.201                  -0.245774       -0.965712
0.202                  -0.253138       -0.963714
0.203                  -0.260467       -0.961663
0.204                  -0.267761       -0.959561
0.205                   -0.27502       -0.957408
0.206                  -0.282245       -0.955205
0.207                  -0.289434       -0.952952
0.208                  -0.296587       -0.950651
0.209                  -0.303704       -0.948302
0.21                   -0.310786       -0.945906
0.211                  -0.317832       -0.943463
0.212                  -0.324841       -0.940974
0.213                  -0.331815        -0.93844
0.214                  -0.338752       -0.935861
0.215                  -0.345652       -0.933239
0.216                  -0.352516       -0.930573
0.217                  -0.359344       -0.927864
0.218                  -0.366136       -0.925113
0.219                   -0.37289       -0.922321
0.22                   -0.379609       -0.919488
0.221                  -0.386291       -0.916615
0.222                  -0.392936       -0.913701
0.223                  -0.399546       -0.910749
0.224                  -0.406118       -0.907757
0.225                  -0.412655       -0.904728
0.226                  -0.419156        -0.90166
0.227                   -0.42562       -0.898555
0.228                  -0.432049       -0.895413
0.229                  -0.438441       -0.892235
0.23                   -0.444798        -0.88902
0.231                  -0.451119        -0.88577
0.232                  -0.457404       -0.882484
0.233                  -0.463654       -0.879164
0.234                  -0.469868       -0.875809
0.235                  -0.476047       -0.872419
0.236                  -0.482191       -0.868996
0.237                  -0.488299       -0.865539
0.238                  -0.494372       -0.862048
0.239                   -0.50041       -0.858525
0.24                   -0.506413       -0.854969
0.241                  -0.512381        -0.85138
0.242                  -0.518314       -0.847759
0.243                  -0.524212       -0.844105
0.244                  -0.530075        -0.84042
0.245                  -0.535904       -0.836704
0.246                  -0.541698       -0.832955
0.247                  -0.547457       -0.829176
0.248                  -0.553181       -0.825366
0.249                   -0.55887       -0.821525
0.25                   -0.564525       -0.817653
0.251                  -0.570145       -0.813751
0.252                   -0.57573       -0.809818
0.253                   -0.58128       -0.805856
0.254                  -0.586796       -0.801863
0.255                  -0.592276       -0.797841
0.256                  -0.597722       -0.793789
0.257                  -0.603133       -0.789708
0.258                  -0.608508       -0.785598
0.259                  -0.613848       -0.781458
0.26                   -0.619153        -0.77729
0.261                  -0.624422       -0.773093
0.262                  -0.629657       -0.768868
0.263                  -0.634855       -0.764614
0.264                  -0.640018       -0.760332
0.265                  -0.645145       -0.756023
0.266                  -0.650236       -0.751685
0.267                  -0.655291        -0.74732
0.268                   -0.66031       -0.742928
0.269                  -0.665292       -0.738508
0.27                   -0.670238       -0.734062
0.271                  -0.675148       -0.729589
0.272                   -0.68002        -0.72509
0.273                  -0.684856       -0.720564
0.274                  -0.689655       -0.716012
0.275                  -0.694416       -0.711435
0.276                   -0.69914       -0.706832
0.277                  -0.703827       -0.702204
0.278                  -0.708476        -0.69755
0.279                  -0.713087       -0.692873
0.28                   -0.717661        -0.68817
0.281                  -0.722196       -0.683444
0.282                  -0.726693       -0.678694
0.283                  -0.731152        -0.67392
0.284                  -0.735572       -0.669122
0.285                  -0.739954       -0.664302
0.286                  -0.744297       -0.659459
0.287                  -0.748601       -0.654594
0.288                  -0.752866       -0.649706
0.289                  -0.757093       -0.644797
0.29                    -0.76128       -0.639866
0.291                  -0.765427       -0.634914
0.292                  -0.769535       -0.629941
0.293                  -0.773604       -0.624948
0.294                  -0.777633       -0.619934
0.295                  -0.781622       -0.614901
0.296                  -0.785572       -0.609847
0.297                  -0.789481       -0.604775
0.298                  -0.793351       -0.599684
0.299                  -0.797181       -0.594574
0.3                     -0.80097       -0.589445
0.301                   -0.80472       -0.584299
0.302                  -0.808428       -0.579135
0.303                  -0.812097       -0.573954
0.304                  -0.815725       -0.568755
0.305                  -0.819313        -0.56354
0.306                  -0.822861       -0.558309
0.307                  -0.826368       -0.553062
0.308                  -0.829834       -0.547798
0.309                   -0.83326        -0.54252
0.31                   -0.836644       -0.537226
0.311                  -0.839989       -0.531918
0.312                  -0.843292       -0.526595
0.313                  -0.846554       -0.521258
0.314                  -0.849776       -0.515907
0.315                  -0.852957       -0.510543
0.316                  -0.856097       -0.505165
0.317                  -0.859196       -0.499774
0.318                  -0.862253       -0.494371
0.319                   -0.86527       -0.488956
0.32                   -0.868246       -0.483529
0.321                   -0.87118        -0.47809
0.322                  -0.874073        -0.47264
0.323                  -0.876925       -0.467179
0.324                  -0.879736       -0.461707
0.325                  -0.882505       -0.456224
0.326                  -0.885233       -0.450732
0.327                  -0.887919       -0.445231
0.328                  -0.890564       -0.439719
0.329                  -0.893168       -0.434199
0.33                    -0.89573        -0.42867
0.331                   -0.89825       -0.423133
0.332                  -0.900729       -0.417587
0.333                  -0.903166       -0.412034
0.334                  -0.905562       -0.406474
0.335                  -0.907915       -0.400907
0.336                  -0.910227       -0.395334
0.337                  -0.912497       -0.389754
0.338                  -0.914725       -0.384168
0.339                  -0.916912       -0.378577
0.34                   -0.919056       -0.372981
0.341                  -0.921159       -0.367381
0.342                  -0.923219       -0.361776
0.343                  -0.925238       -0.356167
0.344                  -0.927214       -0.350555
0.345                  -0.929149        -0.34494
0.346                  -0.931042       -0.339323
0.347                  -0.932893       -0.333703
0.348                  -0.934702       -0.328082
0.349                  -0.936469        -0.32246
0.35                   -0.938194       -0.316837
0.351                  -0.939877       -0.311213
0.352                  -0.941519        -0.30559
0.353                  -0.943119       -0.299968
0.354                  -0.944678       -0.294347
0.355                  -0.946195       -0.288727
0.356                  -0.947671        -0.28311
0.357                  -0.949105       -0.277495
0.358                  -0.950499       -0.271884
0.359                  -0.951851       -0.266276
0.36                   -0.953163       -0.260672
0.361                  -0.954434       -0.255073
0.362                  -0.955665       -0.249479
0.363                  -0.956856       -0.243891
0.364                  -0.958006       -0.238309
0.365                  -0.959117       -0.232733
0.366                  -0.960189       -0.227165
0.367                  -0.961221       -0.221604
0.368                  -0.962215       -0.216052
0.369                   -0.96317       -0.210508
0.37                   -0.964087       -0.204973
0.371                  -0.964966       -0.199448
0.372                  -0.965807       -0.193932
0.373                  -0.966612       -0.188427
0.374                   -0.96738       -0.182933
0.375                  -0.968111       -0.177451
0.376                  -0.968807        -0.17198
0.377                  -0.969467       -0.166521
0.378                  -0.970092       -0.161075
0.379                  -0.970683       -0.155642
0.38                    -0.97124       -0.150222
0.381                  -0.971764       -0.144815
0.382                  -0.972254       -0.139423
0.383                  -0.972713       -0.134045
0.384                  -0.973139       -0.128681
0.385                  -0.973534       -0.123332
0.386                  -0.973899       -0.117998
0.387                  -0.974233       -0.112679
0.388                  -0.974538       -0.107376
0.389                  -0.974814       -0.102088
0.39                   -0.975062      -0.0968157
0.391                  -0.975282      -0.0915597
0.392                  -0.975474      -0.0863193
0.393                  -0.975641      -0.0810951
0.394                  -0.975781      -0.0758869
0.395                  -0.975896       -0.070695
0.396                  -0.975987      -0.0655188
0.397                  -0.976053      -0.0603588
0.398                  -0.976096      -0.0552151
0.399                  -0.976116      -0.0500868
0.4                    -0.976114      -0.0449747
0.401                   -0.97609       -0.039878
0.402                  -0.976045      -0.0347968
0.403                   -0.97598       -0.029731
0.404                  -0.975894      -0.0246803
0.405                  -0.975789      -0.0196443
0.406                  -0.975665      -0.0146227
0.407                  -0.975523     -0.00961567
0.408                  -0.975362      -0.0046225
0.409                  -0.975185     0.000356998
0.41                    -0.97499      0.00532328
0.411                  -0.974778       0.0102764
0.412                   -0.97455       0.0152174
0.413                  -0.974307       0.0201461
0.414                  -0.974048        0.025063
0.415                  -0.973774       0.0299686
0.416                  -0.973485       0.0348636
0.417                  -0.973181       0.0397485
0.418                  -0.972863       0.0446235
0.419                  -0.972531       0.0494891
0.42                   -0.972186       0.0543458
0.421                  -0.971826       0.0591946
0.422                  -0.971453       0.0640352
0.423                  -0.971066       0.0688686
0.424                  -0.970666       0.0736955
0.425                  -0.970252       0.0785162
0.426                  -0.969825       0.0833311
0.427                  -0.969385       0.0881408
0.428                  -0.968931       0.0929462
0.429                  -0.968463        0.097747
0.43                   -0.967981        0.102545
0.431                  -0.967486        0.107339
0.432                  -0.966977        0.112131
0.433                  -0.966453         0.11692
0.434                  -0.965915        0.121708
0.435                  -0.965362        0.126495
0.436                  -0.964794        0.131281
0.437                   -0.96421        0.136067
0.438                  -0.963611        0.140852
0.439                  -0.962995        0.145639
0.44                   -0.962363        0.150425
0.441                  -0.961714        0.155213
0.442                  -0.961047        0.160002
0.443                  -0.960363        0.164794
0.444                  -0.959659        0.169586
0.445                  -0.958937        0.174381
0.446                  -0.958196        0.179179
0.447                  -0.957434        0.183979
0.448                  -0.956652        0.188781
0.449                  -0.955848        0.193586
0.45                   -0.955023        0.198394
0.451                  -0.954175        0.203205
0.452                  -0.953305        0.208018
0.453                  -0.952411        0.212834
0.454                  -0.951492        0.217654
0.455                  -0.950549        0.222475
0.456                  -0.949581        0.227299
0.457                  -0.948586        0.232125
0.458                  -0.947565        0.236954
0.459                  -0.946516        0.241784
0.46                    -0.94544        0.246615
0.461                  -0.944336        0.251448
0.462                  -0.943202        0.256282
0.463                  -0.942039        0.261116
0.464                  -0.940846         0.26595
0.465                  -0.939623        0.270784
0.466                  -0.938368        0.275617
0.467                  -0.937082        0.280449
0.468                  -0.935763        0.285279
0.469                  -0.934412        0.290106
0.47                   -0.933028         0.29493
0.471                  -0.931611        0.299751
0.472                   -0.93016        0.304567
0.473                  -0.928675        0.309378
0.474                  -0.927156        0.314184
0.475                  -0.925602        0.318983
0.476                  -0.924013        0.323775
0.477                  -0.922389         0.32856
0.478                   -0.92073        0.333335
0.479                  -0.919035        0.338102
0.48                   -0.917305        0.342858
0.481                  -0.915539        0.347603
0.482                  -0.913737        0.352336
0.483                  -0.911899        0.357058
0.484                  -0.910025        0.361765
0.485                  -0.908116        0.366459
0.486                  -0.906172        0.371137
0.487                  -0.904191        0.375799
0.488                  -0.902176        0.380445
0.489                  -0.900125        0.385074
0.49                   -0.898039        0.389684
0.491                  -0.895919        0.394275
0.492                  -0.893764        0.398846
0.493                  -0.891576        0.403397
0.494                  -0.889353        0.407926
0.495                  -0.887098        0.412433
0.496                   -0.88481        0.416917
0.497                  -0.882489        0.421377
0.498                  -0.880136        0.425814
0.499                  -0.877753        0.430225
0.5                    -0.875339         0.43461
0.501                  -0.872894        0.438969
0.502                   -0.87042        0.443301
0.503                  -0.867917        0.447605
0.504                  -0.865386        0.451882
0.505                  -0.862828         0.45613
0.506                  -0.860243        0.460348
0.507                  -0.857631        0.464537
0.508                  -0.854995        0.468696
0.509                  -0.852334        0.472825
0.51                   -0.849648        0.476922
0.511                   -0.84694        0.480989
0.512                   -0.84421        0.485023
0.513                  -0.841459        0.489026
0.514                  -0.838687        0.492997
0.515                  -0.835895        0.496936
0.516                  -0.833085        0.500842
0.517                  -0.830256        0.504716
0.518                   -0.82741        0.508556
0.519                  -0.824548        0.512364
0.52                   -0.821671         0.51614
0.521                  -0.818778        0.519882
0.522                  -0.815873        0.523591
0.523                  -0.812954        0.527268
0.524                  -0.810023        0.530912
0.525                   -0.80708        0.534523
0.526                  -0.804128        0.538102
0.527                  -0.801165        0.541649
0.528                  -0.798194        0.545164
0.529                  -0.795214        0.548647
0.53                   -0.792227        0.552098
0.531                  -0.789234        0.555519
0.532                  -0.786234        0.558908
0.533                   -0.78323        0.562267
0.534                  -0.780221        0.565596
0.535                  -0.777208        0.568895
0.536                  -0.774191        0.572165
0.537                  -0.771172        0.575406
0.538                  -0.768151        0.578619
0.539                  -0.765129        0.581804
0.54                   -0.762106        0.584961
0.541                  -0.759082        0.588092
0.542                  -0.756058        0.591197
0.543                  -0.753035        0.594275
0.544                  -0.750013        0.597329
0.545                  -0.746992        0.600358
0.546                  -0.743973        0.603363
0.547                  -0.740956        0.606345
0.548                  -0.737942        0.609304
0.549                   -0.73493        0.612241
0.55                   -0.731921        0.615156
0.551                  -0.728916        0.618051
0.552                  -0.725914        0.620925
0.553                  -0.722916         0.62378
0.554                  -0.719921        0.626616
0.555                  -0.716931        0.629433
0.556                  -0.713944        0.632232
0.557                  -0.710962        0.635015
0.558                  -0.707984        0.637781
0.559                   -0.70501        0.640531
0.56                    -0.70204        0.643266
0.561                  -0.699074        0.645986
0.562                  -0.696113        0.648692
0.563                  -0.693155        0.651384
0.564                  -0.690201        0.654064
0.565                  -0.687251        0.656731
0.566                  -0.684305        0.659386
0.567                  -0.681362         0.66203
0.568                  -0.678422        0.664663
0.569                  -0.675486        0.667286
0.57                   -0.672552        0.669899
0.571                  -0.669621        0.672502
0.572                  -0.666692        0.675097
0.573                  -0.663765        0.677684
0.574                   -0.66084        0.680262
0.575                  -0.657917        0.682833
0.576                  -0.654994        0.685396
0.577                  -0.652073        0.687952
0.578                  -0.649152        0.690502
0.579                  -0.646231        0.693046
0.58                    -0.64331        0.695584
0.581                  -0.640388        0.698116
0.582                  -0.637465        0.700643
0.583                  -0.634541        0.703165
0.584                  -0.631615        0.705682
0.585                  -0.628687        0.708194
0.586                  -0.625756        0.710702
0.587                  -0.622822        0.713206
0.588                  -0.619885        0.715705
0.589                  -0.616944        0.718201
0.59                   -0.613999        0.720692
0.591                  -0.611049         0.72318
0.592                  -0.608094        0.725664
0.593                  -0.605134        0.728144
0.594                  -0.602168        0.730621
0.595                  -0.599195        0.733094
0.596                  -0.596216        0.735564
0.597                  -0.593229         0.73803
0.598                  -0.590235        0.740492
0.599                  -0.587234        0.742951
0.6                    -0.584224        0.745405
0.601                  -0.581205        0.747857
0.602                  -0.578177        0.750304
0.603                   -0.57514        0.752747
0.604                  -0.572094        0.755186
0.605                  -0.569036         0.75762
0.606                  -0.565969        0.760051
0.607                  -0.562891        0.762476
0.608                  -0.559801        0.764897
0.609                    -0.5567        0.767313
0.61                   -0.553587        0.769723
0.611                  -0.550462        0.772129
0.612                  -0.547324        0.774528
0.613                  -0.544174        0.776922
0.614                  -0.541011        0.779309
0.615                  -0.537834        0.781691
0.616                  -0.534644        0.784065
0.617                  -0.531441        0.786433
0.618                  -0.528223        0.788794
0.619                  -0.524991        0.791146
0.62                   -0.521745        0.793492
0.621                  -0.518484        0.795829
0.622                  -0.515208        0.798157
0.623                  -0.511917        0.800477
0.624                  -0.508611        0.802788
0.625                   -0.50529        0.805089
0.626                  -0.501953        0.807381
0.627                  -0.498601        0.809662
0.628                  -0.495233        0.811933
0.629                  -0.491849        0.814193
0.63                    -0.48845        0.816442
0.631                  -0.485034         0.81868
0.632                  -0.481602        0.820905
0.633                  -0.478154        0.823119
0.634                   -0.47469        0.825319
0.635                   -0.47121        0.827507
0.636                  -0.467713        0.829681
0.637                  -0.464201        0.831842
0.638                  -0.460672        0.833988
0.639                  -0.457126         0.83612
0.64                   -0.453565        0.838236
0.641                  -0.449988        0.840338
0.642                  -0.446394        0.842424
0.643                  -0.442785        0.844493
0.644                   -0.43916        0.846547
0.645                  -0.435519        0.848583
0.646                  -0.431862        0.850603
0.647                  -0.428189        0.852604
0.648                  -0.424501        0.854588
0.649                  -0.420798        0.856554
0.65                    -0.41708          0.8585
0.651                  -0.413346        0.860428
0.652                  -0.409598        0.862337
0.653                  -0.405835        0.864226
0.654                  -0.402058        0.866094
0.655                  -0.398266        0.867942
0.656                  -0.394461         0.86977
0.657                  -0.390641        0.871576
0.658                  -0.386808        0.873361
0.659                  -0.382962        0.875124
0.66                   -0.379103        0.876865
0.661                  -0.375231        0.878584
0.662                  -0.371347         0.88028
0.663                   -0.36745        0.881953
0.664                  -0.363542        0.883603
0.665                  -0.359622        0.885229
0.666                  -0.355691        0.886832
0.667                  -0.351749        0.888411
0.668                  -0.347797        0.889965
0.669                  -0.343835        0.891494
0.67                   -0.339862        0.892999
0.671                  -0.335881         0.89448
0.672                   -0.33189        0.895934
0.673                   -0.32789        0.897364
0.674                  -0.323883        0.898768
0.675                  -0.319867        0.900146
0.676                  -0.315845        0.901498
0.677                  -0.311815        0.902824
0.678                  -0.307778        0.904125
0.679                  -0.303735        0.905398
0.68                   -0.299687        0.906646
0.681                  -0.295633        0.907867
0.682                  -0.291574        0.909061
0.683                  -0.287511        0.910229
0.684                  -0.283443        0.911369
0.685                  -0.279373        0.912484
0.686                  -0.275299        0.913571
0.687                  -0.271222        0.914631
0.688                  -0.267143        0.915665
0.689                  -0.263063        0.916672
0.69                   -0.258981        0.917652
0.691                  -0.254898        0.918606
0.692                  -0.250815        0.919532
0.693                  -0.246732        0.920432
0.694                  -0.242649        0.921306
0.695                  -0.238567        0.922153
0.696                  -0.234487        0.922974
0.697                  -0.230408        0.923768
0.698                  -0.226332        0.924537
0.699                  -0.222258        0.925279
0.7                    -0.218187        0.925996
0.701                   -0.21412        0.926687
0.702                  -0.210057        0.927353
0.703                  -0.205998        0.927994
0.704                  -0.201945        0.928609
0.705                  -0.197896          0.9292
0.706                  -0.193852        0.929767
0.707                  -0.189815        0.930309
0.708                  -0.185783        0.930827
0.709                  -0.181759        0.931322
0.71                   -0.177741        0.931793
0.711                  -0.173731        0.932241
0.712                  -0.169729        0.932666
0.713                  -0.165734        0.933069
0.714                  -0.161748         0.93345
0.715                   -0.15777        0.933808
0.716                  -0.153801        0.934146
0.717                  -0.149842        0.934463
0.718                  -0.145892        0.934758
0.719                  -0.141951        0.935034
0.72                   -0.138021        0.935289
0.721                    -0.1341        0.935525
0.722                   -0.13019        0.935742
0.723                  -0.126291         0.93594
0.724                  -0.122401         0.93612
0.725                  -0.118523        0.936282
0.726                  -0.114656        0.936426
0.727                  -0.110801        0.936553
0.728                  -0.106957        0.936664
0.729                  -0.103124        0.936759
0.73                  -0.0993021        0.936838
0.731                 -0.0954922        0.936901
0.732                  -0.091694         0.93695
0.733                 -0.0879076        0.936984
0.734                 -0.0841326        0.937004
0.735                   -0.08037        0.937011
0.736                 -0.0766184        0.937005
0.737                 -0.0728793        0.936986
0.738                 -0.0691514        0.936954
0.739                 -0.0654347        0.936911
0.74                  -0.0617306        0.936857
0.741                 -0.0580374        0.936792
0.742                 -0.0543564        0.936716
0.743                 -0.0506858         0.93663
0.744                 -0.0470266        0.936535
0.745                 -0.0433787         0.93643
0.746                 -0.0397418        0.936317
0.747                 -0.0361148        0.936195
0.748                 -0.0324997        0.936065
0.749                 -0.0288942        0.935928
0.75                  -0.0252986        0.935783
0.751                  -0.021713        0.935632
0.752                 -0.0181378        0.935474
0.753                 -0.0145712         0.93531
0.754                 -0.0110145         0.93514
0.755                -0.00746624        0.934965
0.756                -0.00392649        0.934785
0.757               -0.000395148        0.934599
0.758                 0.00312826         0.93441
0.759                 0.00664424        0.934216
0.76                   0.0101524        0.934018
0.761                  0.0136541        0.933817
0.762                  0.0171491        0.933612
0.763                  0.0206377        0.933404
0.764                  0.0241206        0.933193
0.765                  0.0275977        0.932979
0.766                  0.0310706        0.932763
0.767                  0.0345383        0.932544
0.768                  0.0380019        0.932323
0.769                  0.0414618          0.9321
0.77                   0.0449177        0.931875
0.771                  0.0483719        0.931648
0.772                  0.0518223         0.93142
0.773                  0.0552716         0.93119
0.774                   0.058719        0.930958
0.775                  0.0621654        0.930725
0.776                   0.065611         0.93049
0.777                  0.0690568        0.930254
0.778                  0.0725022        0.930016
0.779                  0.0759484        0.929777
0.78                   0.0793963        0.929536
0.781                  0.0828455        0.929293
0.782                   0.086297        0.929049
0.783                  0.0897513        0.928802
0.784                  0.0932084        0.928554
0.785                  0.0966689        0.928304
0.786                   0.100133        0.928051
0.787                   0.103603        0.927795
0.788                   0.107077        0.927537
0.789                   0.110556        0.927276
0.79                    0.114041        0.927012
0.791                   0.117532        0.926744
0.792                    0.12103        0.926473
0.793                   0.124534        0.926197
0.794                   0.128047        0.925917
0.795                   0.131567        0.925632
0.796                   0.135095        0.925343
0.797                   0.138632        0.925047
0.798                   0.142177        0.924746
0.799                   0.145732        0.924439
0.8                     0.149297        0.924125
0.801                   0.152872        0.923803
0.802                   0.156456        0.923474
0.803                   0.160051        0.923137
0.804                   0.163657        0.922792
0.805                   0.167273        0.922437
0.806                   0.170902        0.922073
0.807                   0.174541        0.921698
0.808                   0.178192        0.921313
0.809                   0.181855        0.920916
0.81                    0.185529        0.920508
0.811                   0.189216        0.920087
0.812                   0.192915        0.919653
0.813                   0.196626        0.919206
0.814                   0.200349        0.918744
0.815                   0.204085        0.918267
0.816                   0.207832        0.917775
0.817                   0.211593        0.917267
0.818                   0.215365        0.916742
0.819                    0.21915          0.9162
0.82                    0.222947        0.915639
0.821                   0.226755        0.915061
0.822                   0.230576        0.914462
0.823                   0.234408        0.913844
0.824                   0.238252        0.913205
0.825                   0.242107        0.912545
0.826                   0.245972        0.911864
0.827                   0.249849        0.911159
0.828                   0.253736        0.910432
0.829                   0.257633        0.909681
0.83                     0.26154        0.908905
0.831                   0.265455        0.908105
0.832                    0.26938        0.907279
0.833                   0.273314        0.906428
0.834                   0.277255        0.905549
0.835                   0.281204        0.904644
0.836                    0.28516         0.90371
0.837                   0.289123        0.902749
0.838                   0.293091        0.901759
0.839                   0.297064         0.90074
0.84                    0.301043        0.899691
0.841                   0.305026        0.898612
0.842                   0.309012        0.897503
0.843                      0.313        0.896362
0.844                   0.316992        0.895191
0.845                   0.320984        0.893988
0.846                   0.324977        0.892753
0.847                    0.32897        0.891486
0.848                   0.332963        0.890186
0.849                   0.336954        0.888854
0.85                    0.340942        0.887489
0.851                   0.344928        0.886091
0.852                    0.34891        0.884659
0.853                   0.352887        0.883195
0.854                   0.356859        0.881696
0.855                   0.360824        0.880164
0.856                   0.364782        0.878599
0.857                   0.368733           0.877
0.858                   0.372675        0.875368
0.859                   0.376606        0.873702
0.86                    0.380528        0.872003
0.861                   0.384438        0.870271
0.862                   0.388337        0.868505
0.863                   0.392222        0.866707
0.864                   0.396094        0.864876
0.865                   0.399951        0.863012
0.866                   0.403793        0.861117
0.867                   0.407619         0.85919
0.868                   0.411428        0.857231
0.869                   0.415219        0.855241
0.87                    0.418992        0.853221
0.871                   0.422746         0.85117
0.872                   0.426479        0.849089
0.873                   0.430193         0.84698
0.874                   0.433885        0.844841
0.875                   0.437555        0.842674
0.876                   0.441203         0.84048
0.877                   0.444827        0.838259
0.878                   0.448428        0.836011
0.879                   0.452004        0.833737
0.88                    0.455556        0.831439
0.881                   0.459082        0.829116
0.882                   0.462582        0.826769
0.883                   0.466056        0.824399
0.884                   0.469503        0.822007
0.885                   0.472923        0.819593
0.886                   0.476315        0.817159
0.887                    0.47968        0.814704
0.888                   0.483016        0.812231
0.889                   0.486323        0.809739
0.89                    0.489602        0.807229
0.891                   0.492852        0.804703
0.892                   0.496072         0.80216
0.893                   0.499263        0.799603
0.894                   0.502425        0.797031
0.895                   0.505557        0.794446
0.896                   0.508659        0.791848
0.897                   0.511732        0.789238
0.898                   0.514775        0.786617
0.899                   0.517788        0.783986
0.9                     0.520772        0.781346
0.901                   0.523726        0.778697
0.902                   0.526651        0.776041
0.903                   0.529547        0.773377
0.904                   0.532414        0.770707
0.905                   0.535252        0.768032
0.906                   0.538062        0.765352
0.907                   0.540843        0.762669
0.908                   0.543596        0.759981
0.909                   0.546321        0.757292
0.91                     0.54902        0.754601
0.911                   0.551692        0.751908
0.912                   0.554336        0.749215
0.913                   0.556955        0.746522
0.914                   0.559549         0.74383
0.915                   0.562117        0.741139
0.916                    0.56466        0.738451
0.917                    0.56718        0.735764
0.918                   0.569675         0.73308
0.919                   0.572148          0.7304
0.92                    0.574598        0.727724
0.921                   0.577025        0.725052
0.922                   0.579432        0.722385
0.923                   0.581818        0.719722
0.924                   0.584183        0.717066
0.925                   0.586529        0.714415
0.926                   0.588855         0.71177
0.927                   0.591164        0.709132
0.928                   0.593454          0.7065
0.929                   0.595727        0.703875
0.93                    0.597984        0.701257
0.931                   0.600225        0.698647
0.932                    0.60245        0.696043
0.933                   0.604661        0.693447
0.934                   0.606857        0.690859
0.935                   0.609041        0.688279
0.936                   0.611211        0.685705
0.937                   0.613369         0.68314
0.938                   0.615516        0.680582
0.939                   0.617651        0.678032
0.94                    0.619776         0.67549
0.941                   0.621892        0.672955
0.942                   0.623997        0.670427
0.943                   0.626095        0.667907
0.944                   0.628184        0.665394
0.945                   0.630265        0.662887
0.946                   0.632339        0.660388
0.947                   0.634407        0.657895
0.948                   0.636468        0.655408
0.949                   0.638524        0.652927
0.95                    0.640575        0.650453
0.951                   0.642621        0.647984
0.952                   0.644662         0.64552
0.953                     0.6467        0.643061
0.954                   0.648734        0.640607
0.955                   0.650765        0.638157
0.956                   0.652793        0.635711
0.957                   0.654819        0.633269
0.958                   0.656842        0.630831
0.959                   0.658864        0.628395
0.96                    0.660884        0.625962
0.961                   0.662903        0.623531
0.962                   0.664922        0.621103
0.963                   0.666939        0.618675
0.964                   0.668956        0.616249
0.965                   0.670972        0.613824
0.966                   0.672989        0.611399
0.967                   0.675005        0.608973
0.968                   0.677022        0.606548
0.969                   0.679039        0.604122
0.97                    0.681056        0.601694
0.971                   0.683075        0.599264
0.972                   0.685093        0.596833
0.973                   0.687113        0.594399
0.974                   0.689133        0.591963
0.975                   0.691154        0.589523
0.976                   0.693176        0.587079
0.977                   0.695199        0.584632
0.978                   0.697222         0.58218
0.979                   0.699247        0.579723
0.98                    0.701272        0.577261
0.981                   0.703299        0.574794
0.982                   0.705326        0.572321
0.983                   0.707353        0.569842
0.984                   0.709382        0.567355
0.985                    0.71141        0.564862
0.986                    0.71344        0.562362
0.987                   0.715469        0.559854
0.988                   0.717499        0.557338
0.989                   0.719529        0.554814
0.99                    0.721559        0.552281
0.991                   0.723589        0.549739
0.992                   0.725619        0.547188
0.993                   0.727648        0.544627
0.994                   0.729676        0.542057
0.995                   0.731704        0.539476
0.996                    0.73373        0.536885
0.997                   0.735756        0.534283
0.998                    0.73778         0.53167
0.999                   0.739802        0.529046
1                       0.741822         0.52641
1.001                   0.743841        0.523762
1.002                   0.745857        0.521102
1.003                   0.747871         0.51843
1.004                   0.749882        0.515746
1.005                    0.75189        0.513048
1.006                   0.753894        0.510338
1.007                   0.755896        0.507614
1.008                   0.757893        0.504877
1.009                   0.759886        0.502127
1.01                    0.761875        0.499362
1.011                   0.763859        0.496584
1.012                   0.765839        0.493791
1.013                   0.767813        0.490983
1.014                   0.769781        0.488162
1.015                   0.771744        0.485325
1.016                     0.7737        0.482474
1.017                    0.77565        0.479607
1.018                   0.777593        0.476725
1.019                   0.779529        0.473828
1.02                    0.781457        0.470916
1.021                   0.783378        0.467988
1.022                    0.78529        0.465044
1.023                   0.787193        0.462085
1.024                   0.789087        0.459109
1.025                   0.790972        0.456118
1.026                   0.792847        0.453111
1.027                   0.794712        0.450087
1.028                   0.796566        0.447048
1.029                    0.79841        0.443992
1.03                    0.800242         0.44092
1.031                   0.802062        0.437832
1.032                   0.803869        0.434728
1.033                   0.805665        0.431608
1.034                   0.807446        0.428471
1.035                   0.809215        0.425319
1.036                   0.810969         0.42215
1.037                   0.812709        0.418966
1.038                   0.814435        0.415765
1.039                   0.816145        0.412549
1.04                    0.817839        0.409317
1.041                   0.819517         0.40607
1.042                   0.821178        0.402807
1.043                   0.822822        0.399529
1.044                   0.824449        0.396236
1.045                   0.826058        0.392928
1.046                   0.827648        0.389605
1.047                   0.829219        0.386268
1.048                   0.830771        0.382917
1.049                   0.832304        0.379552
1.05                    0.833816        0.376173
1.051                   0.835307        0.372781
1.052                   0.836778        0.369376
1.053                   0.838227        0.365958
1.054                   0.839654        0.362528
1.055                   0.841058        0.359086
1.056                   0.842441        0.355633
1.057                     0.8438        0.352168
1.058                   0.845136        0.348693
1.059                   0.846448        0.345208
1.06                    0.847736        0.341713
1.061                   0.848999        0.338208
1.062                   0.850238        0.334695
1.063                   0.851452        0.331173
1.064                    0.85264        0.327643
1.065                   0.853803        0.324107
1.066                    0.85494        0.320563
1.067                   0.856051        0.317014
1.068                   0.857136        0.313459
1.069                   0.858194        0.309898
1.07                    0.859226        0.306334
1.071                   0.860231        0.302766
1.072                   0.861209        0.299195
1.073                    0.86216        0.295621
1.074                   0.863084        0.292045
1.075                    0.86398        0.288469
1.076                    0.86485        0.284891
1.077                   0.865692        0.281314
1.078                   0.866508        0.277738
1.079                   0.867296        0.274163
1.08                    0.868057         0.27059
1.081                   0.868791         0.26702
1.082                   0.869498        0.263454
1.083                   0.870179        0.259892
1.084                   0.870833        0.256334
1.085                   0.871461        0.252782
1.086                   0.872062        0.249236
1.087                   0.872638        0.245697
1.088                   0.873189        0.242166
1.089                   0.873714        0.238642
1.09                    0.874214        0.235127
1.091                    0.87469        0.231622
1.092                   0.875142        0.228126
1.093                    0.87557        0.224641
1.094                   0.875975        0.221167
1.095                   0.876357        0.217705
1.096                   0.876717        0.214255
1.097                   0.877055        0.210818
1.098                   0.877372        0.207394
1.099                   0.877668        0.203984
1.1                     0.877944        0.200588
1.101                   0.878201        0.197206
1.102                   0.878438         0.19384
1.103                   0.878658        0.190489
1.104                    0.87886        0.187154
1.105                   0.879045        0.183835
1.106                   0.879214        0.180533
1.107                   0.879367        0.177247
1.108                   0.879506        0.173978
1.109                    0.87963        0.170727
1.11                    0.879741        0.167493
1.111                    0.87984        0.164277
1.112                   0.879927        0.161079
1.113                   0.880003        0.157899
1.114                   0.880068        0.154736
1.115                   0.880124        0.151592
1.116                   0.880172        0.148466
1.117                   0.880211        0.145357
1.118                   0.880243        0.142267
1.119                   0.880269        0.139195
1.12                     0.88029         0.13614
1.121                   0.880305        0.133103
1.122                   0.880317        0.130084
1.123                   0.880325        0.127082
1.124                   0.880331        0.124097
1.125                   0.880335        0.121128
1.126                   0.880338        0.118176
1.127                   0.880341         0.11524
1.128                   0.880344         0.11232
1.129                   0.880348        0.109415
1.13                    0.880353        0.106525
1.131                   0.880362         0.10365
1.132                   0.880373        0.100788
1.133                   0.880388       0.0979402
1.134                   0.880407       0.0951049
1.135                   0.880431        0.092282
1.136                   0.880461       0.0894709
1.137                   0.880496       0.0866709
1.138                   0.880538       0.0838813
1.139                   0.880587       0.0811016
1.14                    0.880643       0.0783311
1.141                   0.880706        0.075569
1.142                   0.880779       0.0728147
1.143                   0.880859       0.0700674
1.144                   0.880948       0.0673263
1.145                   0.881047       0.0645908
1.146                   0.881155       0.0618599
1.147                   0.881273        0.059133
1.148                     0.8814       0.0564092
1.149                   0.881538       0.0536878
1.15                    0.881686       0.0509678
1.151                   0.881844       0.0482485
1.152                   0.882012       0.0455291
1.153                   0.882191       0.0428087
1.154                    0.88238       0.0400864
1.155                    0.88258       0.0373615
1.156                   0.882789       0.0346331
1.157                   0.883009       0.0319004
1.158                   0.883239       0.0291625
1.159                   0.883479       0.0264187
1.16                    0.883728        0.023668
1.161                   0.883987       0.0209097
1.162                   0.884255       0.0181429
1.163                   0.884532        0.015367
1.164                   0.884817        0.012581
1.165                    0.88511      0.00978429
1.166                   0.885411      0.00697602
1.167                   0.885719      0.00415548
1.168                   0.886034      0.00132193
1.169                   0.886355     -0.00152532
1.17                    0.886682     -0.00438696
1.171                   0.887014     -0.00726367
1.172                    0.88735      -0.0101561
1.173                    0.88769      -0.0130648
1.174                   0.888034      -0.0159905
1.175                    0.88838      -0.0189337
1.176                   0.888729      -0.0218949
1.177                   0.889078      -0.0248748
1.178                   0.889428      -0.0278737
1.179                   0.889777      -0.0308921
1.18                    0.890126      -0.0339305
1.181                   0.890472      -0.0369893
1.182                   0.890816      -0.0400689
1.183                   0.891156      -0.0431696
1.184                   0.891492      -0.0462917
1.185                   0.891822      -0.0494355
1.186                   0.892146      -0.0526013
1.187                   0.892463      -0.0557893
1.188                   0.892772      -0.0589995
1.189                   0.893072      -0.0622323
1.19                    0.893363      -0.0654877
1.191                   0.893642      -0.0687657
1.192                    0.89391      -0.0720664
1.193                   0.894165      -0.0753898
1.194                   0.894407      -0.0787359
1.195                   0.894634      -0.0821046
1.196                   0.894845      -0.0854957
1.197                    0.89504      -0.0889091
1.198                   0.895217      -0.0923447
1.199                   0.895377      -0.0958022
1.2                     0.895516      -0.0992814
1.201                   0.895636       -0.102782
1.202                   0.895734       -0.106303
1.203                   0.895811       -0.109846
1.204                   0.895864       -0.113408
1.205                   0.895893        -0.11699
1.206                   0.895898       -0.120592
1.207                   0.895877       -0.124212
1.208                    0.89583        -0.12785
1.209                   0.895755       -0.131507
1.21                    0.895653        -0.13518
1.211                   0.895521        -0.13887
1.212                    0.89536       -0.142575
1.213                   0.895168       -0.146296
1.214                   0.894945        -0.15003
1.215                   0.894691       -0.153778
1.216                   0.894404       -0.157539
1.217                   0.894084       -0.161312
1.218                    0.89373       -0.165096
1.219                   0.893342       -0.168889
1.22                    0.892919       -0.172692
1.221                   0.892461       -0.176504
1.222                   0.891967       -0.180322
1.223                   0.891436       -0.184147
1.224                   0.890869       -0.187977
1.225                   0.890265       -0.191812
1.226                   0.889624        -0.19565
1.227                   0.888944        -0.19949
1.228                   0.888227       -0.203331
1.229                   0.887472       -0.207172
1.23                    0.886678       -0.211012
1.231                   0.885846        -0.21485
1.232                   0.884975       -0.218685
1.233                   0.884066       -0.222516
1.234                   0.883117       -0.226341
1.235                   0.882131       -0.230159
1.236                   0.881105        -0.23397
1.237                   0.880041       -0.237771
1.238                   0.878939       -0.241563
1.239                   0.877799       -0.245343
1.24                    0.876621       -0.249112
1.241                   0.875406       -0.252867
1.242                   0.874153       -0.256607
1.243                   0.872863       -0.260331
1.244                   0.871537       -0.264039
1.245                   0.870175       -0.267729
1.246                   0.868778       -0.271401
1.247                   0.867346       -0.275052
1.248                   0.865879       -0.278682
1.249                   0.864379       -0.282291
1.25                    0.862846       -0.285876
1.251                   0.861281       -0.289438
1.252                   0.859684       -0.292975
1.253                   0.858056       -0.296486
1.254                   0.856399        -0.29997
1.255                   0.854713       -0.303427
1.256                   0.852998       -0.306856
1.257                   0.851257       -0.310255
1.258                   0.849489       -0.313625
1.259                   0.847696       -0.316963
1.26                    0.845879       -0.320271
1.261                   0.844039       -0.323547
1.262                   0.842177       -0.326791
1.263                   0.840295       -0.330001
1.264                   0.838392       -0.333178
1.265                   0.836471       -0.336321
1.266                   0.834533        -0.33943
1.267                   0.832579       -0.342503
1.268                   0.830609       -0.345542
1.269                   0.828626       -0.348546
1.27                     0.82663       -0.351513
1.271                   0.824624       -0.354445
1.272                   0.822608       -0.357341
1.273                   0.820583       -0.360201
1.274                    0.81855       -0.363025
1.275                   0.816512       -0.365814
1.276                   0.814468       -0.368566
1.277                   0.812422       -0.371282
1.278                   0.810373       -0.373963
1.279                   0.808324       -0.376609
1.28                    0.806274       -0.379219
1.281                   0.804227       -0.381795
1.282                   0.802182       -0.384337
1.283                   0.800141       -0.386845
1.284                   0.798105       -0.389319
1.285                   0.796077       -0.391761
1.286                   0.794055       -0.394171
1.287                   0.792043       -0.396549
1.288                    0.79004       -0.398897
1.289                   0.788049       -0.401214
1.29                    0.786069       -0.403503
1.291                   0.784103       -0.405763
1.292                   0.782151       -0.407995
1.293                   0.780213       -0.410201
1.294                   0.778292       -0.412381
1.295                   0.776388       -0.414537
1.296                   0.774501       -0.416669
1.297                   0.772633       -0.418779
1.298                   0.770783       -0.420867
1.299                   0.768954       -0.422935
1.3                     0.767145       -0.424984
1.301                   0.765358       -0.427016
1.302                   0.763592       -0.429031
1.303                   0.761848        -0.43103
1.304                   0.760127       -0.433016
1.305                   0.758429       -0.434989
1.306                   0.756754        -0.43695
1.307                   0.755102       -0.438901
1.308                   0.753475       -0.440844
1.309                   0.751871       -0.442779
1.31                    0.750291       -0.444709
1.311                   0.748736       -0.446633
1.312                   0.747204       -0.448555
1.313                   0.745697       -0.450474
1.314                   0.744213       -0.452393
1.315                   0.742753       -0.454313
1.316                   0.741316       -0.456234
1.317                   0.739903        -0.45816
1.318                   0.738512        -0.46009
1.319                   0.737143       -0.462026
1.32                    0.735796        -0.46397
1.321                    0.73447       -0.465922
1.322                   0.733165       -0.467885
1.323                   0.731879       -0.469858
1.324                   0.730613       -0.471844
1.325                   0.729365       -0.473843
1.326                   0.728135       -0.475857
1.327                   0.726922       -0.477886
1.328                   0.725724       -0.479933
1.329                   0.724542       -0.481997
1.33                    0.723373       -0.484079
1.331                   0.722217       -0.486182
1.332                   0.721073       -0.488305
1.333                   0.719939       -0.490449
1.334                   0.718815       -0.492615
1.335                     0.7177       -0.494805
1.336                   0.716591       -0.497018
1.337                   0.715488       -0.499255
1.338                   0.714389       -0.501516
1.339                   0.713294       -0.503803
1.34                    0.712201       -0.506116
1.341                   0.711108       -0.508455
1.342                   0.710014        -0.51082
1.343                   0.708918       -0.513212
1.344                   0.707819       -0.515631
1.345                   0.706714       -0.518077
1.346                   0.705603        -0.52055
1.347                   0.704484       -0.523051
1.348                   0.703356       -0.525579
1.349                   0.702217       -0.528133
1.35                    0.701066       -0.530715
1.351                   0.699902       -0.533324
1.352                   0.698722       -0.535959
1.353                   0.697527        -0.53862
1.354                   0.696313       -0.541307
1.355                   0.695081        -0.54402
1.356                   0.693829       -0.546757
1.357                   0.692555       -0.549519
1.358                   0.691258       -0.552304
1.359                   0.689937       -0.555112
1.36                     0.68859       -0.557942
1.361                   0.687217       -0.560794
1.362                   0.685816       -0.563667
1.363                   0.684387       -0.566559
1.364                   0.682927       -0.569471
1.365                   0.681437         -0.5724
1.366                   0.679914       -0.575346
1.367                   0.678359       -0.578309
1.368                    0.67677       -0.581285
1.369                   0.675146       -0.584276
1.37                    0.673487       -0.587279
1.371                   0.671791       -0.590294
1.372                   0.670059       -0.593318
1.373                   0.668288       -0.596352
1.374                    0.66648       -0.599393
1.375                   0.664632        -0.60244
1.376                   0.662746       -0.605492
1.377                   0.660819       -0.608548
1.378                   0.658852       -0.611606
1.379                   0.656845       -0.614666
1.38                    0.654797       -0.617724
1.381                   0.652708       -0.620781
1.382                   0.650578       -0.623835
1.383                   0.648406       -0.626884
1.384                   0.646193       -0.629927
1.385                   0.643939       -0.632963
1.386                   0.641643        -0.63599
1.387                   0.639306       -0.639007
1.388                   0.636928       -0.642012
1.389                    0.63451       -0.645005
1.39                     0.63205       -0.647983
1.391                   0.629551       -0.650946
1.392                   0.627011       -0.653891
1.393                   0.624433       -0.656819
1.394                   0.621815       -0.659727
1.395                   0.619159       -0.662614
1.396                   0.616465       -0.665479
1.397                   0.613733       -0.668322
1.398                   0.610966       -0.671139
1.399                   0.608162       -0.673932
1.4                     0.605323       -0.676697
1.401                    0.60245       -0.679435
1.402                   0.599544       -0.682144
1.403                   0.596605       -0.684824
1.404                   0.593634       -0.687472
1.405                   0.590632       -0.690089
1.406                   0.587601       -0.692674
1.407                   0.584541       -0.695224
1.408                   0.581453       -0.697741
1.409                   0.578338       -0.700222
1.41                    0.575198       -0.702668
1.411                   0.572033       -0.705077
1.412                   0.568844       -0.707449
1.413                   0.565634       -0.709784
1.414                   0.562402        -0.71208
1.415                   0.559151       -0.714337
1.416                    0.55588       -0.716555
1.417                   0.552592       -0.718733
1.418                   0.549288       -0.720871
1.419                   0.545968       -0.722968
1.42                    0.542635       -0.725025
1.421                   0.539289       -0.727041
1.422                   0.535932       -0.729016
1.423                   0.532564       -0.730949
1.424                   0.529188       -0.732841
1.425                   0.525803       -0.734691
1.426                   0.522413         -0.7365
1.427                   0.519017       -0.738268
1.428                   0.515617       -0.739994
1.429                   0.512214       -0.741678
1.43                     0.50881       -0.743322
1.431                   0.505405       -0.744924
1.432                   0.502001       -0.746486
1.433                     0.4986       -0.748008
1.434                   0.495201       -0.749489
1.435                   0.491806        -0.75093
1.436                   0.488417       -0.752333
1.437                   0.485035       -0.753696
1.438                    0.48166        -0.75502
1.439                   0.478293       -0.756307
1.44                    0.474937       -0.757556
1.441                   0.471591       -0.758769
1.442                   0.468257       -0.759945
1.443                   0.464936       -0.761086
1.444                   0.461628       -0.762191
1.445                   0.458335       -0.763263
1.446                   0.455058       -0.764301
1.447                   0.451797       -0.765306
1.448                   0.448553       -0.766279
1.449                   0.445327       -0.767221
1.45                    0.442121       -0.768133
1.451                   0.438933       -0.769015
1.452                   0.435766       -0.769869
1.453                    0.43262       -0.770695
1.454                   0.429496       -0.771495
1.455                   0.426394       -0.772269
1.456                   0.423315       -0.773018
1.457                    0.42026       -0.773744
1.458                   0.417228       -0.774446
1.459                   0.414221       -0.775127
1.46                    0.411239       -0.775787
1.461                   0.408282       -0.776428
1.462                   0.405351        -0.77705
1.463                   0.402445       -0.777655
1.464                   0.399567       -0.778243
1.465                   0.396714       -0.778816
1.466                   0.393889       -0.779375
1.467                   0.391091       -0.779921
1.468                   0.388319       -0.780456
1.469                   0.385576       -0.780979
1.47                    0.382859       -0.781493
1.471                    0.38017       -0.781998
1.472                   0.377508       -0.782496
1.473                   0.374874       -0.782987
1.474                   0.372266       -0.783474
1.475                   0.369686       -0.783957
1.476                   0.367133       -0.784437
1.477                   0.364606       -0.784915
1.478                   0.362106       -0.785393
1.479                   0.359632       -0.785871
1.48                    0.357184       -0.786351
1.481                   0.354761       -0.786834
1.482                   0.352363        -0.78732
1.483                    0.34999       -0.787812
1.484                    0.34764       -0.788309
1.485                   0.345314       -0.788814
1.486                   0.343011       -0.789326
1.487                   0.340731       -0.789848
1.488                   0.338472       -0.790379
1.489                   0.336233       -0.790922
1.49                    0.334015       -0.791476
1.491                   0.331817       -0.792043
1.492                   0.329637       -0.792624
1.493                   0.327475       -0.793219
1.494                   0.325329        -0.79383
1.495                     0.3232       -0.794456
1.496                   0.321086         -0.7951
1.497                   0.318985       -0.795761
1.498                   0.316898        -0.79644
1.499                   0.314823       -0.797139
1.5                     0.312759       -0.797857
1.501                   0.310704       -0.798594
1.502                   0.308658       -0.799353
1.503                    0.30662       -0.800133
1.504                   0.304589       -0.800934
1.505                   0.302562       -0.801757
1.506                   0.300539       -0.802602
1.507                    0.29852        -0.80347
1.508                   0.296501       -0.804361
1.509                   0.294484       -0.805274
1.51                    0.292464       -0.806211
1.511                   0.290443       -0.807172
1.512                   0.288418       -0.808155
1.513                   0.286388       -0.809162
1.514                   0.284353       -0.810192
1.515                   0.282309       -0.811246
1.516                   0.280257       -0.812322
1.517                   0.278195       -0.813421
1.518                   0.276121       -0.814543
1.519                   0.274035       -0.815686
1.52                    0.271934       -0.816852
1.521                   0.269819       -0.818039
1.522                   0.267686       -0.819247
1.523                   0.265537       -0.820475
1.524                   0.263368       -0.821722
1.525                   0.261179       -0.822989
1.526                   0.258968       -0.824275
1.527                   0.256735       -0.825577
1.528                   0.254479       -0.826897
1.529                   0.252197       -0.828232
1.53                     0.24989       -0.829583
1.531                   0.247556       -0.830947
1.532                   0.245194       -0.832325
1.533                   0.242804       -0.833714
1.534                   0.240383       -0.835115
1.535                   0.237932       -0.836525
1.536                    0.23545       -0.837943
1.537                   0.232936       -0.839369
1.538                   0.230388       -0.840801
1.539                   0.227807       -0.842238
1.54                    0.225192       -0.843678
1.541                   0.222542        -0.84512
1.542                   0.219857       -0.846563
1.543                   0.217136       -0.848006
1.544                   0.214379       -0.849446
1.545                   0.211586       -0.850882
1.546                   0.208755       -0.852314
1.547                   0.205888       -0.853739
1.548                   0.202984       -0.855156
1.549                   0.200043       -0.856563
1.55                    0.197064       -0.857959
1.551                   0.194048       -0.859342
1.552                   0.190996       -0.860712
1.553                   0.187906       -0.862065
1.554                    0.18478       -0.863402
1.555                   0.181618        -0.86472
1.556                    0.17842       -0.866018
1.557                   0.175187       -0.867293
1.558                   0.171918       -0.868546
1.559                   0.168615       -0.869774
1.56                    0.165279       -0.870976
1.561                   0.161909       -0.872151
1.562                   0.158508       -0.873297
1.563                   0.155075       -0.874413
1.564                   0.151611       -0.875497
1.565                   0.148118       -0.876548
1.566                   0.144596       -0.877566
1.567                   0.141047       -0.878548
1.568                   0.137471       -0.879494
1.569                    0.13387       -0.880403
1.57                    0.130245       -0.881273
1.571                   0.126597       -0.882103
1.572                   0.122928       -0.882894
1.573                   0.119238       -0.883643
1.574                    0.11553        -0.88435
1.575                   0.111803       -0.885014
1.576                   0.108061       -0.885634
1.577                   0.104305        -0.88621
1.578                   0.100535       -0.886741
1.579                  0.0967538       -0.887227
1.58                   0.0929626       -0.887667
1.581                  0.0891629       -0.888061
1.582                  0.0853564       -0.888408
1.583                  0.0815444       -0.888709
1.584                  0.0777289       -0.888962
1.585                  0.0739113       -0.889168
1.586                  0.0700929       -0.889327
1.587                  0.0662758       -0.889439
1.588                  0.0624615       -0.889504
1.589                  0.0586516       -0.889522
1.59                   0.0548471       -0.889494
1.591                  0.0510505       -0.889418
1.592                  0.0472626       -0.889297
1.593                  0.0434855       -0.889131
1.594                  0.0397203       -0.888919
1.595                  0.0359686       -0.888662
1.596                   0.032232       -0.888361
1.597                  0.0285117       -0.888018
1.598                  0.0248091       -0.887631
1.599                   0.021126       -0.887203
1.6                    0.0174631       -0.886734
1.601                  0.0138223       -0.886224
1.602                  0.0102041       -0.885676
1.603                 0.00661051       -0.885089
1.604                 0.00304187       -0.884466
1.605               -0.000500006       -0.883806
1.606                -0.00401467       -0.883111
1.607                -0.00750041       -0.882383
1.608                 -0.0109568       -0.881622
1.609                  -0.014383        -0.88083
1.61                  -0.0177778       -0.880008
1.611                 -0.0211409       -0.879157
1.612                 -0.0244713       -0.878278
1.613                 -0.0277682       -0.877374
1.614                 -0.0310311       -0.876445
1.615                 -0.0342597       -0.875493
1.616                 -0.0374533       -0.874519
1.617                 -0.0406117       -0.873524
1.618                 -0.0437342        -0.87251
1.619                 -0.0468207       -0.871478
1.62                   -0.049871       -0.870431
1.621                 -0.0528848       -0.869368
1.622                 -0.0558622       -0.868292
1.623                 -0.0588031       -0.867205
1.624                 -0.0617073       -0.866106
1.625                 -0.0645749       -0.864999
1.626                 -0.0674066       -0.863884
1.627                 -0.0702016       -0.862762
1.628                 -0.0729609       -0.861636
1.629                 -0.0756843       -0.860506
1.63                  -0.0783728       -0.859374
1.631                 -0.0810262        -0.85824
1.632                 -0.0836451       -0.857107
1.633                   -0.08623       -0.855976
1.634                 -0.0887814       -0.854847
1.635                 -0.0912999       -0.853722
1.636                 -0.0937865       -0.852602
1.637                 -0.0962412       -0.851488
1.638                 -0.0986654       -0.850381
1.639                  -0.101059       -0.849283
1.64                   -0.103424       -0.848194
1.641                   -0.10576       -0.847115
1.642                  -0.108068       -0.846048
1.643                   -0.11035       -0.844992
1.644                  -0.112606       -0.843949
1.645                  -0.114837        -0.84292
1.646                  -0.117044       -0.841905
1.647                  -0.119227       -0.840905
1.648                  -0.121389       -0.839922
1.649                   -0.12353       -0.838954
1.65                   -0.125651       -0.838003
1.651                  -0.127752        -0.83707
1.652                  -0.129836       -0.836155
1.653                  -0.131903       -0.835258
1.654                  -0.133954       -0.834379
1.655                   -0.13599        -0.83352
1.656                  -0.138013       -0.832681
1.657                  -0.140023        -0.83186
1.658                  -0.142021        -0.83106
1.659                  -0.144008        -0.83028
1.66                   -0.145987        -0.82952
1.661                  -0.147956        -0.82878
1.662                  -0.149918       -0.828061
1.663                  -0.151874       -0.827361
1.664                  -0.153824       -0.826683
1.665                  -0.155771       -0.826024
1.666                  -0.157713       -0.825385
1.667                  -0.159653       -0.824767
1.668                  -0.161592       -0.824169
1.669                  -0.163531        -0.82359
1.67                   -0.165469        -0.82303
1.671                  -0.167409        -0.82249
1.672                  -0.169351       -0.821969
1.673                  -0.171297       -0.821466
1.674                  -0.173246       -0.820981
1.675                    -0.1752       -0.820515
1.676                   -0.17716       -0.820066
1.677                  -0.179126       -0.819634
1.678                    -0.1811       -0.819219
1.679                  -0.183081        -0.81882
1.68                   -0.185071       -0.818437
1.681                   -0.18707       -0.818069
1.682                   -0.18908       -0.817717
1.683                    -0.1911       -0.817378
1.684                  -0.193131       -0.817053
1.685                  -0.195175       -0.816742
1.686                  -0.197231       -0.816443
1.687                  -0.199301       -0.816156
1.688                  -0.201384       -0.815881
1.689                  -0.203481       -0.815617
1.69                   -0.205594       -0.815363
1.691                  -0.207721       -0.815119
1.692                  -0.209865       -0.814884
1.693                  -0.212024       -0.814658
1.694                  -0.214201       -0.814439
1.695                  -0.216394       -0.814227
1.696                  -0.218605       -0.814022
1.697                  -0.220834       -0.813823
1.698                  -0.223081       -0.813629
1.699                  -0.225347        -0.81344
1.7                    -0.227632       -0.813254
1.701                  -0.229937       -0.813072
1.702                  -0.232261       -0.812892
1.703                  -0.234604       -0.812714
1.704                  -0.236968       -0.812537
1.705                  -0.239352        -0.81236
1.706                  -0.241757       -0.812183
1.707                  -0.244182       -0.812005
1.708                  -0.246629       -0.811825
1.709                  -0.249096       -0.811642
1.71                   -0.251585       -0.811456
1.711                  -0.254096       -0.811266
1.712                  -0.256628       -0.811071
1.713                  -0.259182       -0.810871
1.714                  -0.261758       -0.810664
1.715                  -0.264355        -0.81045
1.716                  -0.266975       -0.810228
1.717                  -0.269616       -0.809997
1.718                  -0.272279       -0.809757
1.719                  -0.274964       -0.809507
1.72                   -0.277671       -0.809246
1.721                    -0.2804       -0.808972
1.722                  -0.283151       -0.808686
1.723                  -0.285923       -0.808387
1.724                  -0.288717       -0.808073
1.725                  -0.291532       -0.807743
1.726                  -0.294369       -0.807398
1.727                  -0.297226       -0.807036
1.728                  -0.300104       -0.806656
1.729                  -0.303003       -0.806258
1.73                   -0.305921        -0.80584
1.731                   -0.30886       -0.805403
1.732                  -0.311819       -0.804944
1.733                  -0.314796       -0.804463
1.734                  -0.317792        -0.80396
1.735                  -0.320807       -0.803433
1.736                   -0.32384       -0.802882
1.737                  -0.326891       -0.802305
1.738                  -0.329958       -0.801703
1.739                  -0.333041       -0.801074
1.74                    -0.33614       -0.800418
1.741                  -0.339255       -0.799733
1.742                  -0.342384       -0.799019
1.743                  -0.345526       -0.798275
1.744                  -0.348682       -0.797501
1.745                  -0.351851       -0.796695
1.746                  -0.355031       -0.795858
1.747                  -0.358221       -0.794987
1.748                  -0.361422       -0.794084
1.749                  -0.364631       -0.793146
1.75                   -0.367849       -0.792174
1.751                  -0.371073       -0.791167
1.752                  -0.374305       -0.790124
1.753                  -0.377541       -0.789045
1.754                  -0.380781        -0.78793
1.755                  -0.384025       -0.786777
1.756                   -0.38727       -0.785587
1.757                  -0.390516       -0.784358
1.758                  -0.393762       -0.783092
1.759                  -0.397007       -0.781787
1.76                   -0.400248       -0.780443
1.761                  -0.403487        -0.77906
1.762                   -0.40672       -0.777638
1.763                  -0.409947       -0.776176
1.764                  -0.413166       -0.774676
1.765                  -0.416376       -0.773136
1.766                  -0.419576       -0.771556
1.767                  -0.422766       -0.769937
1.768                  -0.425942       -0.768279
1.769                  -0.429104       -0.766582
1.77                   -0.432251       -0.764846
1.771                  -0.435381       -0.763071
1.772                  -0.438493       -0.761259
1.773                  -0.441587       -0.759409
1.774                  -0.444659       -0.757521
1.775                   -0.44771       -0.755597
1.776                  -0.450738       -0.753636
1.777                  -0.453741        -0.75164
1.778                  -0.456719       -0.749609
1.779                   -0.45967       -0.747543
1.78                   -0.462594       -0.745445
1.781                  -0.465487       -0.743313
1.782                  -0.468351        -0.74115
1.783                  -0.471183       -0.738957
1.784                  -0.473984       -0.736733
1.785                   -0.47675       -0.734481
1.786                  -0.479482       -0.732201
1.787                  -0.482178       -0.729895
1.788                  -0.484838       -0.727563
1.789                   -0.48746       -0.725208
1.79                   -0.490045       -0.722829
1.791                  -0.492591        -0.72043
1.792                  -0.495096        -0.71801
1.793                  -0.497562       -0.715571
1.794                  -0.499987       -0.713115
1.795                   -0.50237       -0.710644
1.796                  -0.504711       -0.708158
1.797                   -0.50701       -0.705659
1.798                  -0.509267       -0.703149
1.799                   -0.51148       -0.700629
1.8                     -0.51365       -0.698101
1.801                  -0.515776       -0.695567
1.802                  -0.517858       -0.693027
1.803                  -0.519897       -0.690484
1.804                  -0.521893        -0.68794
1.805                  -0.523844       -0.685396
1.806                  -0.525753       -0.682853
1.807                  -0.527618       -0.680313
1.808                  -0.529441       -0.677778
1.809                  -0.531221        -0.67525
1.81                   -0.532959       -0.672729
1.811                  -0.534656       -0.670218
1.812                  -0.536312       -0.667718
1.813                  -0.537927       -0.665231
1.814                  -0.539504       -0.662758
1.815                  -0.541041       -0.660301
1.816                  -0.542541        -0.65786
1.817                  -0.544004       -0.655439
1.818                  -0.545431       -0.653037
1.819                  -0.546823       -0.650656
1.82                   -0.548181       -0.648298
1.821                  -0.549507       -0.645964
1.822                  -0.550802       -0.643654
1.823                  -0.552066       -0.641371
1.824                  -0.553302       -0.639115
1.825                   -0.55451       -0.636887
1.826                  -0.555693       -0.634688
1.827                  -0.556851        -0.63252
1.828                  -0.557986       -0.630382
1.829                  -0.559099       -0.628276
1.83                   -0.560193       -0.626202
1.831                  -0.561268       -0.624162
1.832                  -0.562328       -0.622154
1.833                  -0.563372       -0.620182
1.834                  -0.564403       -0.618243
1.835                  -0.565422        -0.61634
1.836                  -0.566432       -0.614471
1.837                  -0.567433       -0.612639
1.838                  -0.568429       -0.610841
1.839                  -0.569419       -0.609079
1.84                   -0.570407       -0.607352
1.841                  -0.571394       -0.605661
1.842                  -0.572382       -0.604005
1.843                  -0.573372       -0.602384
1.844                  -0.574366       -0.600798
1.845                  -0.575366       -0.599246
1.846                  -0.576374       -0.597727
1.847                  -0.577391       -0.596241
1.848                  -0.578419       -0.594788
1.849                  -0.579459       -0.593367
1.85                   -0.580513       -0.591976
1.851                  -0.581583       -0.590616
1.852                   -0.58267       -0.589285
1.853                  -0.583776       -0.587982
1.854                  -0.584902       -0.586706
1.855                  -0.586049       -0.585457
1.856                  -0.587218       -0.584232
1.857                  -0.588412       -0.583031
1.858                  -0.589631       -0.581852
1.859                  -0.590876       -0.580694
1.86                   -0.592148       -0.579556
1.861                  -0.593449       -0.578436
1.862                   -0.59478       -0.577332
1.863                   -0.59614       -0.576244
1.864                  -0.597532        -0.57517
1.865                  -0.598956       -0.574108
1.866                  -0.600412       -0.573056
1.867                  -0.601902       -0.572013
1.868                  -0.603426       -0.570977
1.869                  -0.604984       -0.569947
1.87                   -0.606576        -0.56892
1.871                  -0.608204       -0.567896
1.872                  -0.609867       -0.566872
1.873                  -0.611565       -0.565846
1.874                  -0.613299       -0.564817
1.875                  -0.615069       -0.563783
1.876                  -0.616874       -0.562742
1.877                  -0.618715       -0.561693
1.878                  -0.620591       -0.560634
1.879                  -0.622502       -0.559563
1.88                   -0.624447       -0.558478
1.881                  -0.626427       -0.557378
1.882                  -0.628441        -0.55626
1.883                  -0.630488       -0.555124
1.884                  -0.632567       -0.553968
1.885                  -0.634679       -0.552789
1.886                  -0.636821       -0.551588
1.887                  -0.638994       -0.550361
1.888                  -0.641196       -0.549108
1.889                  -0.643427       -0.547826
1.89                   -0.645685       -0.546515
1.891                   -0.64797       -0.545174
1.892                   -0.65028         -0.5438
1.893                  -0.652614       -0.542393
1.894                  -0.654971       -0.540952
1.895                   -0.65735       -0.539474
1.896                  -0.659748        -0.53796
1.897                  -0.662166       -0.536408
1.898                  -0.664601       -0.534817
1.899                  -0.667053       -0.533186
1.9                    -0.669519       -0.531514
1.901                  -0.671998       -0.529801
1.902                  -0.674488       -0.528045
1.903                  -0.676989       -0.526246
1.904                  -0.679498       -0.524404
1.905                  -0.682014       -0.522517
1.906                  -0.684535       -0.520586
1.907                  -0.687059       -0.518609
1.908                  -0.689585       -0.516587
1.909                  -0.692111       -0.514519
1.91                   -0.694636       -0.512406
1.911                  -0.697158       -0.510246
1.912                  -0.699674       -0.508039
1.913                  -0.702184       -0.505787
1.914                  -0.704685       -0.503488
1.915                  -0.707177       -0.501143
1.916                  -0.709656       -0.498752
1.917                  -0.712122       -0.496316
1.918                  -0.714573       -0.493834
1.919                  -0.717008       -0.491307
1.92                   -0.719424       -0.488735
1.921                  -0.721819        -0.48612
1.922                  -0.724194       -0.483461
1.923                  -0.726545       -0.480759
1.924                  -0.728872       -0.478015
1.925                  -0.731172       -0.475229
1.926                  -0.733444       -0.472403
1.927                  -0.735688       -0.469537
1.928                  -0.737901       -0.466633
1.929                  -0.740082        -0.46369
1.93                    -0.74223       -0.460711
1.931                  -0.744343       -0.457696
1.932                  -0.746421       -0.454647
1.933                  -0.748461       -0.451564
1.934                  -0.750464       -0.448448
1.935                  -0.752427       -0.445302
1.936                   -0.75435       -0.442126
1.937                  -0.756231       -0.438922
1.938                  -0.758071       -0.435691
1.939                  -0.759867       -0.432434
1.94                   -0.761619       -0.429154
1.941                  -0.763327       -0.425851
1.942                  -0.764989       -0.422526
1.943                  -0.766605       -0.419182
1.944                  -0.768174        -0.41582
1.945                  -0.769696       -0.412442
1.946                   -0.77117       -0.409049
1.947                  -0.772596       -0.405642
1.948                  -0.773973       -0.402224
1.949                  -0.775301       -0.398796
1.95                    -0.77658        -0.39536
1.951                   -0.77781       -0.391917
1.952                   -0.77899       -0.388469
1.953                  -0.780121       -0.385018
1.954                  -0.781203       -0.381566
1.955                  -0.782235       -0.378113
1.956                  -0.783218       -0.374662
1.957                  -0.784152       -0.371215
1.958                  -0.785037       -0.367773
1.959                  -0.785874       -0.364337
1.96                   -0.786663        -0.36091
1.961                  -0.787404       -0.357492
1.962                  -0.788099       -0.354087
1.963                  -0.788747       -0.350694
1.964                   -0.78935       -0.347316
1.965                  -0.789907       -0.343953
1.966                  -0.790421       -0.340609
1.967                  -0.790891       -0.337284
1.968                  -0.791319       -0.333979
1.969                  -0.791705       -0.330696
1.97                    -0.79205       -0.327436
1.971                  -0.792356       -0.324201
1.972                  -0.792624       -0.320991
1.973                  -0.792854       -0.317809
1.974                  -0.793049       -0.314655
1.975                  -0.793209        -0.31153
1.976                  -0.793335       -0.308436
1.977                   -0.79343       -0.305373
1.978                  -0.793493       -0.302343
1.979                  -0.793528       -0.299345
1.98                   -0.793534       -0.296382
1.981                  -0.793514       -0.293454
1.982                  -0.793469       -0.290562
1.983                  -0.793401       -0.287706
1.984                  -0.793312       -0.284887
1.985                  -0.793202       -0.282106
1.986                  -0.793073       -0.279363
1.987                  -0.792928       -0.276658
1.988                  -0.792768       -0.273992
1.989                  -0.792594       -0.271365
1.99                   -0.792408       -0.268777
1.991                  -0.792213       -0.266229
1.992                  -0.792008       -0.263721
1.993                  -0.791798       -0.261251
1.994                  -0.791581       -0.258822
1.995                  -0.791362       -0.256431
1.996                  -0.791141        -0.25408
1.997                   -0.79092       -0.251767
1.998                  -0.790701       -0.249493
1.999                  -0.790485       -0.247257
2                      -0.790274       -0.245059
