! TOUCHSTONE file generated by CST MICROWAVE STUDIO
! Date and time: Sun Aug  2 11:33:44 2026
! Project name: Sonda-Coaxial_21mm_DisifixB_v2_Agua_Dest.cst
! Parameters = {h_recipiente=20; l_conector=50; r_arandela=35; r_ext=10.5; r_int=3; r_recipiente=100; z_recipiente=-80}
! Header version: 2018
! Port assignment regex: !\s*Touchstone port\s*([0-9]+)\s*=\s*(CST MWS port|CST DS port)\s*([0-9]+|Zmin|Zmax)\s*\(\"(.*)\"\)(\s*mode\s*([0-9]+))?.*
! Touchstone port assignment:
! Touchstone port 1 = CST MWS port 1 ("")
# GHz S RI R 50
0.001                   0.999723     -0.00992058
0.002                    0.99959      -0.0198432
0.003                   0.999366      -0.0297697
0.004                   0.999051      -0.0397014
0.005                    0.99864       -0.049639
0.006                   0.998131      -0.0595822
0.007                    0.99752      -0.0695301
0.008                   0.996805      -0.0794807
0.009                   0.995982       -0.089431
0.01                     0.99505      -0.0993776
0.011                   0.994006       -0.109316
0.012                    0.99285       -0.119241
0.013                   0.991581       -0.129149
0.014                   0.990203       -0.139035
0.015                   0.988715       -0.148893
0.016                   0.987123       -0.158721
0.017                   0.985429       -0.168515
0.018                   0.983637       -0.178273
0.019                   0.981752       -0.187994
0.02                    0.979778       -0.197678
0.021                   0.977719       -0.207325
0.022                   0.975578       -0.216938
0.023                   0.973359       -0.226519
0.024                   0.971063       -0.236071
0.025                   0.968689       -0.245597
0.026                   0.966239       -0.255101
0.027                    0.96371       -0.264585
0.028                   0.961101       -0.274051
0.029                   0.958408         -0.2835
0.03                    0.955627       -0.292935
0.031                   0.952755       -0.302353
0.032                   0.949788       -0.311754
0.033                   0.946723       -0.321134
0.034                   0.943556       -0.330491
0.035                   0.940286       -0.339819
0.036                   0.936911       -0.349115
0.037                    0.93343       -0.358373
0.038                   0.929846       -0.367587
0.039                   0.926159       -0.376753
0.04                    0.922373       -0.385867
0.041                   0.918492       -0.394925
0.042                   0.914519       -0.403923
0.043                   0.910459       -0.412861
0.044                   0.906317       -0.421737
0.045                   0.902098       -0.430552
0.046                   0.897805       -0.439306
0.047                   0.893442       -0.448003
0.048                   0.889012       -0.456645
0.049                   0.884516       -0.465234
0.05                    0.879954       -0.473774
0.051                   0.875327       -0.482268
0.052                   0.870632       -0.490718
0.053                   0.865869       -0.499126
0.054                   0.861034       -0.507493
0.055                   0.856125       -0.515819
0.056                   0.851137       -0.524103
0.057                    0.84607       -0.532344
0.058                    0.84092        -0.54054
0.059                   0.835685       -0.548685
0.06                    0.830364       -0.556778
0.061                   0.824958       -0.564813
0.062                   0.819467       -0.572786
0.063                   0.813892       -0.580694
0.064                   0.808238       -0.588532
0.065                   0.802506       -0.596297
0.066                   0.796701       -0.603988
0.067                   0.790826       -0.611601
0.068                   0.784887       -0.619138
0.069                   0.778887       -0.626599
0.07                    0.772829       -0.633984
0.071                   0.766718       -0.641295
0.072                   0.760555       -0.648535
0.073                   0.754342       -0.655707
0.074                   0.748079       -0.662812
0.075                   0.741767       -0.669854
0.076                   0.735405       -0.676835
0.077                   0.728991       -0.683756
0.078                   0.722523       -0.690618
0.079                   0.715999       -0.697421
0.08                    0.709417       -0.704165
0.081                   0.702776       -0.710848
0.082                   0.696072       -0.717467
0.083                   0.689306       -0.724021
0.084                   0.682477       -0.730505
0.085                   0.675585       -0.736918
0.086                   0.668633       -0.743254
0.087                   0.661621       -0.749511
0.088                   0.654553       -0.755687
0.089                   0.647432       -0.761779
0.09                    0.640262       -0.767786
0.091                   0.633045       -0.773707
0.092                   0.625787       -0.779544
0.093                   0.618491       -0.785295
0.094                   0.611159       -0.790964
0.095                   0.603795       -0.796552
0.096                     0.5964       -0.802062
0.097                   0.588974       -0.807497
0.098                   0.581519       -0.812857
0.099                   0.574034       -0.818147
0.1                     0.566518       -0.823368
0.101                   0.558969       -0.828521
0.102                   0.551387       -0.833607
0.103                   0.543768       -0.838625
0.104                    0.53611       -0.843574
0.105                   0.528415       -0.848454
0.106                   0.520678       -0.853261
0.107                   0.512902       -0.857994
0.108                   0.505085        -0.86265
0.109                   0.497229       -0.867226
0.11                    0.489336       -0.871719
0.111                   0.481407       -0.876127
0.112                   0.473448       -0.880448
0.113                   0.465458       -0.884683
0.114                   0.457444       -0.888829
0.115                   0.449408       -0.892886
0.116                   0.441354       -0.896858
0.117                   0.433284       -0.900743
0.118                   0.425201       -0.904546
0.119                   0.417106       -0.908268
0.12                    0.409001       -0.911912
0.121                   0.400887        -0.91548
0.122                   0.392762       -0.918975
0.123                   0.384626         -0.9224
0.124                   0.376479       -0.925754
0.125                   0.368317        -0.92904
0.126                   0.360139       -0.932257
0.127                   0.351944       -0.935405
0.128                   0.343731       -0.938483
0.129                   0.335497       -0.941489
0.13                    0.327245       -0.944421
0.131                   0.318971       -0.947278
0.132                   0.310679       -0.950056
0.133                    0.30237       -0.952752
0.134                   0.294044       -0.955367
0.135                   0.285706       -0.957897
0.136                   0.277358       -0.960343
0.137                   0.269003       -0.962703
0.138                   0.260645       -0.964978
0.139                   0.252286       -0.967169
0.14                     0.24393       -0.969279
0.141                   0.235578       -0.971308
0.142                   0.227232        -0.97326
0.143                   0.218893       -0.975137
0.144                   0.210561       -0.976942
0.145                   0.202236       -0.978677
0.146                   0.193918       -0.980344
0.147                   0.185605       -0.981945
0.148                   0.177294       -0.983481
0.149                   0.168986       -0.984953
0.15                    0.160678       -0.986359
0.151                   0.152367         -0.9877
0.152                   0.144054       -0.988974
0.153                   0.135738       -0.990178
0.154                    0.12742       -0.991312
0.155                   0.119098       -0.992372
0.156                   0.110775       -0.993358
0.157                   0.102454       -0.994266
0.158                  0.0941346       -0.995097
0.159                   0.085822       -0.995848
0.16                   0.0775183       -0.996521
0.161                  0.0692259       -0.997115
0.162                  0.0609483       -0.997633
0.163                  0.0526874       -0.998074
0.164                  0.0444459       -0.998443
0.165                   0.036225       -0.998741
0.166                  0.0280248        -0.99897
0.167                  0.0198465       -0.999135
0.168                  0.0116892       -0.999236
0.169                  0.0035519       -0.999276
0.17                 -0.00456697       -0.999257
0.171                 -0.0126688        -0.99918
0.172                 -0.0207554       -0.999045
0.173                 -0.0288288       -0.998852
0.174                 -0.0368901       -0.998601
0.175                 -0.0449412       -0.998289
0.176                 -0.0529816       -0.997916
0.177                 -0.0610127       -0.997479
0.178                 -0.0690326       -0.996976
0.179                 -0.0770408       -0.996406
0.18                  -0.0850356       -0.995767
0.181                 -0.0930143       -0.995057
0.182                  -0.100974       -0.994277
0.183                  -0.108914       -0.993426
0.184                  -0.116829       -0.992505
0.185                  -0.124717       -0.991515
0.186                  -0.132577       -0.990458
0.187                  -0.140406       -0.989336
0.188                  -0.148204       -0.988152
0.189                  -0.155968       -0.986908
0.19                     -0.1637       -0.985607
0.191                    -0.1714       -0.984251
0.192                  -0.179069       -0.982843
0.193                  -0.186709       -0.981384
0.194                  -0.194322       -0.979875
0.195                  -0.201908       -0.978317
0.196                  -0.209472       -0.976709
0.197                  -0.217012        -0.97505
0.198                  -0.224532       -0.973339
0.199                   -0.23203       -0.971575
0.2                    -0.239509       -0.969755
0.201                  -0.246966       -0.967878
0.202                    -0.2544       -0.965941
0.203                  -0.261811       -0.963944
0.204                  -0.269194       -0.961886
0.205                  -0.276549       -0.959765
0.206                  -0.283872       -0.957583
0.207                   -0.29116       -0.955339
0.208                  -0.298411       -0.953036
0.209                  -0.305624       -0.950676
0.21                   -0.312795        -0.94826
0.211                  -0.319924       -0.945792
0.212                  -0.327011       -0.943274
0.213                  -0.334055       -0.940708
0.214                  -0.341059       -0.938099
0.215                  -0.348022       -0.935447
0.216                  -0.354947       -0.932754
0.217                  -0.361835       -0.930021
0.218                  -0.368689       -0.927248
0.219                   -0.37551       -0.924436
0.22                     -0.3823       -0.921582
0.221                  -0.389059       -0.918686
0.222                  -0.395789       -0.915746
0.223                  -0.402488       -0.912761
0.224                  -0.409157       -0.909728
0.225                  -0.415794       -0.906645
0.226                  -0.422396       -0.903512
0.227                  -0.428961       -0.900329
0.228                  -0.435486       -0.897094
0.229                  -0.441969       -0.893809
0.23                   -0.448407       -0.890475
0.231                  -0.454796       -0.887095
0.232                  -0.461135        -0.88367
0.233                  -0.467423       -0.880204
0.234                  -0.473658       -0.876701
0.235                  -0.479841       -0.873164
0.236                  -0.485972       -0.869597
0.237                  -0.492053       -0.866003
0.238                  -0.498085       -0.862384
0.239                  -0.504071       -0.858743
0.24                   -0.510014       -0.855082
0.241                  -0.515917       -0.851401
0.242                  -0.521783         -0.8477
0.243                  -0.527614       -0.843979
0.244                  -0.533413       -0.840236
0.245                  -0.539181       -0.836471
0.246                  -0.544921        -0.83268
0.247                   -0.55063       -0.828863
0.248                  -0.556312       -0.825017
0.249                  -0.561963        -0.82114
0.25                   -0.567582       -0.817231
0.251                   -0.57317       -0.813289
0.252                  -0.578723       -0.809314
0.253                  -0.584239       -0.805306
0.254                  -0.589719       -0.801267
0.255                  -0.595159       -0.797197
0.256                  -0.600559       -0.793098
0.257                  -0.605919       -0.788972
0.258                  -0.611239       -0.784821
0.259                   -0.61652       -0.780646
0.26                   -0.621763       -0.776449
0.261                   -0.62697       -0.772231
0.262                  -0.632142       -0.767993
0.263                  -0.637282       -0.763735
0.264                  -0.642391       -0.759455
0.265                  -0.647471       -0.755153
0.266                  -0.652523       -0.750827
0.267                  -0.657548       -0.746474
0.268                  -0.662545       -0.742093
0.269                  -0.667515       -0.737682
0.27                   -0.672455       -0.733239
0.271                  -0.677363       -0.728761
0.272                  -0.682238       -0.724248
0.273                  -0.687077       -0.719698
0.274                  -0.691876       -0.715114
0.275                  -0.696633       -0.710494
0.276                  -0.701345       -0.705842
0.277                  -0.706011       -0.701159
0.278                  -0.710627       -0.696447
0.279                  -0.715194       -0.691711
0.28                   -0.719712       -0.686953
0.281                   -0.72418       -0.682177
0.282                  -0.728601       -0.677385
0.283                  -0.732976        -0.67258
0.284                  -0.737307       -0.667763
0.285                  -0.741598       -0.662935
0.286                  -0.745852       -0.658097
0.287                   -0.75007       -0.653249
0.288                  -0.754255       -0.648389
0.289                   -0.75841       -0.643514
0.29                   -0.762534       -0.638624
0.291                   -0.76663       -0.633716
0.292                  -0.770695       -0.628786
0.293                   -0.77473       -0.623834
0.294                  -0.778732       -0.618856
0.295                  -0.782699       -0.613853
0.296                  -0.786629       -0.608822
0.297                  -0.790519       -0.603766
0.298                  -0.794365       -0.598683
0.299                  -0.798165       -0.593577
0.3                    -0.801918       -0.588449
0.301                  -0.805622       -0.583304
0.302                  -0.809277       -0.578143
0.303                  -0.812883        -0.57297
0.304                   -0.81644       -0.567789
0.305                  -0.819952       -0.562602
0.306                   -0.82342        -0.55741
0.307                  -0.826848       -0.552217
0.308                  -0.830238       -0.547021
0.309                  -0.833595       -0.541823
0.31                    -0.83692       -0.536622
0.311                  -0.840217       -0.531415
0.312                  -0.843486       -0.526201
0.313                   -0.84673       -0.520976
0.314                  -0.849948       -0.515737
0.315                   -0.85314        -0.51048
0.316                  -0.856303       -0.505205
0.317                  -0.859435       -0.499908
0.318                  -0.862534       -0.494588
0.319                  -0.865596       -0.489244
0.32                   -0.868618       -0.483878
0.321                  -0.871596        -0.47849
0.322                  -0.874528       -0.473082
0.323                  -0.877412       -0.467659
0.324                  -0.880246       -0.462223
0.325                  -0.883031       -0.456778
0.326                  -0.885767       -0.451327
0.327                  -0.888455       -0.445874
0.328                  -0.891099       -0.440423
0.329                  -0.893701       -0.434974
0.33                   -0.896266       -0.429528
0.331                  -0.898796       -0.424087
0.332                  -0.901296       -0.418649
0.333                  -0.903768       -0.413212
0.334                  -0.906216       -0.407772
0.335                   -0.90864       -0.402328
0.336                  -0.911042       -0.396874
0.337                  -0.913421       -0.391408
0.338                  -0.915774       -0.385925
0.339                  -0.918101       -0.380422
0.34                   -0.920396       -0.374898
0.341                  -0.922657       -0.369351
0.342                  -0.924878       -0.363782
0.343                  -0.927056        -0.35819
0.344                  -0.929187       -0.352579
0.345                  -0.931268       -0.346952
0.346                  -0.933296       -0.341312
0.347                  -0.935271       -0.335666
0.348                  -0.937193       -0.330016
0.349                  -0.939063       -0.324368
0.35                   -0.940884       -0.318726
0.351                  -0.942661       -0.313092
0.352                  -0.944396       -0.307468
0.353                  -0.946096       -0.301856
0.354                  -0.947765       -0.296253
0.355                  -0.949407       -0.290658
0.356                  -0.951026       -0.285069
0.357                  -0.952625       -0.279479
0.358                  -0.954204       -0.273883
0.359                  -0.955764       -0.268278
0.36                   -0.957303       -0.262657
0.361                  -0.958818       -0.257016
0.362                  -0.960304       -0.251351
0.363                  -0.961755       -0.245659
0.364                  -0.963166        -0.23994
0.365                   -0.96453       -0.234195
0.366                  -0.965841       -0.228426
0.367                  -0.967094       -0.222637
0.368                  -0.968286       -0.216833
0.369                  -0.969413       -0.211021
0.37                   -0.970476       -0.205206
0.371                  -0.971475       -0.199397
0.372                  -0.972414       -0.193597
0.373                  -0.973297       -0.187813
0.374                  -0.974131       -0.182047
0.375                  -0.974921       -0.176299
0.376                  -0.975675        -0.17057
0.377                  -0.976398       -0.164854
0.378                  -0.977097       -0.159148
0.379                  -0.977774       -0.153442
0.38                   -0.978429       -0.147729
0.381                  -0.979062       -0.141999
0.382                  -0.979667       -0.136243
0.383                  -0.980236        -0.13045
0.384                  -0.980757       -0.124617
0.385                  -0.981218       -0.118737
0.386                  -0.981603        -0.11281
0.387                  -0.981894       -0.106839
0.388                  -0.982074       -0.100831
0.389                  -0.982128      -0.0947987
0.39                   -0.982041      -0.0887573
0.391                  -0.981802       -0.082727
0.392                  -0.981402      -0.0767311
0.393                  -0.980841      -0.0707957
0.394                   -0.98012       -0.064948
0.395                  -0.979249      -0.0592156
0.396                  -0.978242      -0.0536243
0.397                  -0.977119      -0.0481981
0.398                  -0.975906      -0.0429572
0.399                  -0.974634      -0.0379161
0.4                    -0.973334      -0.0330842
0.401                  -0.972043      -0.0284642
0.402                  -0.970796      -0.0240514
0.403                  -0.969628      -0.0198347
0.404                  -0.968571      -0.0157958
0.405                  -0.967653      -0.0119101
0.406                  -0.966899     -0.00814816
0.407                  -0.966325     -0.00447683
0.408                  -0.965942    -0.000859433
0.409                  -0.965753      0.00274177
0.41                   -0.965754      0.00636378
0.411                  -0.965934       0.0100417
0.412                  -0.966275       0.0138077
0.413                  -0.966754        0.017689
0.414                  -0.967344       0.0217077
0.415                  -0.968015       0.0258796
0.416                  -0.968734       0.0302142
0.417                   -0.96947       0.0347137
0.418                  -0.970191       0.0393748
0.419                  -0.970869       0.0441875
0.42                   -0.971479       0.0491386
0.421                  -0.972001       0.0542091
0.422                  -0.972418       0.0593785
0.423                   -0.97272       0.0646244
0.424                  -0.972903        0.069924
0.425                  -0.972965       0.0752555
0.426                   -0.97291       0.0805992
0.427                  -0.972747       0.0859373
0.428                  -0.972484       0.0912563
0.429                  -0.972136       0.0965449
0.43                   -0.971713        0.101796
0.431                   -0.97123        0.107008
0.432                  -0.970698        0.112179
0.433                  -0.970127        0.117312
0.434                  -0.969526        0.122411
0.435                  -0.968902        0.127484
0.436                  -0.968256        0.132536
0.437                  -0.967592        0.137573
0.438                  -0.966907        0.142603
0.439                  -0.966199        0.147628
0.44                   -0.965463        0.152654
0.441                  -0.964697         0.15768
0.442                  -0.963893        0.162706
0.443                   -0.96305        0.167731
0.444                  -0.962162         0.17275
0.445                  -0.961227        0.177759
0.446                  -0.960245        0.182754
0.447                  -0.959217        0.187727
0.448                  -0.958145        0.192675
0.449                  -0.957032        0.197593
0.45                   -0.955884        0.202477
0.451                  -0.954704        0.207325
0.452                    -0.9535        0.212138
0.453                  -0.952277        0.216915
0.454                   -0.95104        0.221658
0.455                  -0.949792        0.226371
0.456                  -0.948538        0.231058
0.457                   -0.94728        0.235723
0.458                  -0.946017        0.240371
0.459                   -0.94475        0.245006
0.46                   -0.943476        0.249632
0.461                  -0.942194        0.254252
0.462                    -0.9409        0.258868
0.463                  -0.939591         0.26348
0.464                  -0.938264        0.268088
0.465                  -0.936916        0.272691
0.466                  -0.935546        0.277286
0.467                  -0.934152        0.281871
0.468                  -0.932735        0.286444
0.469                  -0.931296           0.291
0.47                   -0.929836        0.295539
0.471                  -0.928358        0.300058
0.472                  -0.926867        0.304557
0.473                  -0.925365        0.309036
0.474                  -0.923857        0.313496
0.475                  -0.922345        0.317941
0.476                  -0.920833        0.322373
0.477                  -0.919321        0.326797
0.478                   -0.91781        0.331218
0.479                  -0.916299         0.33564
0.48                   -0.914787        0.340068
0.481                   -0.91327        0.344505
0.482                  -0.911745        0.348955
0.483                  -0.910207         0.35342
0.484                  -0.908651        0.357901
0.485                  -0.907072        0.362397
0.486                  -0.905466        0.366906
0.487                  -0.903828        0.371426
0.488                  -0.902157        0.375954
0.489                   -0.90045        0.380486
0.49                   -0.898705        0.385018
0.491                  -0.896924        0.389546
0.492                  -0.895109        0.394066
0.493                   -0.89326        0.398576
0.494                  -0.891381        0.403075
0.495                  -0.889476        0.407562
0.496                  -0.887546        0.412037
0.497                  -0.885594        0.416502
0.498                  -0.883623        0.420959
0.499                  -0.881634        0.425412
0.5                    -0.879624        0.429863
0.501                  -0.877595        0.434316
0.502                  -0.875542        0.438774
0.503                  -0.873463         0.44324
0.504                  -0.871353        0.447713
0.505                  -0.869207        0.452195
0.506                  -0.867022        0.456683
0.507                  -0.864791        0.461176
0.508                  -0.862513        0.465669
0.509                  -0.860183        0.470159
0.51                     -0.8578        0.474638
0.511                  -0.855365        0.479103
0.512                  -0.852878        0.483547
0.513                  -0.850343        0.487966
0.514                  -0.847763        0.492356
0.515                  -0.845142        0.496715
0.516                  -0.842487        0.501041
0.517                  -0.839802        0.505334
0.518                  -0.837092        0.509598
0.519                   -0.83436        0.513834
0.52                   -0.831608        0.518049
0.521                  -0.828839        0.522247
0.522                   -0.82605        0.526434
0.523                  -0.823239        0.530615
0.524                  -0.820401        0.534793
0.525                   -0.81753        0.538973
0.526                  -0.814618        0.543156
0.527                  -0.811657         0.54734
0.528                  -0.808641        0.551522
0.529                  -0.805561        0.555697
0.53                   -0.802411        0.559858
0.531                  -0.799187        0.563995
0.532                  -0.795888        0.568099
0.533                  -0.792513        0.572158
0.534                  -0.789065        0.576162
0.535                   -0.78555        0.580101
0.536                  -0.781976        0.583967
0.537                  -0.778352        0.587755
0.538                  -0.774689        0.591461
0.539                  -0.770998        0.595084
0.54                    -0.76729        0.598627
0.541                  -0.763572        0.602095
0.542                  -0.759853        0.605496
0.543                  -0.756135         0.60884
0.544                  -0.752421        0.612135
0.545                  -0.748706        0.615393
0.546                  -0.744985        0.618621
0.547                  -0.741247        0.621826
0.548                   -0.73748        0.625011
0.549                  -0.733671        0.628174
0.55                   -0.729804        0.631309
0.551                  -0.725865        0.634406
0.552                  -0.721843        0.637448
0.553                   -0.71773        0.640415
0.554                   -0.71352        0.643283
0.555                  -0.709218        0.646024
0.556                  -0.704831        0.648609
0.557                  -0.700377        0.651012
0.558                   -0.69588        0.653206
0.559                  -0.691369        0.655168
0.56                   -0.686882        0.656884
0.561                  -0.682462        0.658343
0.562                  -0.678154        0.659547
0.563                  -0.674006        0.660503
0.564                  -0.670064        0.661232
0.565                  -0.666372        0.661764
0.566                  -0.662968        0.662138
0.567                  -0.659884          0.6624
0.568                  -0.657143        0.662605
0.569                  -0.654755        0.662813
0.57                   -0.652721        0.663084
0.571                  -0.651028        0.663481
0.572                  -0.649653        0.664064
0.573                  -0.648559        0.664885
0.574                  -0.647702        0.665991
0.575                  -0.647026        0.667419
0.576                  -0.646472        0.669195
0.577                  -0.645976        0.671333
0.578                  -0.645473        0.673834
0.579                  -0.644898        0.676686
0.58                   -0.644194        0.679865
0.581                  -0.643307        0.683339
0.582                  -0.642194        0.687063
0.583                   -0.64082         0.69099
0.584                  -0.639162        0.695065
0.585                  -0.637209        0.699232
0.586                   -0.63496        0.703438
0.587                  -0.632426        0.707629
0.588                  -0.629628        0.711761
0.589                  -0.626591        0.715793
0.59                   -0.623351        0.719695
0.591                  -0.619944        0.723443
0.592                  -0.616409        0.727024
0.593                  -0.612784        0.730436
0.594                  -0.609105        0.733681
0.595                  -0.605403        0.736772
0.596                  -0.601703        0.739724
0.597                  -0.598024        0.742559
0.598                   -0.59438        0.745299
0.599                  -0.590775        0.747966
0.6                    -0.587208        0.750582
0.601                  -0.583673        0.753166
0.602                  -0.580161         0.75573
0.603                  -0.576657        0.758285
0.604                  -0.573147        0.760834
0.605                  -0.569617        0.763375
0.606                  -0.566055        0.765904
0.607                  -0.562451         0.76841
0.608                  -0.558799        0.770879
0.609                  -0.555097        0.773297
0.61                   -0.551349        0.775649
0.611                  -0.547563         0.77792
0.612                  -0.543751        0.780099
0.613                  -0.539928        0.782177
0.614                  -0.536113        0.784148
0.615                  -0.532324        0.786012
0.616                  -0.528581        0.787775
0.617                  -0.524902        0.789444
0.618                  -0.521303        0.791032
0.619                  -0.517796        0.792557
0.62                   -0.514391        0.794036
0.621                  -0.511091        0.795491
0.622                  -0.507897        0.796942
0.623                  -0.504804        0.798408
0.624                  -0.501804        0.799907
0.625                  -0.498885        0.801456
0.626                  -0.496032        0.803065
0.627                   -0.49323        0.804742
0.628                  -0.490463        0.806494
0.629                  -0.487715         0.80832
0.63                    -0.48497        0.810218
0.631                  -0.482216        0.812183
0.632                  -0.479444        0.814207
0.633                  -0.476644        0.816283
0.634                  -0.473812        0.818401
0.635                  -0.470947        0.820553
0.636                  -0.468047        0.822733
0.637                  -0.465114        0.824934
0.638                  -0.462151        0.827151
0.639                   -0.45916        0.829385
0.64                   -0.456144        0.831633
0.641                  -0.453105        0.833898
0.642                  -0.450042        0.836181
0.643                  -0.446954        0.838487
0.644                  -0.443837        0.840818
0.645                  -0.440687        0.843175
0.646                  -0.437496        0.845561
0.647                  -0.434257        0.847973
0.648                  -0.430962        0.850409
0.649                  -0.427604        0.852864
0.65                   -0.424175        0.855329
0.651                   -0.42067        0.857796
0.652                  -0.417086        0.860253
0.653                  -0.413422        0.862688
0.654                  -0.409681         0.86509
0.655                  -0.405867        0.867446
0.656                  -0.401988        0.869746
0.657                  -0.398054        0.871982
0.658                  -0.394077        0.874148
0.659                  -0.390068        0.876241
0.66                   -0.386041        0.878261
0.661                  -0.382008        0.880212
0.662                   -0.37798        0.882099
0.663                  -0.373965        0.883931
0.664                   -0.36997        0.885718
0.665                  -0.365997        0.887472
0.666                  -0.362047        0.889204
0.667                  -0.358115        0.890925
0.668                  -0.354196        0.892642
0.669                  -0.350282        0.894364
0.67                   -0.346363        0.896094
0.671                  -0.342428        0.897834
0.672                  -0.338467        0.899581
0.673                  -0.334472         0.90133
0.674                  -0.330432        0.903072
0.675                  -0.326346          0.9048
0.676                  -0.322209          0.9065
0.677                  -0.318024        0.908163
0.678                  -0.313796        0.909778
0.679                   -0.30953        0.911336
0.68                   -0.305238        0.912829
0.681                  -0.300931        0.914255
0.682                  -0.296621        0.915612
0.683                   -0.29232        0.916903
0.684                  -0.288039        0.918135
0.685                  -0.283788        0.919318
0.686                  -0.279572        0.920462
0.687                  -0.275394        0.921581
0.688                  -0.271254        0.922688
0.689                  -0.267146        0.923796
0.69                   -0.263062        0.924916
0.691                  -0.258992        0.926057
0.692                   -0.25492        0.927225
0.693                  -0.250833        0.928421
0.694                  -0.246716        0.929642
0.695                  -0.242554         0.93088
0.696                  -0.238337        0.932127
0.697                  -0.234056        0.933368
0.698                  -0.229705        0.934587
0.699                  -0.225285        0.935769
0.7                    -0.220801        0.936896
0.701                   -0.21626        0.937954
0.702                  -0.211677        0.938932
0.703                  -0.207065        0.939822
0.704                  -0.202443         0.94062
0.705                  -0.197828         0.94133
0.706                  -0.193237        0.941957
0.707                  -0.188684        0.942514
0.708                  -0.184178        0.943018
0.709                  -0.179726        0.943487
0.71                   -0.175325        0.943941
0.711                  -0.170968        0.944401
0.712                  -0.166642        0.944884
0.713                  -0.162326        0.945405
0.714                  -0.157997        0.945972
0.715                  -0.153626        0.946587
0.716                  -0.149185        0.947244
0.717                  -0.144644        0.947926
0.718                  -0.139978        0.948612
0.719                  -0.135166        0.949269
0.72                   -0.130194         0.94986
0.721                  -0.125058        0.950341
0.722                  -0.119764        0.950666
0.723                  -0.114331        0.950789
0.724                  -0.108785        0.950666
0.725                  -0.103168        0.950258
0.726                 -0.0975302        0.949536
0.727                 -0.0919297        0.948478
0.728                 -0.0864305        0.947077
0.729                 -0.0811008        0.945339
0.73                  -0.0760076        0.943285
0.731                 -0.0712143        0.940952
0.732                 -0.0667781        0.938387
0.733                 -0.0627469        0.935654
0.734                 -0.0591539        0.932825
0.735                 -0.0560192        0.929978
0.736                 -0.0533465        0.927198
0.737                 -0.0511217        0.924569
0.738                 -0.0493148         0.92217
0.739                 -0.0478787        0.920075
0.74                  -0.0467528        0.918347
0.741                 -0.0458648        0.917038
0.742                 -0.0451347        0.916181
0.743                 -0.0444751        0.915795
0.744                 -0.0437987         0.91588
0.745                 -0.0430211        0.916422
0.746                 -0.0420621        0.917385
0.747                 -0.0408508        0.918725
0.748                 -0.0393291        0.920383
0.749                 -0.0374507        0.922289
0.75                  -0.0351861        0.924372
0.751                  -0.032521        0.926554
0.752                 -0.0294542        0.928761
0.753                 -0.0260018        0.930921
0.754                 -0.0221905        0.932971
0.755                 -0.0180586        0.934854
0.756                 -0.0136513        0.936527
0.757                -0.00901987        0.937957
0.758                 -0.0042177        0.939123
0.759                0.000703634        0.940015
0.76                   0.0056929        0.940634
0.761                  0.0107055        0.940991
0.762                  0.0157019        0.941102
0.763                  0.0206525        0.940991
0.764                  0.0255318        0.940681
0.765                  0.0303244        0.940199
0.766                  0.0350215        0.939568
0.767                  0.0396187        0.938812
0.768                  0.0441165        0.937947
0.769                  0.0485175        0.936988
0.77                   0.0528257        0.935942
0.771                  0.0570436        0.934816
0.772                  0.0611718        0.933611
0.773                  0.0652077        0.932325
0.774                  0.0691454        0.930959
0.775                  0.0729738         0.92951
0.776                  0.0766794        0.927982
0.777                  0.0802452         0.92638
0.778                  0.0836523        0.924715
0.779                  0.0868824        0.923002
0.78                   0.0899183        0.921264
0.781                  0.0927453        0.919529
0.782                  0.0953552        0.917829
0.783                  0.0977443        0.916202
0.784                  0.0999178        0.914685
0.785                   0.101889        0.913318
0.786                   0.103678         0.91214
0.787                   0.105316        0.911185
0.788                    0.10684        0.910482
0.789                   0.108293        0.910053
0.79                    0.109723         0.90991
0.791                   0.111181        0.910058
0.792                   0.112716         0.91049
0.793                    0.11438        0.911188
0.794                   0.116216        0.912128
0.795                   0.118262        0.913275
0.796                   0.120551        0.914588
0.797                   0.123103        0.916021
0.798                   0.125932        0.917526
0.799                    0.12904        0.919052
0.8                     0.132418        0.920554
0.801                   0.136049        0.921987
0.802                   0.139912        0.923313
0.803                   0.143973        0.924501
0.804                     0.1482         0.92553
0.805                   0.152554        0.926384
0.806                      0.157        0.927057
0.807                   0.161501        0.927552
0.808                   0.166027        0.927878
0.809                   0.170551        0.928051
0.81                    0.175051        0.928088
0.811                   0.179514        0.928014
0.812                   0.183931        0.927849
0.813                   0.188301        0.927615
0.814                   0.192627        0.927333
0.815                    0.19692        0.927017
0.816                   0.201188         0.92668
0.817                   0.205447        0.926326
0.818                   0.209709        0.925959
0.819                   0.213987        0.925575
0.82                    0.218291        0.925167
0.821                   0.222628        0.924725
0.822                      0.227        0.924236
0.823                   0.231407         0.92369
0.824                   0.235843        0.923072
0.825                   0.240299        0.922374
0.826                   0.244763        0.921589
0.827                    0.24922        0.920712
0.828                   0.253657        0.919745
0.829                   0.258058         0.91869
0.83                    0.262409        0.917557
0.831                   0.266701        0.916356
0.832                   0.270924        0.915103
0.833                   0.275075        0.913812
0.834                   0.279154          0.9125
0.835                   0.283166        0.911181
0.836                   0.287117         0.90987
0.837                    0.29102        0.908577
0.838                   0.294886        0.907311
0.839                   0.298731        0.906074
0.84                    0.302569        0.904867
0.841                   0.306414        0.903685
0.842                   0.310277        0.902521
0.843                   0.314166        0.901365
0.844                   0.318088        0.900205
0.845                   0.322044        0.899028
0.846                   0.326031        0.897822
0.847                   0.330045        0.896575
0.848                   0.334076        0.895278
0.849                   0.338113        0.893927
0.85                    0.342144        0.892519
0.851                   0.346157        0.891055
0.852                   0.350141        0.889541
0.853                   0.354085        0.887986
0.854                   0.357984          0.8864
0.855                   0.361833        0.884798
0.856                   0.365635        0.883193
0.857                   0.369394        0.881599
0.858                   0.373118        0.880028
0.859                   0.376819        0.878488
0.86                    0.380513        0.876987
0.861                   0.384215        0.875525
0.862                   0.387942        0.874102
0.863                    0.39171        0.872709
0.864                   0.395533        0.871337
0.865                   0.399421         0.86997
0.866                   0.403382        0.868591
0.867                   0.407418        0.867183
0.868                   0.411527        0.865727
0.869                   0.415703        0.864204
0.87                    0.419933        0.862599
0.871                   0.424203        0.860901
0.872                   0.428497        0.859101
0.873                   0.432794        0.857197
0.874                   0.437078         0.85519
0.875                    0.44133        0.853088
0.876                   0.445536        0.850901
0.877                   0.449686        0.848644
0.878                   0.453773        0.846335
0.879                   0.457798        0.843991
0.88                    0.461766         0.84163
0.881                   0.465687        0.839268
0.882                   0.469575        0.836916
0.883                   0.473451        0.834582
0.884                   0.477334        0.832266
0.885                   0.481247        0.829964
0.886                   0.485212        0.827665
0.887                   0.489245        0.825348
0.888                   0.493362        0.822991
0.889                   0.497569        0.820565
0.89                    0.501868        0.818037
0.891                    0.50625        0.815375
0.892                   0.510701        0.812544
0.893                   0.515195        0.809516
0.894                     0.5197        0.806263
0.895                   0.524177        0.802768
0.896                   0.528581        0.799019
0.897                   0.532865        0.795015
0.898                   0.536979        0.790764
0.899                   0.540875        0.786286
0.9                     0.544508         0.78161
0.901                   0.547837        0.776775
0.902                   0.550831         0.77183
0.903                   0.553467        0.766828
0.904                   0.555734        0.761829
0.905                   0.557629        0.756893
0.906                   0.559165        0.752081
0.907                   0.560364        0.747453
0.908                    0.56126        0.743062
0.909                   0.561897        0.738955
0.91                    0.562326        0.735171
0.911                   0.562606        0.731737
0.912                   0.562798        0.728671
0.913                   0.562966        0.725977
0.914                   0.563175         0.72365
0.915                   0.563485        0.721671
0.916                   0.563953        0.720014
0.917                   0.564627         0.71864
0.918                   0.565553        0.717506
0.919                   0.566761        0.716559
0.92                    0.568276        0.715746
0.921                   0.570112        0.715009
0.922                   0.572272        0.714289
0.923                   0.574751        0.713531
0.924                   0.577534        0.712678
0.925                   0.580597        0.711682
0.926                    0.58391        0.710496
0.927                   0.587435        0.709082
0.928                   0.591131        0.707406
0.929                   0.594951        0.705445
0.93                    0.598846         0.70318
0.931                   0.602766        0.700601
0.932                   0.606659        0.697706
0.933                   0.610474        0.694501
0.934                   0.614162        0.690999
0.935                   0.617676        0.687219
0.936                   0.620973         0.68319
0.937                   0.624012        0.678943
0.938                    0.62676        0.674519
0.939                   0.629188        0.669961
0.94                    0.631274        0.665318
0.941                   0.633003        0.660642
0.942                   0.634369        0.655987
0.943                   0.635374        0.651409
0.944                   0.636027        0.646963
0.945                   0.636349        0.642704
0.946                   0.636367        0.638682
0.947                   0.636117        0.634946
0.948                   0.635644        0.631535
0.949                   0.634999        0.628483
0.95                    0.634237        0.625817
0.951                   0.633419        0.623551
0.952                   0.632608        0.621693
0.953                   0.631867        0.620236
0.954                   0.631258        0.619166
0.955                    0.63084        0.618457
0.956                   0.630666        0.618074
0.957                   0.630782        0.617972
0.958                   0.631227        0.618101
0.959                   0.632031        0.618404
0.96                    0.633209        0.618821
0.961                   0.634771        0.619291
0.962                   0.636712        0.619752
0.963                   0.639018        0.620145
0.964                   0.641666        0.620418
0.965                   0.644623        0.620523
0.966                    0.64785        0.620419
0.967                   0.651302        0.620077
0.968                   0.654933        0.619473
0.969                   0.658694        0.618596
0.97                    0.662536        0.617444
0.971                   0.666414        0.616022
0.972                   0.670287        0.614344
0.973                   0.674118         0.61243
0.974                   0.677879        0.610306
0.975                   0.681547        0.607999
0.976                   0.685107         0.60554
0.977                    0.68855         0.60296
0.978                   0.691876        0.600285
0.979                   0.695088        0.597543
0.98                    0.698195        0.594755
0.981                    0.70121        0.591938
0.982                   0.704146        0.589105
0.983                   0.707019        0.586263
0.984                   0.709842        0.583415
0.985                   0.712629         0.58056
0.986                    0.71539        0.577693
0.987                   0.718132        0.574807
0.988                    0.72086        0.571894
0.989                   0.723572        0.568945
0.99                    0.726267        0.565953
0.991                   0.728939         0.56291
0.992                   0.731579        0.559812
0.993                   0.734178        0.556659
0.994                   0.736726         0.55345
0.995                   0.739213         0.55019
0.996                   0.741631        0.546887
0.997                   0.743972        0.543548
0.998                   0.746231        0.540185
0.999                   0.748407        0.536811
1                       0.750499        0.533436
1.001                    0.75251        0.530073
1.002                   0.754447        0.526732
1.003                   0.756317        0.523424
1.004                   0.758129        0.520154
1.005                   0.759894        0.516927
1.006                   0.761621        0.513746
1.007                   0.763321        0.510611
1.008                   0.765004        0.507519
1.009                   0.766676        0.504466
1.01                    0.768345        0.501448
1.011                   0.770015        0.498458
1.012                   0.771687         0.49549
1.013                   0.773364        0.492539
1.014                   0.775043          0.4896
1.015                   0.776723         0.48667
1.016                   0.778401        0.483745
1.017                   0.780073        0.480826
1.018                   0.781738        0.477913
1.019                   0.783394         0.47501
1.02                    0.785038        0.472118
1.021                   0.786673        0.469242
1.022                   0.788299        0.466386
1.023                   0.789921        0.463554
1.024                   0.791544        0.460749
1.025                   0.793174        0.457972
1.026                   0.794819        0.455225
1.027                   0.796486        0.452505
1.028                   0.798182        0.449809
1.029                   0.799916        0.447133
1.03                    0.801693         0.44447
1.031                   0.803518         0.44181
1.032                   0.805394        0.439146
1.033                   0.807323        0.436467
1.034                   0.809304        0.433762
1.035                   0.811334        0.431023
1.036                   0.813408        0.428239
1.037                   0.815519        0.425405
1.038                   0.817661        0.422512
1.039                   0.819824        0.419558
1.04                       0.822         0.41654
1.041                   0.824179        0.413458
1.042                   0.826355        0.410313
1.043                   0.828519        0.407108
1.044                   0.830666        0.403849
1.045                   0.832792         0.40054
1.046                   0.834895        0.397188
1.047                   0.836975        0.393797
1.048                   0.839033        0.390374
1.049                   0.841072        0.386923
1.05                    0.843098        0.383445
1.051                   0.845115        0.379943
1.052                   0.847131        0.376415
1.053                    0.84915        0.372858
1.054                    0.85118        0.369265
1.055                   0.853224         0.36563
1.056                   0.855286        0.361943
1.057                   0.857366        0.358192
1.058                   0.859462        0.354364
1.059                   0.861571        0.350446
1.06                    0.863684        0.346424
1.061                   0.865791        0.342286
1.062                   0.867876        0.338019
1.063                   0.869923        0.333613
1.064                    0.87191        0.329061
1.065                   0.873814        0.324359
1.066                    0.87561        0.319507
1.067                   0.877271        0.314508
1.068                   0.878768        0.309374
1.069                   0.880075        0.304118
1.07                    0.881166        0.298761
1.071                   0.882017        0.293329
1.072                   0.882609        0.287854
1.073                   0.882927        0.282371
1.074                   0.882961         0.27692
1.075                    0.88271        0.271545
1.076                   0.882178        0.266291
1.077                   0.881381        0.261202
1.078                   0.880339        0.256323
1.079                   0.879085        0.251694
1.08                    0.877659        0.247353
1.081                   0.876107        0.243328
1.082                   0.874483        0.239641
1.083                   0.872847        0.236303
1.084                    0.87126        0.233314
1.085                   0.869786        0.230663
1.086                   0.868487        0.228326
1.087                    0.86742        0.226266
1.088                   0.866636        0.224434
1.089                   0.866179        0.222773
1.09                    0.866078        0.221213
1.091                   0.866352        0.219679
1.092                   0.867003        0.218094
1.093                   0.868017        0.216377
1.094                   0.869366        0.214449
1.095                   0.871003        0.212239
1.096                   0.872868        0.209683
1.097                   0.874886         0.20673
1.098                   0.876973        0.203343
1.099                   0.879035        0.199503
1.1                     0.880976        0.195209
1.101                   0.882697        0.190483
1.102                   0.884107        0.185363
1.103                   0.885118        0.179908
1.104                   0.885657        0.174194
1.105                   0.885666        0.168313
1.106                   0.885105        0.162369
1.107                   0.883954        0.156471
1.108                   0.882219        0.150733
1.109                   0.879924         0.14527
1.11                    0.877118        0.140187
1.111                   0.873871        0.135582
1.112                   0.870269        0.131536
1.113                   0.866416        0.128113
1.114                   0.862426        0.125357
1.115                   0.858418        0.123289
1.116                   0.854515        0.121904
1.117                   0.850837        0.121177
1.118                   0.847496         0.12106
1.119                   0.844591        0.121482
1.12                    0.842208         0.12236
1.121                   0.840413        0.123592
1.122                   0.839251        0.125071
1.123                   0.838746        0.126682
1.124                     0.8389        0.128311
1.125                   0.839693        0.129848
1.126                   0.841087         0.13119
1.127                   0.843025        0.132246
1.128                   0.845437        0.132941
1.129                   0.848243        0.133215
1.13                    0.851354        0.133027
1.131                   0.854681        0.132353
1.132                   0.858136        0.131188
1.133                   0.861633        0.129543
1.134                   0.865097        0.127444
1.135                   0.868461        0.124929
1.136                   0.871672        0.122046
1.137                    0.87469        0.118846
1.138                   0.877486        0.115387
1.139                   0.880048        0.111722
1.14                    0.882371        0.107906
1.141                   0.884464        0.103985
1.142                   0.886343       0.0999984
1.143                   0.888028       0.0959788
1.144                   0.889546        0.091949
1.145                   0.890921       0.0879233
1.146                   0.892178       0.0839081
1.147                   0.893339       0.0799027
1.148                    0.89442       0.0759013
1.149                   0.895433       0.0718943
1.15                    0.896384       0.0678703
1.151                   0.897271       0.0638181
1.152                   0.898089        0.059728
1.153                   0.898829       0.0555936
1.154                   0.899476       0.0514128
1.155                   0.900017        0.047188
1.156                   0.900435       0.0429273
1.157                   0.900718       0.0386434
1.158                   0.900853       0.0343535
1.159                   0.900834       0.0300786
1.16                    0.900657        0.025842
1.161                   0.900326       0.0216683
1.162                   0.899848       0.0175819
1.163                   0.899235       0.0136057
1.164                   0.898507      0.00976012
1.165                   0.897684       0.0060617
1.166                    0.89679      0.00252273
1.167                   0.895853    -0.000849417
1.168                   0.894899     -0.00405243
1.169                   0.893954     -0.00708891
1.17                    0.893043     -0.00996606
1.171                   0.892189       -0.012695
1.172                   0.891412      -0.0152901
1.173                   0.890728      -0.0177682
1.174                   0.890149      -0.0201475
1.175                   0.889685      -0.0224469
1.176                    0.88934      -0.0246855
1.177                   0.889119      -0.0268814
1.178                    0.88902      -0.0290518
1.179                   0.889043      -0.0312125
1.18                    0.889184      -0.0333777
1.181                   0.889439      -0.0355605
1.182                   0.889803      -0.0377723
1.183                   0.890271      -0.0400237
1.184                   0.890837      -0.0423246
1.185                   0.891497      -0.0446844
1.186                   0.892244      -0.0471121
1.187                   0.893072      -0.0496169
1.188                   0.893973      -0.0522075
1.189                   0.894941      -0.0548927
1.19                    0.895964      -0.0576808
1.191                   0.897033      -0.0605794
1.192                   0.898136      -0.0635951
1.193                   0.899258      -0.0667328
1.194                   0.900387      -0.0699956
1.195                   0.901506      -0.0733846
1.196                   0.902599      -0.0768979
1.197                   0.903653      -0.0805313
1.198                   0.904653      -0.0842779
1.199                   0.905586      -0.0881286
1.2                     0.906441      -0.0920718
1.201                   0.907211      -0.0960949
1.202                   0.907891       -0.100184
1.203                   0.908479       -0.104325
1.204                   0.908975       -0.108505
1.205                   0.909384       -0.112712
1.206                   0.909711       -0.116935
1.207                   0.909963       -0.121166
1.208                    0.91015       -0.125401
1.209                   0.910281       -0.129638
1.21                    0.910363       -0.133875
1.211                   0.910404       -0.138117
1.212                   0.910409       -0.142368
1.213                   0.910381       -0.146634
1.214                   0.910321       -0.150921
1.215                   0.910227       -0.155236
1.216                   0.910094       -0.159585
1.217                   0.909917       -0.163969
1.218                   0.909688       -0.168392
1.219                   0.909399       -0.172852
1.22                    0.909044       -0.177347
1.221                   0.908616        -0.18187
1.222                   0.908111       -0.186415
1.223                   0.907526       -0.190973
1.224                   0.906862       -0.195536
1.225                   0.906123       -0.200096
1.226                   0.905314       -0.204648
1.227                   0.904441       -0.209188
1.228                   0.903515       -0.213714
1.229                   0.902543       -0.218231
1.23                    0.901532       -0.222744
1.231                   0.900487       -0.227264
1.232                    0.89941       -0.231803
1.233                   0.898297       -0.236376
1.234                    0.89714       -0.240997
1.235                   0.895924        -0.24568
1.236                   0.894629       -0.250435
1.237                    0.89323       -0.255268
1.238                   0.891699        -0.26018
1.239                   0.890004       -0.265161
1.24                    0.888113       -0.270195
1.241                   0.885997       -0.275257
1.242                   0.883629       -0.280312
1.243                   0.880991       -0.285317
1.244                   0.878073       -0.290222
1.245                   0.874875       -0.294973
1.246                   0.871412       -0.299514
1.247                    0.86771       -0.303787
1.248                    0.86381       -0.307743
1.249                   0.859765       -0.311337
1.25                    0.855639       -0.314536
1.251                   0.851507        -0.31732
1.252                   0.847446       -0.319686
1.253                    0.84354       -0.321648
1.254                   0.839866       -0.323238
1.255                   0.836497       -0.324507
1.256                   0.833496       -0.325523
1.257                   0.830911       -0.326366
1.258                    0.82877       -0.327129
1.259                   0.827082       -0.327913
1.26                    0.825833       -0.328818
1.261                   0.824987       -0.329943
1.262                   0.824484       -0.331378
1.263                   0.824245         -0.3332
1.264                   0.824174       -0.335468
1.265                   0.824159       -0.338219
1.266                   0.824083       -0.341463
1.267                   0.823825       -0.345185
1.268                   0.823271       -0.349342
1.269                   0.822311       -0.353866
1.27                    0.820857       -0.358665
1.271                    0.81884       -0.363624
1.272                   0.816214       -0.368617
1.273                   0.812965       -0.373508
1.274                   0.809109       -0.378157
1.275                    0.80469       -0.382429
1.276                   0.799784         -0.3862
1.277                   0.794491       -0.389364
1.278                   0.788935       -0.391837
1.279                   0.783255       -0.393562
1.28                      0.7776       -0.394514
1.281                   0.772123       -0.394698
1.282                   0.766974       -0.394151
1.283                   0.762291       -0.392942
1.284                   0.758197       -0.391166
1.285                   0.754792       -0.388941
1.286                   0.752149       -0.386403
1.287                   0.750313       -0.383699
1.288                   0.749295        -0.38098
1.289                    0.74908       -0.378398
1.29                    0.749619       -0.376094
1.291                    0.75084       -0.374194
1.292                   0.752647       -0.372807
1.293                   0.754926       -0.372016
1.294                   0.757554       -0.371881
1.295                   0.760399       -0.372432
1.296                   0.763332       -0.373674
1.297                    0.76623       -0.375584
1.298                    0.76898        -0.37812
1.299                   0.771487       -0.381216
1.3                     0.773673       -0.384795
1.301                   0.775482        -0.38877
1.302                   0.776878       -0.393048
1.303                   0.777847       -0.397539
1.304                   0.778395       -0.402156
1.305                   0.778543       -0.406824
1.306                   0.778327       -0.411476
1.307                   0.777789       -0.416064
1.308                   0.776979       -0.420552
1.309                   0.775947        -0.42492
1.31                     0.77474       -0.429161
1.311                     0.7734       -0.433282
1.312                   0.771958       -0.437295
1.313                   0.770438       -0.441222
1.314                   0.768852       -0.445085
1.315                     0.7672       -0.448905
1.316                   0.765476       -0.452702
1.317                   0.763664       -0.456485
1.318                   0.761745        -0.46026
1.319                   0.759695        -0.46402
1.32                    0.757496        -0.46775
1.321                   0.755128       -0.471426
1.322                   0.752581       -0.475017
1.323                   0.749853       -0.478486
1.324                   0.746951       -0.481793
1.325                   0.743893       -0.484899
1.326                   0.740708       -0.487766
1.327                   0.737435       -0.490363
1.328                   0.734119       -0.492667
1.329                   0.730814       -0.494664
1.33                    0.727577       -0.496354
1.331                   0.724463       -0.497746
1.332                   0.721528       -0.498864
1.333                   0.718821       -0.499741
1.334                   0.716383       -0.500422
1.335                   0.714248       -0.500958
1.336                   0.712434       -0.501407
1.337                   0.710952       -0.501829
1.338                   0.709796       -0.502284
1.339                   0.708952       -0.502829
1.34                    0.708393       -0.503515
1.341                   0.708084       -0.504387
1.342                   0.707983       -0.505479
1.343                   0.708043       -0.506816
1.344                   0.708216       -0.508414
1.345                   0.708455       -0.510275
1.346                   0.708713       -0.512396
1.347                   0.708949       -0.514763
1.348                    0.70913       -0.517356
1.349                   0.709227        -0.52015
1.35                    0.709219       -0.523119
1.351                   0.709094       -0.526234
1.352                   0.708844        -0.52947
1.353                    0.70847       -0.532801
1.354                   0.707973       -0.536206
1.355                   0.707363       -0.539669
1.356                   0.706645       -0.543179
1.357                    0.70583       -0.546725
1.358                   0.704925       -0.550305
1.359                   0.703935       -0.553918
1.36                    0.702864       -0.557562
1.361                   0.701711        -0.56124
1.362                   0.700476       -0.564952
1.363                   0.699153       -0.568697
1.364                   0.697736       -0.572472
1.365                    0.69622       -0.576274
1.366                   0.694597       -0.580092
1.367                   0.692864       -0.583918
1.368                   0.691018       -0.587738
1.369                   0.689058       -0.591539
1.37                     0.68699       -0.595307
1.371                    0.68482       -0.599028
1.372                   0.682559       -0.602691
1.373                   0.680219       -0.606287
1.374                   0.677816       -0.609811
1.375                   0.675366       -0.613259
1.376                   0.672885       -0.616636
1.377                   0.670385       -0.619947
1.378                   0.667881       -0.623203
1.379                    0.66538       -0.626415
1.38                    0.662887       -0.629597
1.381                   0.660402       -0.632766
1.382                   0.657922       -0.635934
1.383                   0.655437       -0.639113
1.384                   0.652938       -0.642313
1.385                   0.650411       -0.645539
1.386                   0.647841       -0.648791
1.387                   0.645214       -0.652067
1.388                   0.642517       -0.655358
1.389                    0.63974       -0.658653
1.39                    0.636878       -0.661938
1.391                   0.633927       -0.665197
1.392                   0.630891       -0.668416
1.393                   0.627778       -0.671579
1.394                   0.624598       -0.674676
1.395                   0.621367       -0.677698
1.396                     0.6181       -0.680645
1.397                   0.614815       -0.683517
1.398                   0.611526       -0.686324
1.399                   0.608246       -0.689078
1.4                     0.604983       -0.691797
1.401                   0.601738       -0.694501
1.402                   0.598506       -0.697209
1.403                   0.595275       -0.699941
1.404                   0.592028       -0.702714
1.405                    0.58874       -0.705538
1.406                   0.585381       -0.708417
1.407                    0.58192       -0.711348
1.408                   0.578327       -0.714316
1.409                    0.57457       -0.717298
1.41                    0.570626       -0.720263
1.411                   0.566477       -0.723169
1.412                   0.562115       -0.725971
1.413                   0.557546       -0.728618
1.414                   0.552786        -0.73106
1.415                   0.547863       -0.733249
1.416                   0.542821       -0.735141
1.417                   0.537712       -0.736704
1.418                     0.5326       -0.737916
1.419                   0.527552       -0.738771
1.42                    0.522641       -0.739277
1.421                   0.517935       -0.739461
1.422                   0.513499       -0.739363
1.423                   0.509388       -0.739043
1.424                   0.505645       -0.738569
1.425                   0.502295       -0.738023
1.426                   0.499345       -0.737491
1.427                   0.496782        -0.73706
1.428                   0.494573       -0.736816
1.429                   0.492666       -0.736833
1.43                    0.490989       -0.737176
1.431                   0.489459       -0.737892
1.432                   0.487981       -0.739008
1.433                   0.486453       -0.740527
1.434                   0.484776        -0.74243
1.435                   0.482854       -0.744676
1.436                   0.480602       -0.747199
1.437                   0.477952       -0.749915
1.438                   0.474854       -0.752727
1.439                   0.471284       -0.755523
1.44                    0.467241       -0.758191
1.441                   0.462752       -0.760617
1.442                   0.457868       -0.762694
1.443                   0.452665       -0.764331
1.444                   0.447238        -0.76545
1.445                   0.441699          -0.766
1.446                   0.436169       -0.765953
1.447                   0.430775       -0.765308
1.448                   0.425641       -0.764093
1.449                   0.420883        -0.76236
1.45                    0.416605       -0.760188
1.451                   0.412891       -0.757676
1.452                   0.409803       -0.754937
1.453                   0.407378       -0.752096
1.454                   0.405625       -0.749283
1.455                   0.404526       -0.746625
1.456                   0.404039       -0.744245
1.457                   0.404096       -0.742249
1.458                   0.404611       -0.740729
1.459                    0.40548       -0.739756
1.46                    0.406593       -0.739375
1.461                   0.407832        -0.73961
1.462                   0.409079       -0.740458
1.463                   0.410225       -0.741895
1.464                   0.411169       -0.743874
1.465                   0.411826       -0.746332
1.466                   0.412128       -0.749192
1.467                   0.412026        -0.75237
1.468                   0.411492       -0.755777
1.469                   0.410517       -0.759324
1.47                    0.409108        -0.76293
1.471                   0.407291       -0.766518
1.472                   0.405102       -0.770028
1.473                   0.402586       -0.773408
1.474                   0.399794       -0.776623
1.475                   0.396777       -0.779653
1.476                   0.393585       -0.782488
1.477                   0.390261       -0.785132
1.478                   0.386843       -0.787595
1.479                   0.383357       -0.789896
1.48                    0.379822       -0.792055
1.481                   0.376246        -0.79409
1.482                   0.372631       -0.796021
1.483                   0.368969       -0.797858
1.484                    0.36525       -0.799607
1.485                   0.361461       -0.801265
1.486                   0.357592       -0.802822
1.487                   0.353632       -0.804261
1.488                   0.349581       -0.805557
1.489                   0.345441       -0.806683
1.49                    0.341227       -0.807609
1.491                   0.336962       -0.808307
1.492                   0.332676       -0.808752
1.493                   0.328411       -0.808923
1.494                   0.324212        -0.80881
1.495                   0.320131       -0.808412
1.496                    0.31622        -0.80774
1.497                   0.312532       -0.806814
1.498                   0.309115       -0.805669
1.499                   0.306012       -0.804349
1.5                     0.303255       -0.802906
1.501                   0.300868       -0.801401
1.502                   0.298861       -0.799897
1.503                   0.297231       -0.798461
1.504                   0.295962       -0.797157
1.505                   0.295028       -0.796044
1.506                   0.294389       -0.795176
1.507                   0.293996       -0.794597
1.508                   0.293796       -0.794341
1.509                   0.293727        -0.79443
1.51                     0.29373       -0.794872
1.511                   0.293743       -0.795667
1.512                    0.29371         -0.7968
1.513                    0.29358       -0.798248
1.514                    0.29331       -0.799978
1.515                   0.292864       -0.801955
1.516                   0.292216       -0.804137
1.517                   0.291352        -0.80648
1.518                   0.290262       -0.808943
1.519                    0.28895       -0.811486
1.52                    0.287423       -0.814075
1.521                   0.285694       -0.816678
1.522                   0.283782       -0.819272
1.523                   0.281705       -0.821838
1.524                   0.279484       -0.824365
1.525                   0.277137       -0.826845
1.526                   0.274682       -0.829276
1.527                   0.272132       -0.831659
1.528                   0.269498       -0.833997
1.529                   0.266788       -0.836295
1.53                    0.264005       -0.838556
1.531                   0.261152       -0.840784
1.532                   0.258228       -0.842979
1.533                   0.255231       -0.845142
1.534                    0.25216       -0.847269
1.535                   0.249014       -0.849357
1.536                   0.245793       -0.851397
1.537                     0.2425       -0.853385
1.538                   0.239138       -0.855311
1.539                   0.235715       -0.857169
1.54                    0.232239       -0.858954
1.541                    0.22872       -0.860662
1.542                   0.225168       -0.862292
1.543                   0.221596       -0.863845
1.544                   0.218012       -0.865324
1.545                   0.214427       -0.866737
1.546                   0.210846        -0.86809
1.547                   0.207275       -0.869394
1.548                   0.203716       -0.870659
1.549                   0.200168       -0.871894
1.55                    0.196626       -0.873107
1.551                   0.193086       -0.874307
1.552                    0.18954       -0.875497
1.553                   0.185979       -0.876679
1.554                   0.182395       -0.877852
1.555                   0.178782       -0.879014
1.556                   0.175133       -0.880159
1.557                   0.171444       -0.881279
1.558                   0.167714       -0.882366
1.559                   0.163945       -0.883413
1.56                     0.16014       -0.884411
1.561                   0.156308       -0.885355
1.562                   0.152454       -0.886242
1.563                   0.148589       -0.887072
1.564                    0.14472       -0.887846
1.565                   0.140856       -0.888571
1.566                   0.137002       -0.889255
1.567                   0.133161       -0.889907
1.568                   0.129331       -0.890539
1.569                   0.125508       -0.891162
1.57                    0.121682       -0.891784
1.571                   0.117841       -0.892414
1.572                    0.11397       -0.893055
1.573                    0.11005       -0.893704
1.574                   0.106065       -0.894355
1.575                   0.101996       -0.894996
1.576                  0.0978289       -0.895608
1.577                  0.0935535       -0.896169
1.578                  0.0891647       -0.896651
1.579                  0.0846645       -0.897025
1.58                   0.0800615       -0.897259
1.581                  0.0753734       -0.897326
1.582                  0.0706253       -0.897197
1.583                  0.0658496       -0.896853
1.584                  0.0610837       -0.896278
1.585                  0.0563701       -0.895468
1.586                  0.0517539       -0.894426
1.587                  0.0472786       -0.893167
1.588                  0.0429856       -0.891717
1.589                  0.0389111       -0.890109
1.59                   0.0350829       -0.888387
1.591                  0.0315194       -0.886601
1.592                  0.0282276       -0.884804
1.593                  0.0252022       -0.883052
1.594                  0.0224248       -0.881399
1.595                  0.0198646       -0.879893
1.596                  0.0174801       -0.878577
1.597                  0.0152205       -0.877481
1.598                  0.0130276       -0.876626
1.599                  0.0108397       -0.876017
1.6                   0.00859457       -0.875644
1.601                 0.00623293       -0.875484
1.602                 0.00370177       -0.875499
1.603                0.000958297        -0.87564
1.604                -0.00202946       -0.875846
1.605                -0.00527756       -0.876053
1.606                 -0.0087865        -0.87619
1.607                  -0.012541       -0.876189
1.608                 -0.0165093       -0.875987
1.609                 -0.0206447       -0.875526
1.61                  -0.0248889       -0.874761
1.611                 -0.0291722       -0.873662
1.612                 -0.0334204       -0.872215
1.613                  -0.037555       -0.870421
1.614                 -0.0415005       -0.868301
1.615                 -0.0451854       -0.865892
1.616                  -0.048548       -0.863245
1.617                 -0.0515387       -0.860426
1.618                 -0.0541226       -0.857508
1.619                 -0.0562819       -0.854574
1.62                  -0.0580159       -0.851705
1.621                 -0.0593418       -0.848985
1.622                 -0.0602933       -0.846489
1.623                 -0.0609194       -0.844284
1.624                 -0.0612818       -0.842426
1.625                 -0.0614515       -0.840957
1.626                 -0.0615058       -0.839902
1.627                 -0.0615246       -0.839269
1.628                 -0.0615862       -0.839051
1.629                  -0.061765       -0.839226
1.63                  -0.0621266       -0.839757
1.631                 -0.0627274       -0.840596
1.632                 -0.0636107       -0.841688
1.633                 -0.0648069        -0.84297
1.634                 -0.0663326       -0.844379
1.635                 -0.0681918       -0.845852
1.636                  -0.070375        -0.84733
1.637                 -0.0728639       -0.848759
1.638                 -0.0756301       -0.850095
1.639                 -0.0786409       -0.851302
1.64                  -0.0818591       -0.852352
1.641                 -0.0852472       -0.853228
1.642                 -0.0887692       -0.853923
1.643                 -0.0923915       -0.854434
1.644                 -0.0960861       -0.854766
1.645                 -0.0998294       -0.854928
1.646                  -0.103605        -0.85493
1.647                  -0.107401       -0.854781
1.648                  -0.111209       -0.854491
1.649                  -0.115027       -0.854065
1.65                   -0.118854       -0.853505
1.651                  -0.122686       -0.852808
1.652                  -0.126523       -0.851967
1.653                  -0.130357       -0.850974
1.654                  -0.134181       -0.849817
1.655                  -0.137977       -0.848481
1.656                  -0.141726       -0.846956
1.657                  -0.145401       -0.845233
1.658                  -0.148972       -0.843307
1.659                  -0.152402        -0.84118
1.66                   -0.155655       -0.838861
1.661                  -0.158692       -0.836368
1.662                  -0.161477       -0.833728
1.663                  -0.163979       -0.830975
1.664                  -0.166169       -0.828151
1.665                  -0.168029       -0.825306
1.666                   -0.16955       -0.822495
1.667                  -0.170733       -0.819772
1.668                  -0.171589       -0.817196
1.669                  -0.172142        -0.81482
1.67                   -0.172426       -0.812694
1.671                  -0.172484       -0.810863
1.672                  -0.172366       -0.809359
1.673                  -0.172131       -0.808206
1.674                  -0.171836       -0.807418
1.675                  -0.171544       -0.806995
1.676                  -0.171312       -0.806926
1.677                  -0.171197        -0.80719
1.678                  -0.171247       -0.807755
1.679                  -0.171502       -0.808584
1.68                   -0.171993        -0.80963
1.681                  -0.172742       -0.810848
1.682                   -0.17376       -0.812187
1.683                  -0.175047       -0.813601
1.684                  -0.176595       -0.815045
1.685                  -0.178391        -0.81648
1.686                  -0.180411       -0.817874
1.687                   -0.18263         -0.8192
1.688                  -0.185021       -0.820441
1.689                  -0.187556       -0.821586
1.69                   -0.190208        -0.82263
1.691                  -0.192955       -0.823577
1.692                  -0.195776       -0.824431
1.693                  -0.198658       -0.825202
1.694                   -0.20159         -0.8259
1.695                  -0.204569       -0.826535
1.696                  -0.207594       -0.827117
1.697                  -0.210668        -0.82765
1.698                  -0.213796       -0.828137
1.699                  -0.216984       -0.828578
1.7                    -0.220238       -0.828967
1.701                  -0.223561       -0.829296
1.702                  -0.226956       -0.829553
1.703                  -0.230418       -0.829725
1.704                  -0.233944       -0.829799
1.705                   -0.23752       -0.829762
1.706                  -0.241134       -0.829602
1.707                  -0.244766       -0.829311
1.708                  -0.248396       -0.828887
1.709                  -0.252003       -0.828328
1.71                   -0.255565       -0.827642
1.711                   -0.25906       -0.826839
1.712                  -0.262471       -0.825934
1.713                  -0.265781       -0.824948
1.714                  -0.268982       -0.823901
1.715                  -0.272069       -0.822819
1.716                  -0.275042       -0.821726
1.717                  -0.277907       -0.820645
1.718                  -0.280674       -0.819598
1.719                  -0.283359       -0.818604
1.72                    -0.28598       -0.817676
1.721                  -0.288559       -0.816823
1.722                  -0.291116       -0.816049
1.723                  -0.293673       -0.815353
1.724                  -0.296248        -0.81473
1.725                  -0.298859        -0.81417
1.726                  -0.301518        -0.81366
1.727                  -0.304234       -0.813186
1.728                  -0.307013       -0.812732
1.729                  -0.309854       -0.812285
1.73                   -0.312756       -0.811831
1.731                  -0.315712        -0.81136
1.732                  -0.318716       -0.810864
1.733                  -0.321758        -0.81034
1.734                   -0.32483       -0.809786
1.735                  -0.327927       -0.809204
1.736                  -0.331045         -0.8086
1.737                   -0.33418       -0.807978
1.738                  -0.337335       -0.807345
1.739                  -0.340517       -0.806706
1.74                   -0.343732       -0.806065
1.741                  -0.346991       -0.805422
1.742                  -0.350306       -0.804774
1.743                  -0.353689       -0.804113
1.744                  -0.357152       -0.803427
1.745                  -0.360702       -0.802701
1.746                  -0.364344       -0.801914
1.747                  -0.368079       -0.801043
1.748                    -0.3719       -0.800067
1.749                  -0.375796       -0.798961
1.75                   -0.379749       -0.797704
1.751                  -0.383733       -0.796278
1.752                  -0.387722       -0.794671
1.753                  -0.391681       -0.792876
1.754                  -0.395577       -0.790896
1.755                  -0.399373        -0.78874
1.756                  -0.403039       -0.786425
1.757                  -0.406543       -0.783978
1.758                  -0.409863       -0.781431
1.759                  -0.412984       -0.778822
1.76                   -0.415898       -0.776194
1.761                  -0.418609       -0.773589
1.762                  -0.421131       -0.771049
1.763                  -0.423486       -0.768613
1.764                  -0.425706       -0.766313
1.765                  -0.427831       -0.764176
1.766                  -0.429907       -0.762215
1.767                  -0.431981       -0.760436
1.768                  -0.434103        -0.75883
1.769                  -0.436319       -0.757378
1.77                   -0.438672       -0.756051
1.771                  -0.441195       -0.754807
1.772                  -0.443912       -0.753599
1.773                  -0.446835       -0.752374
1.774                  -0.449965       -0.751076
1.775                  -0.453287       -0.749649
1.776                  -0.456776       -0.748042
1.777                  -0.460393       -0.746208
1.778                   -0.46409       -0.744111
1.779                  -0.467809       -0.741726
1.78                   -0.471489        -0.73904
1.781                  -0.475065       -0.736056
1.782                  -0.478473        -0.73279
1.783                  -0.481655        -0.72927
1.784                  -0.484557        -0.72554
1.785                  -0.487137       -0.721653
1.786                  -0.489365        -0.71767
1.787                  -0.491221       -0.713659
1.788                  -0.492704       -0.709689
1.789                  -0.493824        -0.70583
1.79                   -0.494607       -0.702148
1.791                   -0.49509         -0.6987
1.792                  -0.495323       -0.695539
1.793                  -0.495362       -0.692702
1.794                  -0.495272       -0.690217
1.795                   -0.49512       -0.688097
1.796                  -0.494972       -0.686343
1.797                  -0.494896       -0.684941
1.798                  -0.494951       -0.683867
1.799                  -0.495191       -0.683087
1.8                     -0.49566       -0.682555
1.801                  -0.496395       -0.682223
1.802                  -0.497419       -0.682037
1.803                  -0.498746        -0.68194
1.804                  -0.500381       -0.681878
1.805                  -0.502316       -0.681796
1.806                  -0.504537       -0.681646
1.807                  -0.507022       -0.681383
1.808                  -0.509744       -0.680969
1.809                  -0.512671       -0.680373
1.81                   -0.515767       -0.679569
1.811                  -0.518997       -0.678537
1.812                  -0.522325       -0.677265
1.813                  -0.525713       -0.675745
1.814                  -0.529128       -0.673973
1.815                  -0.532535        -0.67195
1.816                  -0.535901        -0.66968
1.817                  -0.539195       -0.667171
1.818                  -0.542388        -0.66443
1.819                  -0.545451       -0.661472
1.82                   -0.548356        -0.65831
1.821                  -0.551075       -0.654962
1.822                  -0.553583       -0.651449
1.823                  -0.555855       -0.647795
1.824                  -0.557868       -0.644028
1.825                  -0.559603        -0.64018
1.826                  -0.561042       -0.636287
1.827                  -0.562174       -0.632389
1.828                  -0.562991       -0.628529
1.829                  -0.563494       -0.624752
1.83                   -0.563689       -0.621107
1.831                   -0.56359        -0.61764
1.832                  -0.563222       -0.614397
1.833                  -0.562616       -0.611421
1.834                  -0.561809       -0.608751
1.835                   -0.56085       -0.606419
1.836                  -0.559791       -0.604448
1.837                  -0.558687       -0.602854
1.838                  -0.557599       -0.601641
1.839                  -0.556586       -0.600803
1.84                   -0.555706       -0.600323
1.841                  -0.555015       -0.600175
1.842                  -0.554559       -0.600322
1.843                  -0.554381       -0.600721
1.844                  -0.554512       -0.601319
1.845                  -0.554975       -0.602062
1.846                  -0.555778       -0.602894
1.847                  -0.556923       -0.603758
1.848                    -0.5584       -0.604599
1.849                  -0.560188       -0.605369
1.85                   -0.562261       -0.606023
1.851                  -0.564583       -0.606526
1.852                  -0.567116       -0.606852
1.853                  -0.569821       -0.606982
1.854                  -0.572655       -0.606908
1.855                  -0.575582       -0.606628
1.856                  -0.578565       -0.606149
1.857                  -0.581574       -0.605483
1.858                  -0.584584       -0.604648
1.859                  -0.587579       -0.603663
1.86                   -0.590544       -0.602547
1.861                  -0.593476        -0.60132
1.862                  -0.596373       -0.599999
1.863                  -0.599238       -0.598598
1.864                  -0.602078       -0.597125
1.865                    -0.6049       -0.595585
1.866                  -0.607709       -0.593978
1.867                  -0.610511       -0.592301
1.868                  -0.613308       -0.590545
1.869                  -0.616096       -0.588704
1.87                    -0.61887       -0.586767
1.871                  -0.621619       -0.584726
1.872                  -0.624328       -0.582574
1.873                  -0.626977       -0.580309
1.874                  -0.629545       -0.577934
1.875                  -0.632012       -0.575456
1.876                  -0.634354       -0.572889
1.877                  -0.636553       -0.570251
1.878                  -0.638594       -0.567567
1.879                  -0.640464       -0.564866
1.88                    -0.64216        -0.56218
1.881                  -0.643684       -0.559543
1.882                  -0.645045       -0.556986
1.883                   -0.64626       -0.554544
1.884                  -0.647353       -0.552242
1.885                  -0.648352       -0.550104
1.886                  -0.649292       -0.548146
1.887                   -0.65021       -0.546377
1.888                  -0.651143       -0.544799
1.889                  -0.652129       -0.543406
1.89                   -0.653203       -0.542182
1.891                  -0.654396       -0.541108
1.892                  -0.655733       -0.540156
1.893                  -0.657233       -0.539297
1.894                  -0.658909       -0.538498
1.895                  -0.660765       -0.537726
1.896                  -0.662799       -0.536948
1.897                  -0.665003       -0.536134
1.898                  -0.667362        -0.53526
1.899                   -0.66986       -0.534304
1.9                    -0.672476       -0.533251
1.901                  -0.675189       -0.532091
1.902                  -0.677979       -0.530821
1.903                  -0.680826       -0.529441
1.904                  -0.683716       -0.527955
1.905                  -0.686637       -0.526371
1.906                  -0.689582       -0.524698
1.907                  -0.692548       -0.522943
1.908                  -0.695536       -0.521114
1.909                   -0.69855       -0.519215
1.91                   -0.701597       -0.517246
1.911                  -0.704684       -0.515203
1.912                  -0.707817        -0.51308
1.913                  -0.711001       -0.510864
1.914                  -0.714237       -0.508539
1.915                  -0.717523       -0.506089
1.916                  -0.720849       -0.503494
1.917                  -0.724203       -0.500735
1.918                  -0.727564       -0.497797
1.919                  -0.730908       -0.494666
1.92                   -0.734206       -0.491335
1.921                  -0.737427       -0.487801
1.922                  -0.740537        -0.48407
1.923                  -0.743504       -0.480154
1.924                  -0.746296       -0.476074
1.925                  -0.748888       -0.471856
1.926                  -0.751258       -0.467533
1.927                  -0.753393       -0.463143
1.928                  -0.755288       -0.458724
1.929                  -0.756945       -0.454316
1.93                   -0.758377       -0.449961
1.931                  -0.759604       -0.445691
1.932                  -0.760653       -0.441538
1.933                  -0.761558       -0.437523
1.934                  -0.762358       -0.433661
1.935                   -0.76309       -0.429957
1.936                  -0.763796       -0.426406
1.937                   -0.76451       -0.422994
1.938                  -0.765264       -0.419698
1.939                  -0.766084       -0.416489
1.94                   -0.766984       -0.413333
1.941                  -0.767973       -0.410191
1.942                  -0.769046       -0.407026
1.943                   -0.77019       -0.403802
1.944                  -0.771382       -0.400486
1.945                  -0.772592       -0.397052
1.946                  -0.773783       -0.393485
1.947                  -0.774913       -0.389777
1.948                  -0.775939       -0.385931
1.949                  -0.776819       -0.381961
1.95                   -0.777516       -0.377892
1.951                  -0.777996       -0.373758
1.952                  -0.778235       -0.369601
1.953                  -0.778217       -0.365468
1.954                   -0.77794       -0.361412
1.955                   -0.77741       -0.357485
1.956                  -0.776648       -0.353737
1.957                  -0.775683       -0.350215
1.958                  -0.774557       -0.346958
1.959                  -0.773318       -0.343996
1.96                   -0.772021       -0.341351
1.961                  -0.770724        -0.33903
1.962                  -0.769487       -0.337031
1.963                  -0.768368       -0.335338
1.964                  -0.767421       -0.333922
1.965                  -0.766693       -0.332748
1.966                  -0.766224        -0.33177
1.967                  -0.766043       -0.330933
1.968                  -0.766167       -0.330182
1.969                  -0.766604       -0.329458
1.97                   -0.767349       -0.328701
1.971                  -0.768385       -0.327857
1.972                  -0.769687       -0.326874
1.973                   -0.77122       -0.325708
1.974                  -0.772943       -0.324323
1.975                  -0.774809       -0.322691
1.976                  -0.776769       -0.320795
1.977                  -0.778772       -0.318627
1.978                  -0.780767       -0.316189
1.979                  -0.782709       -0.313489
1.98                   -0.784553       -0.310546
1.981                   -0.78626       -0.307383
1.982                  -0.787797       -0.304032
1.983                  -0.789139       -0.300524
1.984                  -0.790265       -0.296896
1.985                  -0.791163       -0.293185
1.986                  -0.791825        -0.28943
1.987                   -0.79225       -0.285666
1.988                  -0.792443       -0.281929
1.989                  -0.792412       -0.278253
1.99                   -0.792172       -0.274667
1.991                  -0.791738         -0.2712
1.992                   -0.79113       -0.267875
1.993                  -0.790369       -0.264715
1.994                  -0.789482       -0.261737
1.995                  -0.788491       -0.258956
1.996                  -0.787426       -0.256384
1.997                  -0.786313       -0.254028
1.998                  -0.785181       -0.251894
1.999                   -0.78406       -0.249982
2                      -0.782979        -0.24829
