! TOUCHSTONE file generated by CST MICROWAVE STUDIO
! Date and time: Sun Aug  2 11:33:44 2026
! Project name: Sonda-Coaxial_21mm_DisifixB_v2_Agua_Dest.cst
! Parameters = {h_recipiente=20; l_conector=50; r_arandela=35; r_ext=10.5; r_int=3; r_recipiente=100; z_recipiente=-50}
! Header version: 2018
! Port assignment regex: !\s*Touchstone port\s*([0-9]+)\s*=\s*(CST MWS port|CST DS port)\s*([0-9]+|Zmin|Zmax)\s*\(\"(.*)\"\)(\s*mode\s*([0-9]+))?.*
! Touchstone port assignment:
! Touchstone port 1 = CST MWS port 1 ("")
# GHz S RI R 50
0.001                   0.997674     -0.00971501
0.002                    0.99758      -0.0194352
0.003                   0.997421      -0.0291655
0.004                   0.997194      -0.0389105
0.005                   0.996896      -0.0486739
0.006                   0.996521      -0.0584591
0.007                   0.996066       -0.068268
0.008                   0.995524      -0.0781019
0.009                   0.994888      -0.0879608
0.01                    0.994154      -0.0978434
0.011                   0.993315       -0.107748
0.012                   0.992365        -0.11767
0.013                   0.991301       -0.127606
0.014                   0.990117       -0.137551
0.015                    0.98881       -0.147499
0.016                   0.987378       -0.157443
0.017                   0.985819       -0.167377
0.018                   0.984135       -0.177293
0.019                   0.982324       -0.187186
0.02                     0.98039       -0.197049
0.021                   0.978336       -0.206876
0.022                   0.976165       -0.216661
0.023                   0.973881       -0.226401
0.024                    0.97149        -0.23609
0.025                   0.968997       -0.245728
0.026                   0.966407       -0.255313
0.027                   0.963726       -0.264843
0.028                   0.960959       -0.274319
0.029                   0.958111       -0.283742
0.03                    0.955186       -0.293115
0.031                   0.952188        -0.30244
0.032                   0.949118        -0.31172
0.033                    0.94598       -0.320959
0.034                   0.942773       -0.330159
0.035                   0.939499       -0.339325
0.036                   0.936156        -0.34846
0.037                   0.932742       -0.357566
0.038                   0.929255       -0.366646
0.039                   0.925693       -0.375701
0.04                    0.922052       -0.384733
0.041                   0.918329       -0.393741
0.042                   0.914521       -0.402725
0.043                   0.910624       -0.411683
0.044                   0.906635       -0.420613
0.045                   0.902551       -0.429512
0.046                    0.89837       -0.438376
0.047                   0.894091       -0.447201
0.048                   0.889712       -0.455984
0.049                   0.885235       -0.464719
0.05                    0.880658       -0.473401
0.051                   0.875985       -0.482027
0.052                   0.871217       -0.490592
0.053                   0.866357       -0.499092
0.054                   0.861408       -0.507525
0.055                   0.856374       -0.515888
0.056                   0.851259       -0.524178
0.057                   0.846067       -0.532394
0.058                   0.840803       -0.540537
0.059                   0.835471       -0.548605
0.06                    0.830073       -0.556601
0.061                   0.824615       -0.564525
0.062                   0.819097       -0.572378
0.063                   0.813524       -0.580165
0.064                   0.807896       -0.587886
0.065                   0.802214       -0.595544
0.066                   0.796479       -0.603142
0.067                   0.790691       -0.610682
0.068                   0.784849       -0.618165
0.069                   0.778952       -0.625595
0.07                    0.772998       -0.632971
0.071                   0.766985       -0.640294
0.072                   0.760912       -0.647564
0.073                   0.754776       -0.654781
0.074                   0.748575       -0.661944
0.075                   0.742308       -0.669051
0.076                   0.735973       -0.676099
0.077                    0.72957       -0.683087
0.078                   0.723097       -0.690011
0.079                   0.716555       -0.696868
0.08                    0.709945       -0.703656
0.081                   0.703267        -0.71037
0.082                   0.696523       -0.717009
0.083                   0.689716       -0.723569
0.084                   0.682848       -0.730048
0.085                   0.675922       -0.736444
0.086                   0.668941       -0.742755
0.087                   0.661909       -0.748982
0.088                   0.654829       -0.755122
0.089                   0.647705       -0.761178
0.09                    0.640539       -0.767148
0.091                   0.633334       -0.773034
0.092                   0.626094       -0.778838
0.093                    0.61882       -0.784562
0.094                   0.611514       -0.790207
0.095                   0.604178       -0.795775
0.096                   0.596812       -0.801269
0.097                   0.589415        -0.80669
0.098                    0.58199       -0.812041
0.099                   0.574534       -0.817323
0.1                     0.567046       -0.822537
0.101                   0.559526       -0.827684
0.102                   0.551973       -0.832765
0.103                   0.544384       -0.837779
0.104                    0.53676       -0.842726
0.105                   0.529098       -0.847605
0.106                   0.521398       -0.852415
0.107                   0.513659       -0.857153
0.108                   0.505881       -0.861819
0.109                   0.498064       -0.866411
0.11                    0.490208       -0.870925
0.111                   0.482316        -0.87536
0.112                   0.474386       -0.879715
0.113                   0.466423       -0.883986
0.114                   0.458428       -0.888174
0.115                   0.450402       -0.892275
0.116                   0.442349       -0.896289
0.117                   0.434272       -0.900217
0.118                   0.426174       -0.904057
0.119                   0.418056        -0.90781
0.12                    0.409922       -0.911477
0.121                   0.401775       -0.915058
0.122                   0.393616       -0.918556
0.123                   0.385447       -0.921971
0.124                   0.377269       -0.925306
0.125                   0.369084       -0.928563
0.126                   0.360894       -0.931743
0.127                   0.352697       -0.934848
0.128                   0.344493        -0.93788
0.129                   0.336283       -0.940841
0.13                    0.328066       -0.943731
0.131                   0.319842       -0.946552
0.132                   0.311608       -0.949304
0.133                   0.303365       -0.951987
0.134                   0.295112       -0.954603
0.135                   0.286846       -0.957149
0.136                   0.278569       -0.959625
0.137                   0.270279        -0.96203
0.138                   0.261976       -0.964364
0.139                    0.25366       -0.966623
0.14                    0.245333       -0.968808
0.141                   0.236994       -0.970917
0.142                   0.228644       -0.972948
0.143                   0.220286       -0.974901
0.144                   0.211921       -0.976773
0.145                    0.20355       -0.978565
0.146                   0.195177       -0.980275
0.147                   0.186802       -0.981904
0.148                   0.178429       -0.983452
0.149                    0.17006       -0.984919
0.15                    0.161696       -0.986306
0.151                    0.15334       -0.987615
0.152                   0.144993       -0.988846
0.153                   0.136658           -0.99
0.154                   0.128334       -0.991081
0.155                   0.120024        -0.99209
0.156                   0.111727       -0.993027
0.157                   0.103443       -0.993896
0.158                  0.0951742       -0.994697
0.159                  0.0869175       -0.995432
0.16                   0.0786741       -0.996103
0.161                  0.0704433       -0.996709
0.162                  0.0622232       -0.997253
0.163                  0.0540134       -0.997734
0.164                  0.0458136       -0.998152
0.165                   0.037623       -0.998508
0.166                  0.0294402         -0.9988
0.167                   0.021266       -0.999028
0.168                   0.013099       -0.999191
0.169                 0.00494006       -0.999288
0.17                 -0.00321084       -0.999318
0.171                 -0.0113527       -0.999281
0.172                 -0.0194848       -0.999175
0.173                 -0.0276062       -0.998998
0.174                 -0.0357152       -0.998752
0.175                 -0.0438104       -0.998434
0.176                   -0.05189       -0.998045
0.177                  -0.059952       -0.997585
0.178                 -0.0679948       -0.997055
0.179                 -0.0760166       -0.996453
0.18                  -0.0840154       -0.995782
0.181                 -0.0919897       -0.995043
0.182                 -0.0999381       -0.994237
0.183                   -0.10786       -0.993365
0.184                  -0.115753       -0.992428
0.185                  -0.123617        -0.99143
0.186                  -0.131453        -0.99037
0.187                  -0.139259       -0.989251
0.188                  -0.147035       -0.988075
0.189                  -0.154783       -0.986842
0.19                   -0.162502       -0.985553
0.191                  -0.170193       -0.984211
0.192                  -0.177857       -0.982815
0.193                  -0.185494       -0.981366
0.194                  -0.193105       -0.979865
0.195                  -0.200691        -0.97831
0.196                  -0.208252       -0.976703
0.197                  -0.215789       -0.975043
0.198                  -0.223302       -0.973329
0.199                   -0.23079        -0.97156
0.2                    -0.238254       -0.969737
0.201                  -0.245693       -0.967858
0.202                  -0.253107       -0.965922
0.203                  -0.260493        -0.96393
0.204                  -0.267852       -0.961881
0.205                  -0.275183       -0.959775
0.206                  -0.282483       -0.957611
0.207                  -0.289751       -0.955391
0.208                  -0.296986       -0.953114
0.209                  -0.304187       -0.950781
0.21                   -0.311351       -0.948394
0.211                  -0.318479       -0.945953
0.212                  -0.325569       -0.943459
0.213                  -0.332619       -0.940915
0.214                   -0.33963       -0.938321
0.215                  -0.346602       -0.935679
0.216                  -0.353533       -0.932991
0.217                  -0.360424       -0.930258
0.218                  -0.367275       -0.927482
0.219                  -0.374087       -0.924663
0.22                   -0.380859       -0.921804
0.221                  -0.387594       -0.918905
0.222                  -0.394292       -0.915966
0.223                  -0.400952       -0.912989
0.224                  -0.407577       -0.909973
0.225                  -0.414167       -0.906919
0.226                  -0.420722       -0.903827
0.227                  -0.427244       -0.900696
0.228                  -0.433732       -0.897526
0.229                  -0.440186       -0.894317
0.23                   -0.446606       -0.891068
0.231                  -0.452993       -0.887779
0.232                  -0.459345        -0.88445
0.233                  -0.465662       -0.881079
0.234                  -0.471944       -0.877668
0.235                  -0.478189       -0.874215
0.236                  -0.484396       -0.870721
0.237                  -0.490564       -0.867187
0.238                  -0.496693       -0.863613
0.239                  -0.502781           -0.86
0.24                   -0.508828       -0.856348
0.241                  -0.514832       -0.852659
0.242                  -0.520793       -0.848934
0.243                  -0.526711       -0.845174
0.244                  -0.532584       -0.841381
0.245                  -0.538414       -0.837556
0.246                  -0.544201         -0.8337
0.247                  -0.549944       -0.829816
0.248                  -0.555643       -0.825903
0.249                  -0.561301       -0.821964
0.25                   -0.566918       -0.817999
0.251                  -0.572493       -0.814009
0.252                   -0.57803       -0.809994
0.253                  -0.583527       -0.805956
0.254                  -0.588987       -0.801894
0.255                   -0.59441       -0.797808
0.256                  -0.599797       -0.793699
0.257                  -0.605149       -0.789565
0.258                  -0.610467       -0.785407
0.259                   -0.61575       -0.781224
0.26                   -0.620998       -0.777015
0.261                  -0.626213       -0.772781
0.262                  -0.631393        -0.76852
0.263                  -0.636539       -0.764232
0.264                  -0.641649       -0.759916
0.265                  -0.646724       -0.755573
0.266                  -0.651762       -0.751203
0.267                  -0.656764       -0.746805
0.268                  -0.661727        -0.74238
0.269                  -0.666653       -0.737929
0.27                   -0.671539       -0.733451
0.271                  -0.676385       -0.728947
0.272                  -0.681191        -0.72442
0.273                  -0.685956       -0.719868
0.274                  -0.690682       -0.715294
0.275                  -0.695366       -0.710698
0.276                   -0.70001       -0.706081
0.277                  -0.704614       -0.701445
0.278                  -0.709178       -0.696789
0.279                  -0.713703       -0.692115
0.28                    -0.71819       -0.687423
0.281                  -0.722639       -0.682715
0.282                  -0.727051       -0.677989
0.283                  -0.731427       -0.673247
0.284                  -0.735768       -0.668488
0.285                  -0.740073       -0.663712
0.286                  -0.744345       -0.658918
0.287                  -0.748583       -0.654108
0.288                  -0.752787       -0.649279
0.289                  -0.756959       -0.644431
0.29                   -0.761097       -0.639564
0.291                  -0.765201       -0.634677
0.292                  -0.769273        -0.62977
0.293                   -0.77331       -0.624842
0.294                  -0.777312       -0.619893
0.295                  -0.781279       -0.614923
0.296                   -0.78521       -0.609931
0.297                  -0.789104       -0.604918
0.298                   -0.79296       -0.599884
0.299                  -0.796778        -0.59483
0.3                    -0.800557       -0.589755
0.301                  -0.804296        -0.58466
0.302                  -0.807995       -0.579547
0.303                  -0.811654       -0.574416
0.304                  -0.815271       -0.569269
0.305                  -0.818847       -0.564105
0.306                  -0.822383       -0.558926
0.307                  -0.825878       -0.553733
0.308                  -0.829332       -0.548527
0.309                  -0.832746       -0.543308
0.31                   -0.836121       -0.538077
0.311                  -0.839457       -0.532834
0.312                  -0.842755        -0.52758
0.313                  -0.846015       -0.522316
0.314                  -0.849238        -0.51704
0.315                  -0.852425       -0.511753
0.316                  -0.855576       -0.506456
0.317                  -0.858691       -0.501146
0.318                  -0.861771       -0.495825
0.319                  -0.864816       -0.490492
0.32                   -0.867826       -0.485147
0.321                    -0.8708       -0.479788
0.322                  -0.873739       -0.474415
0.323                  -0.876642        -0.46903
0.324                  -0.879509        -0.46363
0.325                  -0.882338       -0.458216
0.326                   -0.88513       -0.452788
0.327                  -0.887883       -0.447346
0.328                  -0.890598        -0.44189
0.329                  -0.893272       -0.436421
0.33                   -0.895907        -0.43094
0.331                    -0.8985       -0.425446
0.332                  -0.901052       -0.419941
0.333                  -0.903562       -0.414426
0.334                   -0.90603       -0.408901
0.335                  -0.908457       -0.403366
0.336                  -0.910841       -0.397825
0.337                  -0.913183       -0.392276
0.338                  -0.915484       -0.386721
0.339                  -0.917744       -0.381161
0.34                   -0.919963       -0.375596
0.341                  -0.922142       -0.370027
0.342                  -0.924282       -0.364454
0.343                  -0.926382       -0.358877
0.344                  -0.928445       -0.353297
0.345                  -0.930469       -0.347714
0.346                  -0.932456       -0.342127
0.347                  -0.934407       -0.336536
0.348                  -0.936321       -0.330941
0.349                  -0.938198       -0.325342
0.35                    -0.94004       -0.319739
0.351                  -0.941845       -0.314131
0.352                  -0.943613       -0.308517
0.353                  -0.945345       -0.302897
0.354                   -0.94704       -0.297272
0.355                  -0.948697       -0.291641
0.356                  -0.950315       -0.286004
0.357                  -0.951896       -0.280361
0.358                  -0.953436       -0.274712
0.359                  -0.954936       -0.269058
0.36                   -0.956396       -0.263399
0.361                  -0.957814       -0.257735
0.362                   -0.95919       -0.252068
0.363                  -0.960525       -0.246398
0.364                  -0.961816       -0.240725
0.365                  -0.963065       -0.235051
0.366                  -0.964271       -0.229377
0.367                  -0.965434       -0.223703
0.368                  -0.966554        -0.21803
0.369                  -0.967631       -0.212359
0.37                   -0.968666        -0.20669
0.371                  -0.969659       -0.201026
0.372                  -0.970611       -0.195365
0.373                  -0.971521       -0.189709
0.374                  -0.972391       -0.184057
0.375                   -0.97322        -0.17841
0.376                   -0.97401       -0.172768
0.377                   -0.97476       -0.167131
0.378                   -0.97547       -0.161499
0.379                  -0.976142       -0.155873
0.38                   -0.976774       -0.150251
0.381                  -0.977367       -0.144634
0.382                   -0.97792       -0.139021
0.383                  -0.978434       -0.133412
0.384                  -0.978906       -0.127808
0.385                  -0.979337       -0.122208
0.386                  -0.979726       -0.116612
0.387                  -0.980072       -0.111021
0.388                  -0.980373       -0.105436
0.389                  -0.980629      -0.0998568
0.39                   -0.980838      -0.0942843
0.391                     -0.981      -0.0887202
0.392                  -0.981113      -0.0831655
0.393                  -0.981176      -0.0776219
0.394                  -0.981188      -0.0720918
0.395                  -0.981149      -0.0665769
0.396                  -0.981058      -0.0610796
0.397                  -0.980914      -0.0556026
0.398                  -0.980718      -0.0501492
0.399                  -0.980469      -0.0447213
0.4                    -0.980169      -0.0393227
0.401                  -0.979818      -0.0339568
0.402                  -0.979418      -0.0286261
0.403                   -0.97897      -0.0233339
0.404                  -0.978476      -0.0180838
0.405                   -0.97794      -0.0128784
0.406                  -0.977363     -0.00772067
0.407                   -0.97675     -0.00261292
0.408                  -0.976105      0.00244217
0.409                  -0.975431      0.00744316
0.41                   -0.974732       0.0123885
0.411                  -0.974015       0.0172771
0.412                  -0.973283       0.0221082
0.413                  -0.972542       0.0268826
0.414                  -0.971796       0.0316002
0.415                  -0.971053       0.0362626
0.416                  -0.970315       0.0408721
0.417                  -0.969588       0.0454302
0.418                  -0.968878       0.0499412
0.419                  -0.968188       0.0544083
0.42                   -0.967522       0.0588354
0.421                  -0.966884       0.0632278
0.422                  -0.966277       0.0675906
0.423                  -0.965704       0.0719294
0.424                  -0.965165       0.0762498
0.425                  -0.964662       0.0805581
0.426                  -0.964195       0.0848605
0.427                  -0.963763        0.089163
0.428                  -0.963365       0.0934716
0.429                  -0.962999       0.0977925
0.43                   -0.962663        0.102131
0.431                  -0.962352        0.106492
0.432                  -0.962063        0.110879
0.433                  -0.961791        0.115298
0.434                  -0.961532        0.119752
0.435                  -0.961279        0.124243
0.436                  -0.961027        0.128772
0.437                  -0.960772        0.133342
0.438                  -0.960506        0.137953
0.439                  -0.960225        0.142604
0.44                   -0.959923        0.147293
0.441                  -0.959596         0.15202
0.442                  -0.959238        0.156783
0.443                  -0.958845        0.161577
0.444                  -0.958415          0.1664
0.445                  -0.957943        0.171249
0.446                  -0.957428        0.176119
0.447                  -0.956868        0.181006
0.448                  -0.956262        0.185907
0.449                  -0.955609        0.190817
0.45                   -0.954909        0.195734
0.451                  -0.954163        0.200652
0.452                  -0.953372        0.205569
0.453                  -0.952538        0.210482
0.454                  -0.951661         0.21539
0.455                  -0.950745        0.220289
0.456                  -0.949791        0.225178
0.457                  -0.948801        0.230057
0.458                  -0.947777        0.234924
0.459                  -0.946721         0.23978
0.46                   -0.945635        0.244624
0.461                   -0.94452        0.249457
0.462                  -0.943378         0.25428
0.463                  -0.942209        0.259093
0.464                  -0.941014        0.263897
0.465                  -0.939793        0.268693
0.466                  -0.938546        0.273482
0.467                  -0.937274        0.278265
0.468                  -0.935974        0.283042
0.469                  -0.934648        0.287813
0.47                   -0.933294        0.292578
0.471                  -0.931911        0.297338
0.472                  -0.930499        0.302092
0.473                  -0.929056        0.306839
0.474                  -0.927583        0.311579
0.475                  -0.926079         0.31631
0.476                  -0.924542        0.321032
0.477                  -0.922975        0.325743
0.478                  -0.921376        0.330442
0.479                  -0.919747        0.335128
0.48                   -0.918088          0.3398
0.481                  -0.916399        0.344457
0.482                  -0.914682        0.349098
0.483                  -0.912939        0.353723
0.484                   -0.91117        0.358331
0.485                  -0.909376        0.362923
0.486                  -0.907559        0.367498
0.487                   -0.90572        0.372058
0.488                  -0.903861        0.376603
0.489                  -0.901981        0.381133
0.49                   -0.900081        0.385651
0.491                  -0.898163        0.390157
0.492                  -0.896225        0.394652
0.493                  -0.894267        0.399138
0.494                  -0.892289        0.403615
0.495                  -0.890291        0.408085
0.496                  -0.888271        0.412549
0.497                  -0.886227        0.417007
0.498                   -0.88416        0.421459
0.499                  -0.882067        0.425905
0.5                    -0.879947        0.430346
0.501                  -0.877798        0.434781
0.502                   -0.87562        0.439208
0.503                  -0.873412        0.443628
0.504                  -0.871172        0.448038
0.505                    -0.8689        0.452438
0.506                  -0.866596        0.456827
0.507                  -0.864259        0.461202
0.508                   -0.86189        0.465562
0.509                   -0.85949        0.469907
0.51                   -0.857059        0.474236
0.511                  -0.854597        0.478546
0.512                  -0.852106        0.482839
0.513                  -0.849587        0.487114
0.514                   -0.84704         0.49137
0.515                  -0.844467        0.495609
0.516                  -0.841867         0.49983
0.517                  -0.839242        0.504035
0.518                  -0.836591        0.508224
0.519                  -0.833915        0.512399
0.52                   -0.831212         0.51656
0.521                  -0.828481        0.520708
0.522                  -0.825722        0.524845
0.523                  -0.822932         0.52897
0.524                  -0.820109        0.533084
0.525                  -0.817251        0.537186
0.526                  -0.814356        0.541276
0.527                  -0.811421        0.545352
0.528                  -0.808444        0.549412
0.529                  -0.805423        0.553455
0.53                   -0.802355        0.557477
0.531                  -0.799239        0.561475
0.532                  -0.796074        0.565445
0.533                   -0.79286        0.569382
0.534                  -0.789596        0.573283
0.535                  -0.786285        0.577144
0.536                  -0.782926        0.580959
0.537                  -0.779523        0.584725
0.538                  -0.776078        0.588438
0.539                  -0.772596        0.592094
0.54                    -0.76908         0.59569
0.541                  -0.765535        0.599225
0.542                  -0.761966        0.602698
0.543                  -0.758378        0.606106
0.544                  -0.754775        0.609452
0.545                  -0.751163        0.612736
0.546                  -0.747545         0.61596
0.547                  -0.743926        0.619127
0.548                  -0.740309        0.622239
0.549                  -0.736696        0.625301
0.55                   -0.733088        0.628316
0.551                  -0.729486        0.631288
0.552                   -0.72589        0.634222
0.553                  -0.722298         0.63712
0.554                  -0.718708        0.639985
0.555                  -0.715117        0.642821
0.556                  -0.711522        0.645627
0.557                  -0.707918        0.648404
0.558                  -0.704301        0.651152
0.559                  -0.700668        0.653868
0.56                   -0.697013        0.656549
0.561                  -0.693336         0.65919
0.562                  -0.689632        0.661785
0.563                    -0.6859        0.664328
0.564                  -0.682141        0.666812
0.565                  -0.678356        0.669228
0.566                  -0.674548        0.671568
0.567                  -0.670723        0.673824
0.568                  -0.666886        0.675987
0.569                  -0.663048        0.678052
0.57                   -0.659217        0.680011
0.571                  -0.655405        0.681861
0.572                  -0.651627        0.683597
0.573                  -0.647895        0.685219
0.574                  -0.644225        0.686729
0.575                  -0.640633         0.68813
0.576                  -0.637133        0.689427
0.577                   -0.63374        0.690631
0.578                  -0.630468        0.691751
0.579                   -0.62733        0.692802
0.58                   -0.624336        0.693798
0.581                  -0.621495        0.694759
0.582                  -0.618814        0.695703
0.583                  -0.616295         0.69665
0.584                  -0.613939        0.697622
0.585                  -0.611744        0.698641
0.586                  -0.609704        0.699726
0.587                  -0.607809          0.7009
0.588                  -0.606048        0.702181
0.589                  -0.604405        0.703586
0.59                   -0.602865        0.705132
0.591                  -0.601406         0.70683
0.592                  -0.600009        0.708691
0.593                  -0.598651        0.710721
0.594                  -0.597308        0.712924
0.595                  -0.595958        0.715299
0.596                  -0.594577        0.717845
0.597                  -0.593143        0.720553
0.598                  -0.591636        0.723415
0.599                  -0.590036        0.726417
0.6                    -0.588328        0.729546
0.601                  -0.586496        0.732783
0.602                   -0.58453        0.736112
0.603                  -0.582421        0.739511
0.604                  -0.580165        0.742961
0.605                   -0.57776        0.746442
0.606                  -0.575206        0.749933
0.607                  -0.572509        0.753417
0.608                  -0.569673        0.756875
0.609                  -0.566709        0.760293
0.61                   -0.563628        0.763656
0.611                  -0.560442        0.766954
0.612                  -0.557164        0.770177
0.613                  -0.553808         0.77332
0.614                   -0.55039        0.776379
0.615                  -0.546922        0.779353
0.616                  -0.543419        0.782243
0.617                  -0.539892        0.785053
0.618                  -0.536352        0.787788
0.619                  -0.532809        0.790454
0.62                   -0.529269        0.793059
0.621                  -0.525739        0.795612
0.622                  -0.522221        0.798122
0.623                  -0.518717        0.800597
0.624                  -0.515227        0.803045
0.625                  -0.511749        0.805475
0.626                  -0.508278        0.807892
0.627                  -0.504812        0.810302
0.628                  -0.501344        0.812709
0.629                  -0.497868        0.815116
0.63                    -0.49438        0.817522
0.631                  -0.490871        0.819927
0.632                  -0.487338         0.82233
0.633                  -0.483776        0.824727
0.634                   -0.48018        0.827113
0.635                  -0.476549        0.829484
0.636                   -0.47288        0.831834
0.637                  -0.469175        0.834157
0.638                  -0.465434        0.836447
0.639                   -0.46166          0.8387
0.64                   -0.457857        0.840909
0.641                   -0.45403        0.843073
0.642                  -0.450183        0.845187
0.643                  -0.446324         0.84725
0.644                  -0.442459        0.849261
0.645                  -0.438593        0.851222
0.646                  -0.434734        0.853136
0.647                  -0.430886        0.855004
0.648                  -0.427054        0.856832
0.649                  -0.423242        0.858625
0.65                   -0.419452         0.86039
0.651                  -0.415687        0.862131
0.652                  -0.411946        0.863857
0.653                  -0.408228        0.865573
0.654                   -0.40453        0.867284
0.655                  -0.400848        0.868998
0.656                  -0.397179        0.870717
0.657                  -0.393517        0.872445
0.658                  -0.389856        0.874185
0.659                  -0.386189        0.875937
0.66                    -0.38251        0.877701
0.661                  -0.378814        0.879476
0.662                  -0.375096        0.881257
0.663                  -0.371349        0.883043
0.664                  -0.367571        0.884826
0.665                  -0.363759        0.886603
0.666                  -0.359911        0.888368
0.667                  -0.356028        0.890113
0.668                  -0.352109        0.891833
0.669                  -0.348159        0.893524
0.67                    -0.34418        0.895178
0.671                  -0.340178        0.896794
0.672                  -0.336156        0.898367
0.673                  -0.332121        0.899896
0.674                   -0.32808        0.901381
0.675                  -0.324037        0.902822
0.676                      -0.32        0.904221
0.677                  -0.315972        0.905583
0.678                   -0.31196         0.90691
0.679                  -0.307965         0.90821
0.68                   -0.303991        0.909487
0.681                  -0.300038        0.910749
0.682                  -0.296105        0.912003
0.683                   -0.29219        0.913253
0.684                  -0.288291        0.914508
0.685                  -0.284401        0.915771
0.686                  -0.280515        0.917048
0.687                  -0.276627        0.918341
0.688                  -0.272729        0.919652
0.689                  -0.268813        0.920981
0.69                   -0.264872        0.922327
0.691                  -0.260898        0.923686
0.692                  -0.256885        0.925054
0.693                  -0.252826        0.926425
0.694                  -0.248716        0.927792
0.695                  -0.244553        0.929147
0.696                  -0.240335        0.930482
0.697                  -0.236062        0.931788
0.698                  -0.231735        0.933056
0.699                  -0.227358        0.934278
0.7                    -0.222936        0.935446
0.701                  -0.218475        0.936555
0.702                  -0.213983        0.937599
0.703                  -0.209467        0.938576
0.704                  -0.204938        0.939483
0.705                  -0.200403        0.940321
0.706                  -0.195871        0.941093
0.707                  -0.191351        0.941803
0.708                  -0.186849        0.942456
0.709                   -0.18237        0.943059
0.71                   -0.177918        0.943622
0.711                  -0.173494        0.944153
0.712                  -0.169098        0.944661
0.713                  -0.164727        0.945156
0.714                  -0.160375        0.945647
0.715                  -0.156035        0.946141
0.716                  -0.151698        0.946644
0.717                  -0.147352         0.94716
0.718                  -0.142987         0.94769
0.719                  -0.138587        0.948233
0.72                    -0.13414        0.948786
0.721                  -0.129632         0.94934
0.722                  -0.125052        0.949887
0.723                  -0.120389        0.950411
0.724                  -0.115633        0.950898
0.725                   -0.11078         0.95133
0.726                  -0.105825        0.951685
0.727                   -0.10077        0.951942
0.728                 -0.0956194         0.95208
0.729                 -0.0903823        0.952074
0.73                  -0.0850711        0.951904
0.731                 -0.0797035        0.951549
0.732                 -0.0743007         0.95099
0.733                 -0.0688877        0.950213
0.734                 -0.0634928        0.949205
0.735                 -0.0581476        0.947959
0.736                 -0.0528834        0.946473
0.737                 -0.0477365        0.944748
0.738                 -0.0427403        0.942793
0.739                 -0.0379294        0.940622
0.74                  -0.0333364        0.938252
0.741                 -0.0289921        0.935709
0.742                 -0.0249227        0.933021
0.743                 -0.0211524        0.930223
0.744                 -0.0176982        0.927352
0.745                 -0.0145729        0.924449
0.746                 -0.0117837        0.921557
0.747                -0.00933106        0.918721
0.748                 -0.0072082        0.915983
0.749                -0.00540301        0.913388
0.75                 -0.00389595        0.910979
0.751                -0.00266163        0.908792
0.752                -0.00166942        0.906864
0.753               -0.000883106        0.905225
0.754               -0.000263139          0.9039
0.755                0.000233352        0.902907
0.756                0.000652668         0.90226
0.757                 0.00104115        0.901963
0.758                 0.00144623        0.902017
0.759                 0.00191443        0.902413
0.76                  0.00248893        0.903136
0.761                 0.00321226        0.904166
0.762                  0.0041213        0.905478
0.763                 0.00524981         0.90704
0.764                 0.00662588        0.908817
0.765                 0.00827057        0.910771
0.766                  0.0102007        0.912862
0.767                  0.0124268        0.915049
0.768                  0.0149513        0.917289
0.769                   0.017772        0.919542
0.77                   0.0208807        0.921768
0.771                  0.0242628        0.923931
0.772                  0.0279007        0.925998
0.773                   0.031771         0.92794
0.774                  0.0358468        0.929731
0.775                     0.0401        0.931353
0.776                  0.0445008         0.93279
0.777                  0.0490164        0.934034
0.778                  0.0536169         0.93508
0.779                  0.0582717        0.935928
0.78                   0.0629522        0.936585
0.781                  0.0676325         0.93706
0.782                  0.0722889        0.937365
0.783                  0.0769024        0.937516
0.784                  0.0814565        0.937533
0.785                  0.0859394        0.937433
0.786                  0.0903421        0.937239
0.787                  0.0946619        0.936969
0.788                  0.0988973        0.936643
0.789                   0.103051         0.93628
0.79                     0.10713        0.935897
0.791                   0.111142        0.935507
0.792                   0.115098        0.935121
0.793                   0.119011        0.934749
0.794                   0.122891        0.934396
0.795                   0.126753        0.934064
0.796                   0.130609        0.933755
0.797                    0.13447        0.933464
0.798                   0.138347        0.933187
0.799                   0.142249        0.932916
0.8                     0.146181        0.932645
0.801                   0.150148        0.932361
0.802                   0.154152        0.932057
0.803                   0.158191        0.931721
0.804                   0.162263        0.931344
0.805                   0.166363        0.930917
0.806                   0.170485        0.930434
0.807                    0.17462        0.929888
0.808                   0.178758        0.929275
0.809                    0.18289        0.928595
0.81                    0.187005        0.927847
0.811                   0.191092        0.927034
0.812                   0.195145        0.926161
0.813                   0.199151        0.925233
0.814                   0.203107         0.92426
0.815                   0.207004        0.923251
0.816                   0.210842        0.922216
0.817                   0.214617        0.921165
0.818                   0.218331         0.92011
0.819                   0.221986        0.919062
0.82                    0.225588         0.91803
0.821                   0.229141        0.917024
0.822                   0.232656         0.91605
0.823                    0.23614        0.915115
0.824                   0.239605        0.914224
0.825                    0.24306        0.913377
0.826                   0.246517        0.912575
0.827                   0.249986        0.911817
0.828                   0.253476        0.911098
0.829                   0.256998        0.910412
0.83                    0.260558        0.909754
0.831                   0.264162        0.909114
0.832                   0.267816        0.908484
0.833                    0.27152        0.907854
0.834                   0.275277        0.907215
0.835                   0.279085        0.906557
0.836                    0.28294        0.905872
0.837                   0.286839        0.905151
0.838                   0.290775        0.904388
0.839                   0.294743        0.903579
0.84                    0.298733        0.902719
0.841                    0.30274        0.901807
0.842                   0.306753        0.900843
0.843                   0.310767        0.899828
0.844                   0.314774        0.898765
0.845                   0.318769         0.89766
0.846                   0.322747        0.896516
0.847                   0.326706        0.895342
0.848                   0.330642        0.894143
0.849                   0.334558        0.892927
0.85                    0.338454          0.8917
0.851                   0.342335        0.890469
0.852                   0.346206        0.889239
0.853                   0.350071        0.888014
0.854                   0.353939        0.886796
0.855                   0.357818        0.885587
0.856                   0.361715        0.884386
0.857                   0.365639        0.883189
0.858                   0.369597        0.881994
0.859                   0.373595        0.880794
0.86                    0.377639         0.87958
0.861                   0.381734        0.878346
0.862                   0.385881         0.87708
0.863                   0.390081        0.875774
0.864                   0.394333        0.874416
0.865                   0.398634        0.872996
0.866                   0.402976        0.871505
0.867                   0.407355        0.869934
0.868                    0.41176        0.868276
0.869                   0.416181        0.866525
0.87                    0.420608        0.864679
0.871                   0.425028        0.862736
0.872                    0.42943        0.860696
0.873                   0.433802        0.858563
0.874                   0.438134        0.856342
0.875                   0.442416        0.854041
0.876                    0.44664        0.851668
0.877                     0.4508        0.849233
0.878                   0.454893        0.846749
0.879                   0.458917        0.844228
0.88                    0.462875         0.84168
0.881                   0.466769        0.839119
0.882                   0.470607        0.836553
0.883                   0.474398        0.833994
0.884                   0.478152        0.831446
0.885                   0.481881        0.828914
0.886                   0.485601        0.826401
0.887                   0.489323        0.823905
0.888                   0.493063         0.82142
0.889                   0.496834         0.81894
0.89                    0.500649        0.816453
0.891                   0.504516        0.813944
0.892                   0.508445        0.811398
0.893                    0.51244        0.808796
0.894                     0.5165        0.806116
0.895                   0.520625        0.803337
0.896                   0.524805        0.800438
0.897                    0.52903        0.797396
0.898                   0.533284        0.794193
0.899                   0.537547         0.79081
0.9                     0.541794        0.787231
0.901                   0.545999        0.783445
0.902                    0.55013        0.779444
0.903                   0.554156        0.775227
0.904                   0.558043        0.770795
0.905                   0.561756        0.766158
0.906                   0.565261        0.761328
0.907                   0.568527        0.756326
0.908                   0.571521        0.751176
0.909                   0.574218         0.74591
0.91                    0.576596        0.740562
0.911                   0.578635        0.735173
0.912                   0.580325        0.729783
0.913                    0.58166        0.724438
0.914                   0.582639        0.719184
0.915                   0.583273        0.714068
0.916                   0.583574        0.709135
0.917                   0.583566        0.704429
0.918                   0.583275        0.699991
0.919                   0.582737        0.695857
0.92                     0.58199        0.692059
0.921                    0.58108        0.688622
0.922                   0.580053        0.685567
0.923                   0.578959        0.682906
0.924                   0.577852        0.680643
0.925                   0.576782        0.678776
0.926                   0.575801        0.677295
0.927                   0.574959        0.676184
0.928                   0.574301        0.675417
0.929                   0.573869        0.674965
0.93                    0.573701        0.674792
0.931                   0.573828        0.674858
0.932                   0.574275        0.675117
0.933                   0.575059        0.675524
0.934                   0.576192         0.67603
0.935                   0.577678        0.676586
0.936                   0.579514        0.677144
0.937                   0.581688        0.677658
0.938                   0.584185        0.678083
0.939                   0.586982         0.67838
0.94                    0.590052        0.678514
0.941                   0.593363        0.678454
0.942                   0.596881        0.678176
0.943                   0.600568        0.677661
0.944                   0.604386        0.676896
0.945                   0.608296        0.675876
0.946                    0.61226          0.6746
0.947                   0.616241        0.673073
0.948                   0.620206        0.671307
0.949                   0.624124        0.669315
0.95                    0.627969        0.667118
0.951                   0.631717        0.664737
0.952                   0.635351        0.662198
0.953                   0.638858        0.659524
0.954                    0.64223        0.656744
0.955                   0.645464        0.653883
0.956                   0.648559        0.650965
0.957                   0.651522        0.648014
0.958                    0.65436        0.645051
0.959                   0.657085        0.642093
0.96                    0.659711        0.639155
0.961                   0.662253        0.636248
0.962                   0.664726         0.63338
0.963                   0.667148        0.630553
0.964                   0.669533         0.62777
0.965                   0.671896        0.625026
0.966                   0.674249        0.622317
0.967                   0.676604        0.619635
0.968                   0.678968        0.616971
0.969                   0.681348        0.614314
0.97                    0.683745        0.611652
0.971                    0.68616        0.608976
0.972                    0.68859        0.606274
0.973                   0.691031        0.603537
0.974                   0.693474        0.600758
0.975                    0.69591        0.597929
0.976                   0.698331        0.595047
0.977                   0.700724        0.592112
0.978                   0.703079        0.589123
0.979                   0.705386        0.586086
0.98                    0.707633        0.583004
0.981                   0.709812        0.579888
0.982                   0.711917        0.576746
0.983                   0.713941         0.57359
0.984                   0.715883        0.570433
0.985                   0.717742        0.567286
0.986                    0.71952        0.564163
0.987                   0.721222        0.561077
0.988                   0.722854        0.558038
0.989                   0.724425        0.555058
0.99                    0.725946        0.552144
0.991                   0.727429        0.549304
0.992                   0.728887         0.54654
0.993                   0.730334        0.543856
0.994                   0.731784         0.54125
0.995                    0.73325         0.53872
0.996                   0.734744        0.536259
0.997                   0.736279        0.533861
0.998                   0.737863        0.531516
0.999                   0.739505        0.529212
1                        0.74121         0.52694
1.001                   0.742982        0.524685
1.002                   0.744822        0.522436
1.003                   0.746729        0.520179
1.004                   0.748698        0.517904
1.005                   0.750726        0.515598
1.006                   0.752805        0.513254
1.007                   0.754926        0.510864
1.008                    0.75708        0.508422
1.009                   0.759256        0.505924
1.01                    0.761446        0.503369
1.011                   0.763638        0.500758
1.012                   0.765824        0.498093
1.013                   0.767994        0.495378
1.014                   0.770143         0.49262
1.015                   0.772264        0.489825
1.016                   0.774355        0.487001
1.017                   0.776413        0.484157
1.018                   0.778438          0.4813
1.019                   0.780434        0.478438
1.02                    0.782403        0.475579
1.021                   0.784351        0.472728
1.022                   0.786285        0.469889
1.023                   0.788213        0.467065
1.024                   0.790142        0.464258
1.025                   0.792081        0.461465
1.026                   0.794037        0.458685
1.027                   0.796019        0.455912
1.028                   0.798032        0.453141
1.029                   0.800082        0.450362
1.03                    0.802171        0.447568
1.031                   0.804301        0.444748
1.032                   0.806471        0.441893
1.033                   0.808679        0.438992
1.034                   0.810921        0.436037
1.035                   0.813188        0.433018
1.036                   0.815474        0.429929
1.037                   0.817767        0.426763
1.038                   0.820058        0.423518
1.039                   0.822336        0.420191
1.04                    0.824587        0.416784
1.041                   0.826801        0.413299
1.042                   0.828968        0.409742
1.043                   0.831077         0.40612
1.044                    0.83312        0.402442
1.045                   0.835093         0.39872
1.046                    0.83699        0.394964
1.047                   0.838811        0.391187
1.048                   0.840558        0.387401
1.049                   0.842234        0.383618
1.05                    0.843846         0.37985
1.051                   0.845403        0.376105
1.052                   0.846916         0.37239
1.053                   0.848397        0.368712
1.054                    0.84986        0.365071
1.055                   0.851319        0.361467
1.056                   0.852789        0.357895
1.057                   0.854284        0.354349
1.058                   0.855815        0.350818
1.059                   0.857393        0.347289
1.06                    0.859026        0.343744
1.061                   0.860718        0.340167
1.062                   0.862472        0.336537
1.063                   0.864283        0.332835
1.064                   0.866146        0.329038
1.065                   0.868049        0.325127
1.066                   0.869977        0.321084
1.067                   0.871911         0.31689
1.068                   0.873827        0.312533
1.069                   0.875701        0.308002
1.07                    0.877502        0.303291
1.071                     0.8792          0.2984
1.072                   0.880764        0.293332
1.073                   0.882162        0.288096
1.074                   0.883362        0.282708
1.075                   0.884334        0.277188
1.076                   0.885053        0.271561
1.077                   0.885494         0.26586
1.078                   0.885638        0.260117
1.079                   0.885473        0.254373
1.08                     0.88499        0.248667
1.081                   0.884187        0.243043
1.082                    0.88307        0.237546
1.083                   0.881649        0.232218
1.084                   0.879945        0.227101
1.085                   0.877981        0.222236
1.086                   0.875788        0.217658
1.087                   0.873405        0.213399
1.088                   0.870871        0.209485
1.089                   0.868232        0.205936
1.09                    0.865537        0.202767
1.091                   0.862836        0.199981
1.092                   0.860179         0.19758
1.093                   0.857617        0.195553
1.094                     0.8552        0.193885
1.095                   0.852972        0.192553
1.096                   0.850977        0.191528
1.097                   0.849252        0.190774
1.098                   0.847828        0.190251
1.099                   0.846732        0.189915
1.1                     0.845983        0.189718
1.101                   0.845592        0.189612
1.102                   0.845564        0.189547
1.103                   0.845896        0.189472
1.104                   0.846579         0.18934
1.105                   0.847594        0.189105
1.106                   0.848921        0.188725
1.107                    0.85053        0.188162
1.108                   0.852389        0.187385
1.109                   0.854461        0.186365
1.11                    0.856708        0.185082
1.111                   0.859087        0.183521
1.112                   0.861558        0.181675
1.113                    0.86408        0.179542
1.114                   0.866611        0.177126
1.115                   0.869115        0.174437
1.116                   0.871556        0.171489
1.117                   0.873904        0.168303
1.118                   0.876133        0.164902
1.119                   0.878219         0.16131
1.12                    0.880146        0.157556
1.121                   0.881902        0.153669
1.122                    0.88348        0.149676
1.123                   0.884876        0.145607
1.124                   0.886093        0.141488
1.125                   0.887137        0.137344
1.126                   0.888016        0.133196
1.127                   0.888742        0.129065
1.128                   0.889329        0.124966
1.129                   0.889792        0.120912
1.13                    0.890147         0.11691
1.131                   0.890408        0.112968
1.132                   0.890592        0.109087
1.133                   0.890711        0.105268
1.134                   0.890778        0.101507
1.135                   0.890802       0.0978004
1.136                   0.890792       0.0941424
1.137                   0.890752       0.0905266
1.138                   0.890687       0.0869462
1.139                   0.890596        0.083395
1.14                    0.890478       0.0798677
1.141                   0.890332       0.0763599
1.142                   0.890151       0.0728693
1.143                   0.889931       0.0693951
1.144                   0.889667       0.0659387
1.145                   0.889353       0.0625037
1.146                   0.888984       0.0590953
1.147                   0.888557        0.055721
1.148                   0.888068       0.0523896
1.149                   0.887519       0.0491112
1.15                     0.88691       0.0458968
1.151                   0.886246       0.0427577
1.152                   0.885534       0.0397049
1.153                   0.884782        0.036749
1.154                   0.884001       0.0338993
1.155                   0.883205       0.0311632
1.156                    0.88241       0.0285465
1.157                   0.881632       0.0260521
1.158                   0.880888       0.0236804
1.159                   0.880197       0.0214288
1.16                    0.879577       0.0192918
1.161                   0.879044       0.0172606
1.162                   0.878615       0.0153237
1.163                   0.878303       0.0134671
1.164                   0.878122       0.0116741
1.165                    0.87808      0.00992637
1.166                   0.878184      0.00820397
1.167                   0.878437      0.00648606
1.168                    0.87884      0.00475145
1.169                   0.879388      0.00297916
1.17                    0.880075      0.00114902
1.171                   0.880892    -0.000757788
1.172                   0.881826      -0.0027582
1.173                   0.882862     -0.00486684
1.174                   0.883983     -0.00709563
1.175                   0.885172     -0.00945353
1.176                   0.886409      -0.0119463
1.177                   0.887674      -0.0145766
1.178                   0.888949      -0.0173436
1.179                   0.890215      -0.0202438
1.18                    0.891455      -0.0232705
1.181                   0.892655      -0.0264148
1.182                   0.893801      -0.0296656
1.183                   0.894883      -0.0330101
1.184                   0.895893      -0.0364345
1.185                   0.896827      -0.0399245
1.186                   0.897683      -0.0434658
1.187                   0.898461      -0.0470446
1.188                   0.899164       -0.050648
1.189                   0.899799      -0.0542649
1.19                    0.900372      -0.0578858
1.191                   0.900893      -0.0615035
1.192                    0.90137      -0.0651131
1.193                   0.901815       -0.068712
1.194                   0.902237      -0.0723004
1.195                   0.902646      -0.0758805
1.196                    0.90305      -0.0794569
1.197                   0.903457      -0.0830358
1.198                    0.90387      -0.0866252
1.199                   0.904293      -0.0902338
1.2                     0.904728      -0.0938712
1.201                   0.905172      -0.0975468
1.202                   0.905623        -0.10127
1.203                   0.906073       -0.105049
1.204                   0.906515        -0.10889
1.205                    0.90694         -0.1128
1.206                   0.907338       -0.116781
1.207                   0.907696       -0.120834
1.208                   0.908004       -0.124958
1.209                   0.908249       -0.129149
1.21                    0.908422       -0.133401
1.211                   0.908513       -0.137706
1.212                   0.908515       -0.142053
1.213                   0.908421       -0.146432
1.214                   0.908229       -0.150829
1.215                   0.907939       -0.155231
1.216                   0.907551       -0.159626
1.217                   0.907071          -0.164
1.218                   0.906507       -0.168342
1.219                   0.905867       -0.172642
1.22                    0.905163       -0.176893
1.221                    0.90441        -0.18109
1.222                   0.903619        -0.18523
1.223                   0.902808       -0.189314
1.224                   0.901988       -0.193346
1.225                   0.901175       -0.197333
1.226                    0.90038       -0.201287
1.227                   0.899612       -0.205219
1.228                    0.89888       -0.209145
1.229                   0.898187       -0.213083
1.23                    0.897533       -0.217051
1.231                   0.896915       -0.221068
1.232                   0.896325       -0.225152
1.233                   0.895751       -0.229322
1.234                   0.895179       -0.233594
1.235                   0.894588       -0.237981
1.236                   0.893957       -0.242494
1.237                    0.89326        -0.24714
1.238                   0.892471       -0.251919
1.239                    0.89156       -0.256831
1.24                    0.890499       -0.261866
1.241                    0.88926       -0.267012
1.242                   0.887816        -0.27225
1.243                   0.886143       -0.277557
1.244                    0.88422       -0.282906
1.245                   0.882029       -0.288263
1.246                   0.879559       -0.293594
1.247                   0.876804       -0.298861
1.248                   0.873761       -0.304023
1.249                   0.870438        -0.30904
1.25                    0.866846       -0.313871
1.251                   0.863003       -0.318477
1.252                   0.858936       -0.322823
1.253                   0.854673       -0.326874
1.254                    0.85025       -0.330602
1.255                   0.845709       -0.333983
1.256                   0.841094          -0.337
1.257                    0.83645       -0.339642
1.258                   0.831826       -0.341904
1.259                   0.827272        -0.34379
1.26                    0.822836       -0.345309
1.261                   0.818565       -0.346479
1.262                   0.814503       -0.347325
1.263                   0.810689       -0.347876
1.264                   0.807161       -0.348167
1.265                   0.803946        -0.34824
1.266                    0.80107       -0.348139
1.267                    0.79855       -0.347911
1.268                   0.796396       -0.347605
1.269                   0.794611       -0.347271
1.27                     0.79319       -0.346958
1.271                   0.792123       -0.346713
1.272                   0.791393       -0.346583
1.273                   0.790975       -0.346608
1.274                   0.790841       -0.346827
1.275                   0.790957       -0.347272
1.276                   0.791286       -0.347969
1.277                   0.791788       -0.348941
1.278                   0.792421       -0.350201
1.279                   0.793143       -0.351759
1.28                     0.79391       -0.353616
1.281                   0.794682        -0.35577
1.282                   0.795419       -0.358209
1.283                   0.796085        -0.36092
1.284                   0.796645       -0.363885
1.285                   0.797072        -0.36708
1.286                   0.797338       -0.370479
1.287                   0.797425       -0.374054
1.288                   0.797316       -0.377776
1.289                      0.797       -0.381614
1.29                    0.796472       -0.385536
1.291                   0.795728       -0.389515
1.292                   0.794772       -0.393521
1.293                   0.793608       -0.397527
1.294                   0.792246        -0.40151
1.295                   0.790696       -0.405447
1.296                   0.788973        -0.40932
1.297                    0.78709       -0.413113
1.298                   0.785063       -0.416811
1.299                   0.782909       -0.420405
1.3                     0.780643       -0.423888
1.301                   0.778281       -0.427252
1.302                   0.775838       -0.430495
1.303                   0.773327       -0.433615
1.304                   0.770762       -0.436611
1.305                   0.768153       -0.439484
1.306                   0.765512       -0.442235
1.307                   0.762848       -0.444865
1.308                   0.760169       -0.447377
1.309                   0.757483        -0.44977
1.31                    0.754798       -0.452048
1.311                    0.75212        -0.45421
1.312                   0.749456       -0.456257
1.313                   0.746815        -0.45819
1.314                   0.744203       -0.460009
1.315                   0.741629       -0.461715
1.316                   0.739102       -0.463308
1.317                   0.736632       -0.464789
1.318                   0.734229       -0.466161
1.319                   0.731905       -0.467427
1.32                    0.729671       -0.468592
1.321                    0.72754        -0.46966
1.322                   0.725523       -0.470641
1.323                   0.723632       -0.471544
1.324                   0.721879       -0.472381
1.325                   0.720274       -0.473164
1.326                   0.718825       -0.473911
1.327                    0.71754       -0.474636
1.328                   0.716424       -0.475361
1.329                    0.71548       -0.476103
1.33                    0.714707       -0.476883
1.331                   0.714103       -0.477723
1.332                   0.713663       -0.478643
1.333                   0.713377       -0.479665
1.334                   0.713235       -0.480806
1.335                   0.713222       -0.482085
1.336                   0.713322       -0.483519
1.337                   0.713514        -0.48512
1.338                   0.713779       -0.486899
1.339                   0.714094       -0.488864
1.34                    0.714436        -0.49102
1.341                   0.714781       -0.493368
1.342                   0.715105       -0.495906
1.343                   0.715386       -0.498628
1.344                   0.715603       -0.501526
1.345                   0.715734       -0.504587
1.346                   0.715764       -0.507798
1.347                   0.715676       -0.511142
1.348                   0.715459       -0.514601
1.349                   0.715102       -0.518155
1.35                    0.714602       -0.521784
1.351                   0.713954       -0.525467
1.352                    0.71316       -0.529186
1.353                   0.712224        -0.53292
1.354                   0.711151       -0.536653
1.355                   0.709951       -0.540369
1.356                   0.708636       -0.544055
1.357                   0.707216         -0.5477
1.358                   0.705707       -0.551295
1.359                   0.704123       -0.554835
1.36                    0.702477       -0.558319
1.361                   0.700785       -0.561746
1.362                   0.699058        -0.56512
1.363                   0.697308       -0.568445
1.364                   0.695547       -0.571728
1.365                    0.69378       -0.574979
1.366                   0.692014       -0.578206
1.367                   0.690252       -0.581421
1.368                   0.688495       -0.584633
1.369                   0.686741       -0.587853
1.37                    0.684987       -0.591091
1.371                   0.683226       -0.594353
1.372                   0.681451       -0.597648
1.373                   0.679654       -0.600979
1.374                   0.677825       -0.604349
1.375                   0.675954        -0.60776
1.376                   0.674031       -0.611208
1.377                   0.672047       -0.614692
1.378                   0.669992       -0.618204
1.379                   0.667859       -0.621737
1.38                    0.665643       -0.625282
1.381                    0.66334        -0.62883
1.382                   0.660948       -0.632369
1.383                   0.658468       -0.635889
1.384                   0.655901       -0.639379
1.385                   0.653253       -0.642828
1.386                   0.650531       -0.646229
1.387                   0.647742       -0.649573
1.388                   0.644898       -0.652855
1.389                   0.642007       -0.656071
1.39                    0.639082       -0.659222
1.391                   0.636134       -0.662307
1.392                   0.633173       -0.665331
1.393                    0.63021         -0.6683
1.394                   0.627253       -0.671222
1.395                   0.624308       -0.674108
1.396                    0.62138       -0.676968
1.397                   0.618469       -0.679816
1.398                   0.615576       -0.682664
1.399                   0.612696       -0.685526
1.4                     0.609822       -0.688415
1.401                   0.606944        -0.69134
1.402                   0.604049       -0.694313
1.403                   0.601123       -0.697339
1.404                   0.598149       -0.700424
1.405                   0.595108       -0.703569
1.406                   0.591981       -0.706772
1.407                   0.588749       -0.710026
1.408                   0.585392       -0.713323
1.409                   0.581893       -0.716648
1.41                    0.578235       -0.719984
1.411                   0.574405       -0.723311
1.412                   0.570391       -0.726606
1.413                   0.566186       -0.729842
1.414                   0.561788       -0.732992
1.415                   0.557198       -0.736026
1.416                   0.552422       -0.738915
1.417                   0.547471        -0.74163
1.418                    0.54236       -0.744142
1.419                    0.53711       -0.746425
1.42                    0.531746       -0.748457
1.421                   0.526296       -0.750216
1.422                   0.520793       -0.751686
1.423                    0.51527       -0.752857
1.424                   0.509766       -0.753721
1.425                   0.504319       -0.754277
1.426                   0.498965       -0.754531
1.427                   0.493745       -0.754492
1.428                   0.488694       -0.754176
1.429                   0.483847       -0.753603
1.43                    0.479236       -0.752801
1.431                   0.474887       -0.751799
1.432                   0.470825       -0.750631
1.433                   0.467067       -0.749335
1.434                   0.463627       -0.747951
1.435                   0.460512       -0.746519
1.436                   0.457722       -0.745083
1.437                   0.455254       -0.743682
1.438                   0.453097       -0.742358
1.439                   0.451236       -0.741149
1.44                    0.449648       -0.740092
1.441                    0.44831       -0.739217
1.442                    0.44719       -0.738554
1.443                   0.446257       -0.738126
1.444                   0.445474       -0.737951
1.445                   0.444804       -0.738043
1.446                   0.444209       -0.738409
1.447                    0.44365       -0.739052
1.448                   0.443089       -0.739968
1.449                   0.442491       -0.741149
1.45                    0.441819       -0.742583
1.451                   0.441044       -0.744251
1.452                   0.440136       -0.746134
1.453                   0.439072       -0.748206
1.454                    0.43783       -0.750441
1.455                   0.436394       -0.752811
1.456                   0.434754       -0.755285
1.457                     0.4329       -0.757835
1.458                   0.430831       -0.760428
1.459                   0.428547       -0.763038
1.46                    0.426052       -0.765635
1.461                   0.423356       -0.768193
1.462                   0.420468       -0.770689
1.463                   0.417402         -0.7731
1.464                   0.414175        -0.77541
1.465                   0.410802         -0.7776
1.466                   0.407302       -0.779659
1.467                   0.403694       -0.781575
1.468                   0.399996       -0.783342
1.469                   0.396228       -0.784953
1.47                    0.392407       -0.786407
1.471                   0.388552       -0.787702
1.472                   0.384677        -0.78884
1.473                     0.3808       -0.789822
1.474                   0.376933       -0.790652
1.475                   0.373092       -0.791334
1.476                   0.369286       -0.791875
1.477                   0.365529       -0.792279
1.478                   0.361829       -0.792553
1.479                   0.358197       -0.792702
1.48                    0.354641       -0.792734
1.481                   0.351171       -0.792654
1.482                   0.347794        -0.79247
1.483                   0.344517       -0.792188
1.484                    0.34135       -0.791816
1.485                     0.3383       -0.791363
1.486                   0.335375       -0.790835
1.487                   0.332581       -0.790244
1.488                   0.329926       -0.789598
1.489                   0.327417       -0.788909
1.49                    0.325061       -0.788189
1.491                   0.322862       -0.787452
1.492                   0.320824       -0.786712
1.493                   0.318951       -0.785984
1.494                   0.317245       -0.785285
1.495                   0.315705       -0.784632
1.496                   0.314329       -0.784044
1.497                   0.313113       -0.783536
1.498                   0.312049       -0.783129
1.499                    0.31113        -0.78284
1.5                     0.310343       -0.782685
1.501                   0.309676        -0.78268
1.502                   0.309111        -0.78284
1.503                   0.308632       -0.783177
1.504                   0.308219       -0.783701
1.505                   0.307849        -0.78442
1.506                   0.307502        -0.78534
1.507                   0.307153       -0.786462
1.508                    0.30678       -0.787785
1.509                    0.30636       -0.789306
1.51                     0.30587       -0.791016
1.511                   0.305289       -0.792906
1.512                   0.304598       -0.794963
1.513                   0.303779       -0.797171
1.514                   0.302817       -0.799514
1.515                   0.301699       -0.801971
1.516                   0.300416       -0.804522
1.517                   0.298963       -0.807145
1.518                   0.297335        -0.80982
1.519                   0.295533       -0.812524
1.52                     0.29356       -0.815236
1.521                   0.291422       -0.817938
1.522                   0.289128       -0.820612
1.523                   0.286689       -0.823241
1.524                   0.284117       -0.825811
1.525                   0.281427       -0.828313
1.526                   0.278634       -0.830738
1.527                   0.275753        -0.83308
1.528                     0.2728       -0.835337
1.529                    0.26979       -0.837509
1.53                    0.266738       -0.839598
1.531                   0.263655        -0.84161
1.532                   0.260554        -0.84355
1.533                   0.257443       -0.845428
1.534                   0.254329       -0.847252
1.535                   0.251216       -0.849033
1.536                   0.248108        -0.85078
1.537                   0.245005       -0.852504
1.538                   0.241903       -0.854214
1.539                     0.2388       -0.855918
1.54                    0.235689       -0.857623
1.541                   0.232565       -0.859335
1.542                   0.229419       -0.861057
1.543                   0.226242        -0.86279
1.544                   0.223027       -0.864536
1.545                   0.219765        -0.86629
1.546                   0.216449       -0.868051
1.547                   0.213072       -0.869811
1.548                   0.209628       -0.871563
1.549                   0.206113       -0.873301
1.55                    0.202526       -0.875014
1.551                   0.198866       -0.876695
1.552                   0.195135       -0.878333
1.553                   0.191335       -0.879921
1.554                   0.187472       -0.881451
1.555                   0.183551       -0.882915
1.556                    0.17958       -0.884308
1.557                   0.175566       -0.885627
1.558                    0.17152       -0.886869
1.559                   0.167448       -0.888034
1.56                    0.163361       -0.889124
1.561                   0.159265       -0.890141
1.562                   0.155168        -0.89109
1.563                   0.151075       -0.891977
1.564                    0.14699       -0.892809
1.565                   0.142915       -0.893594
1.566                   0.138851       -0.894339
1.567                   0.134796       -0.895053
1.568                   0.130746       -0.895742
1.569                   0.126696       -0.896412
1.57                    0.122639        -0.89707
1.571                   0.118566       -0.897717
1.572                   0.114468       -0.898355
1.573                   0.110335       -0.898983
1.574                   0.106156       -0.899598
1.575                   0.101921       -0.900193
1.576                  0.0976213       -0.900761
1.577                  0.0932489       -0.901291
1.578                   0.088797        -0.90177
1.579                  0.0842618       -0.902183
1.58                   0.0796413       -0.902515
1.581                  0.0749366       -0.902749
1.582                  0.0701522       -0.902866
1.583                   0.065295        -0.90285
1.584                  0.0603761       -0.902683
1.585                   0.055409        -0.90235
1.586                    0.05041       -0.901836
1.587                  0.0453994       -0.901129
1.588                  0.0403987       -0.900222
1.589                  0.0354316       -0.899106
1.59                   0.0305237        -0.89778
1.591                  0.0257011       -0.896245
1.592                  0.0209905       -0.894507
1.593                  0.0164176       -0.892574
1.594                  0.0120078       -0.890459
1.595                  0.0077845       -0.888181
1.596                 0.00376891       -0.885758
1.597               -2.02893e-05       -0.883216
1.598                -0.00356805        -0.88058
1.599                -0.00686299        -0.87788
1.6                  -0.00989771       -0.875145
1.601                 -0.0126687       -0.872408
1.602                 -0.0151775         -0.8697
1.603                   -0.01743       -0.867053
1.604                  -0.019436       -0.864497
1.605                 -0.0212101       -0.862062
1.606                 -0.0227703       -0.859774
1.607                 -0.0241386       -0.857659
1.608                 -0.0253393       -0.855736
1.609                 -0.0264002       -0.854022
1.61                  -0.0273505       -0.852532
1.611                 -0.0282211       -0.851274
1.612                 -0.0290434       -0.850253
1.613                 -0.0298491        -0.84947
1.614                  -0.030669       -0.848919
1.615                 -0.0315333       -0.848595
1.616                   -0.03247       -0.848484
1.617                  -0.033505       -0.848571
1.618                  -0.034662       -0.848838
1.619                 -0.0359609       -0.849264
1.62                   -0.037419       -0.849824
1.621                 -0.0390494       -0.850495
1.622                 -0.0408622       -0.851251
1.623                 -0.0428631       -0.852064
1.624                 -0.0450546       -0.852908
1.625                 -0.0474356       -0.853757
1.626                 -0.0500017       -0.854585
1.627                  -0.052745        -0.85537
1.628                 -0.0556556       -0.856089
1.629                 -0.0587201       -0.856721
1.63                  -0.0619244        -0.85725
1.631                 -0.0652512        -0.85766
1.632                  -0.068683       -0.857938
1.633                 -0.0722008       -0.858075
1.634                 -0.0757854       -0.858063
1.635                 -0.0794172       -0.857896
1.636                 -0.0830773       -0.857574
1.637                 -0.0867463       -0.857095
1.638                 -0.0904057       -0.856462
1.639                 -0.0940391       -0.855678
1.64                  -0.0976298        -0.85475
1.641                  -0.101163       -0.853685
1.642                  -0.104624       -0.852492
1.643                  -0.108002        -0.85118
1.644                  -0.111285       -0.849759
1.645                  -0.114464       -0.848242
1.646                   -0.11753       -0.846639
1.647                  -0.120477       -0.844964
1.648                  -0.123299       -0.843228
1.649                  -0.125991       -0.841444
1.65                   -0.128552       -0.839626
1.651                  -0.130978       -0.837785
1.652                  -0.133268       -0.835935
1.653                  -0.135424       -0.834089
1.654                  -0.137445       -0.832257
1.655                  -0.139335       -0.830453
1.656                  -0.141095       -0.828689
1.657                  -0.142732       -0.826976
1.658                  -0.144248       -0.825326
1.659                  -0.145651        -0.82375
1.66                   -0.146947       -0.822257
1.661                  -0.148144       -0.820858
1.662                  -0.149252       -0.819562
1.663                  -0.150279       -0.818377
1.664                  -0.151237       -0.817312
1.665                  -0.152137       -0.816372
1.666                  -0.152991       -0.815564
1.667                  -0.153812       -0.814891
1.668                  -0.154613       -0.814357
1.669                  -0.155408       -0.813963
1.67                   -0.156211       -0.813711
1.671                  -0.157036       -0.813597
1.672                  -0.157897       -0.813621
1.673                  -0.158808       -0.813778
1.674                  -0.159781       -0.814061
1.675                   -0.16083       -0.814464
1.676                  -0.161966       -0.814978
1.677                  -0.163199       -0.815593
1.678                  -0.164539       -0.816299
1.679                  -0.165994       -0.817082
1.68                    -0.16757       -0.817931
1.681                  -0.169273       -0.818832
1.682                  -0.171105        -0.81977
1.683                  -0.173067       -0.820733
1.684                  -0.175161       -0.821707
1.685                  -0.177383       -0.822677
1.686                  -0.179731       -0.823631
1.687                  -0.182199       -0.824557
1.688                  -0.184782       -0.825443
1.689                  -0.187471        -0.82628
1.69                   -0.190258       -0.827058
1.691                  -0.193134        -0.82777
1.692                  -0.196088        -0.82841
1.693                  -0.199111       -0.828974
1.694                  -0.202192       -0.829458
1.695                   -0.20532       -0.829862
1.696                  -0.208486       -0.830184
1.697                  -0.211681       -0.830428
1.698                  -0.214894       -0.830594
1.699                  -0.218118       -0.830687
1.7                    -0.221348       -0.830712
1.701                  -0.224575       -0.830673
1.702                  -0.227796       -0.830576
1.703                  -0.231007       -0.830427
1.704                  -0.234206       -0.830233
1.705                  -0.237392       -0.829999
1.706                  -0.240564       -0.829731
1.707                  -0.243723       -0.829434
1.708                  -0.246872       -0.829114
1.709                  -0.250012       -0.828773
1.71                   -0.253147       -0.828415
1.711                  -0.256279       -0.828042
1.712                  -0.259413       -0.827656
1.713                  -0.262551       -0.827257
1.714                  -0.265698       -0.826844
1.715                  -0.268855       -0.826417
1.716                  -0.272027       -0.825973
1.717                  -0.275214        -0.82551
1.718                  -0.278417       -0.825025
1.719                  -0.281639       -0.824515
1.72                   -0.284878       -0.823977
1.721                  -0.288133       -0.823408
1.722                  -0.291402       -0.822805
1.723                  -0.294685       -0.822166
1.724                  -0.297976       -0.821488
1.725                  -0.301274        -0.82077
1.726                  -0.304574       -0.820011
1.727                  -0.307873       -0.819213
1.728                  -0.311168       -0.818376
1.729                  -0.314454       -0.817502
1.73                    -0.31773       -0.816593
1.731                  -0.320991       -0.815653
1.732                  -0.324238       -0.814685
1.733                   -0.32747       -0.813695
1.734                  -0.330685       -0.812685
1.735                  -0.333887       -0.811661
1.736                  -0.337077       -0.810627
1.737                  -0.340258       -0.809587
1.738                  -0.343435       -0.808544
1.739                  -0.346613         -0.8075
1.74                   -0.349799       -0.806456
1.741                  -0.352998       -0.805413
1.742                  -0.356218        -0.80437
1.743                  -0.359466       -0.803323
1.744                  -0.362748       -0.802267
1.745                  -0.366072       -0.801198
1.746                  -0.369441       -0.800108
1.747                  -0.372862       -0.798988
1.748                  -0.376336       -0.797827
1.749                  -0.379866       -0.796615
1.75                   -0.383452        -0.79534
1.751                   -0.38709        -0.79399
1.752                  -0.390776       -0.792551
1.753                  -0.394504       -0.791011
1.754                  -0.398264        -0.78936
1.755                  -0.402046       -0.787585
1.756                  -0.405836       -0.785679
1.757                  -0.409618       -0.783632
1.758                  -0.413375        -0.78144
1.759                   -0.41709       -0.779099
1.76                   -0.420744       -0.776609
1.761                  -0.424315       -0.773973
1.762                  -0.427785       -0.771196
1.763                  -0.431135       -0.768287
1.764                  -0.434344       -0.765257
1.765                  -0.437395       -0.762122
1.766                  -0.440275       -0.758898
1.767                  -0.442969       -0.755606
1.768                  -0.445466       -0.752267
1.769                   -0.44776       -0.748906
1.77                   -0.449846       -0.745548
1.771                  -0.451725       -0.742219
1.772                  -0.453399       -0.738946
1.773                  -0.454876       -0.735755
1.774                  -0.456168        -0.73267
1.775                  -0.457287       -0.729716
1.776                  -0.458254       -0.726914
1.777                  -0.459089       -0.724283
1.778                  -0.459816        -0.72184
1.779                  -0.460461       -0.719596
1.78                   -0.461053       -0.717562
1.781                  -0.461621       -0.715741
1.782                  -0.462195       -0.714134
1.783                  -0.462805       -0.712737
1.784                  -0.463479       -0.711542
1.785                  -0.464245       -0.710538
1.786                   -0.46513       -0.709708
1.787                  -0.466156       -0.709033
1.788                  -0.467345       -0.708489
1.789                  -0.468711       -0.708053
1.79                   -0.470269       -0.707695
1.791                  -0.472029       -0.707388
1.792                  -0.473993       -0.707102
1.793                  -0.476163       -0.706807
1.794                  -0.478535       -0.706472
1.795                  -0.481101       -0.706069
1.796                  -0.483849       -0.705571
1.797                  -0.486764       -0.704953
1.798                  -0.489827       -0.704193
1.799                  -0.493016       -0.703271
1.8                    -0.496308       -0.702172
1.801                  -0.499677       -0.700882
1.802                  -0.503097       -0.699393
1.803                  -0.506541         -0.6977
1.804                   -0.50998       -0.695803
1.805                  -0.513388       -0.693704
1.806                   -0.51674        -0.69141
1.807                  -0.520011       -0.688928
1.808                  -0.523179       -0.686274
1.809                  -0.526222        -0.68346
1.81                   -0.529124       -0.680506
1.811                  -0.531869       -0.677429
1.812                  -0.534446       -0.674251
1.813                  -0.536844       -0.670992
1.814                  -0.539058       -0.667676
1.815                  -0.541084       -0.664323
1.816                  -0.542921       -0.660956
1.817                  -0.544572       -0.657596
1.818                  -0.546041       -0.654264
1.819                  -0.547334       -0.650978
1.82                    -0.54846       -0.647756
1.821                  -0.549429       -0.644614
1.822                  -0.550253       -0.641567
1.823                  -0.550945       -0.638628
1.824                  -0.551518       -0.635807
1.825                  -0.551987       -0.633113
1.826                  -0.552367       -0.630555
1.827                  -0.552672       -0.628137
1.828                  -0.552917       -0.625864
1.829                  -0.553118       -0.623739
1.83                    -0.55329       -0.621761
1.831                  -0.553446       -0.619932
1.832                  -0.553601        -0.61825
1.833                  -0.553768       -0.616712
1.834                  -0.553961       -0.615314
1.835                  -0.554191       -0.614052
1.836                   -0.55447       -0.612919
1.837                   -0.55481        -0.61191
1.838                  -0.555221       -0.611017
1.839                  -0.555712       -0.610231
1.84                   -0.556292       -0.609543
1.841                  -0.556969       -0.608945
1.842                  -0.557751       -0.608425
1.843                  -0.558643       -0.607972
1.844                   -0.55965       -0.607576
1.845                  -0.560776       -0.607224
1.846                  -0.562024       -0.606903
1.847                  -0.563395       -0.606603
1.848                  -0.564889       -0.606309
1.849                  -0.566505        -0.60601
1.85                    -0.56824       -0.605693
1.851                   -0.57009       -0.605348
1.852                   -0.57205       -0.604961
1.853                  -0.574113       -0.604524
1.854                  -0.576273       -0.604026
1.855                  -0.578519        -0.60346
1.856                  -0.580843       -0.602817
1.857                  -0.583234       -0.602092
1.858                  -0.585683       -0.601281
1.859                  -0.588176        -0.60038
1.86                   -0.590705       -0.599387
1.861                  -0.593256       -0.598304
1.862                  -0.595821       -0.597131
1.863                  -0.598389       -0.595871
1.864                   -0.60095       -0.594528
1.865                  -0.603496       -0.593107
1.866                  -0.606021       -0.591614
1.867                  -0.608517       -0.590057
1.868                   -0.61098       -0.588443
1.869                  -0.613407       -0.586778
1.87                   -0.615795       -0.585071
1.871                  -0.618144        -0.58333
1.872                  -0.620453       -0.581561
1.873                  -0.622725       -0.579772
1.874                   -0.62496       -0.577968
1.875                  -0.627163       -0.576154
1.876                  -0.629336       -0.574336
1.877                  -0.631484       -0.572516
1.878                  -0.633611       -0.570697
1.879                  -0.635721       -0.568881
1.88                   -0.637818       -0.567067
1.881                  -0.639906       -0.565257
1.882                  -0.641987       -0.563449
1.883                  -0.644065       -0.561643
1.884                  -0.646141       -0.559837
1.885                  -0.648216       -0.558031
1.886                  -0.650293       -0.556221
1.887                   -0.65237       -0.554407
1.888                  -0.654447       -0.552589
1.889                  -0.656525       -0.550766
1.89                   -0.658603       -0.548938
1.891                  -0.660679       -0.547106
1.892                  -0.662754       -0.545271
1.893                  -0.664827       -0.543436
1.894                    -0.6669       -0.541602
1.895                  -0.668973       -0.539772
1.896                   -0.67105        -0.53795
1.897                  -0.673132       -0.536137
1.898                  -0.675224       -0.534338
1.899                  -0.677331       -0.532553
1.9                     -0.67946       -0.530784
1.901                  -0.681618       -0.529032
1.902                  -0.683812       -0.527295
1.903                   -0.68605       -0.525571
1.904                  -0.688342       -0.523855
1.905                  -0.690696       -0.522144
1.906                  -0.693119       -0.520427
1.907                   -0.69562       -0.518697
1.908                  -0.698204       -0.516941
1.909                  -0.700876       -0.515147
1.91                    -0.70364         -0.5133
1.911                  -0.706496       -0.511386
1.912                  -0.709443       -0.509386
1.913                  -0.712476       -0.507284
1.914                   -0.71559       -0.505064
1.915                  -0.718773       -0.502708
1.916                  -0.722015         -0.5002
1.917                  -0.725298       -0.497527
1.918                  -0.728605       -0.494674
1.919                  -0.731915       -0.491633
1.92                   -0.735207       -0.488395
1.921                  -0.738456       -0.484955
1.922                  -0.741636       -0.481313
1.923                   -0.74472       -0.477472
1.924                  -0.747685       -0.473438
1.925                  -0.750503        -0.46922
1.926                   -0.75315       -0.464834
1.927                  -0.755603       -0.460297
1.928                  -0.757841        -0.45563
1.929                  -0.759848       -0.450857
1.93                   -0.761608       -0.446006
1.931                  -0.763111       -0.441105
1.932                   -0.76435       -0.436186
1.933                  -0.765324       -0.431279
1.934                  -0.766033       -0.426418
1.935                  -0.766486       -0.421634
1.936                  -0.766693       -0.416958
1.937                  -0.766669       -0.412418
1.938                  -0.766434       -0.408042
1.939                  -0.766011       -0.403853
1.94                   -0.765425       -0.399872
1.941                  -0.764707       -0.396115
1.942                  -0.763886       -0.392595
1.943                  -0.762995       -0.389319
1.944                  -0.762066       -0.386292
1.945                  -0.761132       -0.383511
1.946                  -0.760225       -0.380971
1.947                  -0.759376       -0.378661
1.948                  -0.758612       -0.376568
1.949                  -0.757962       -0.374673
1.95                   -0.757447       -0.372954
1.951                  -0.757086       -0.371388
1.952                  -0.756896       -0.369949
1.953                  -0.756887       -0.368608
1.954                  -0.757068       -0.367337
1.955                  -0.757441       -0.366107
1.956                  -0.758006       -0.364888
1.957                  -0.758756       -0.363655
1.958                  -0.759684        -0.36238
1.959                  -0.760777       -0.361039
1.96                    -0.76202       -0.359611
1.961                  -0.763395       -0.358076
1.962                  -0.764883        -0.35642
1.963                  -0.766462        -0.35463
1.964                  -0.768109       -0.352697
1.965                  -0.769803       -0.350615
1.966                   -0.77152       -0.348382
1.967                  -0.773238       -0.345999
1.968                  -0.774936        -0.34347
1.969                  -0.776595       -0.340803
1.97                   -0.778195       -0.338005
1.971                  -0.779722       -0.335089
1.972                  -0.781161       -0.332068
1.973                  -0.782501       -0.328955
1.974                  -0.783733       -0.325766
1.975                  -0.784849       -0.322517
1.976                  -0.785845       -0.319224
1.977                   -0.78672       -0.315902
1.978                  -0.787472       -0.312567
1.979                  -0.788105       -0.309233
1.98                   -0.788621       -0.305914
1.981                  -0.789025       -0.302623
1.982                  -0.789324        -0.29937
1.983                  -0.789525       -0.296166
1.984                  -0.789635       -0.293019
1.985                  -0.789664       -0.289937
1.986                  -0.789619       -0.286926
1.987                  -0.789511        -0.28399
1.988                  -0.789346       -0.281134
1.989                  -0.789136       -0.278359
1.99                   -0.788887       -0.275669
1.991                  -0.788608       -0.273063
1.992                  -0.788306       -0.270543
1.993                   -0.78799       -0.268108
1.994                  -0.787666       -0.265757
1.995                  -0.787342       -0.263489
1.996                  -0.787022       -0.261303
1.997                  -0.786715       -0.259198
1.998                  -0.786426       -0.257171
1.999                  -0.786161        -0.25522
2                      -0.785925       -0.253343
