! TOUCHSTONE file generated by CST MICROWAVE STUDIO
! Date and time: Sat Aug  1 23:57:45 2026
! Project name: Sonda-Coaxial_21mm_DisifixB_v2_Alchol.cst
! Parameters = {h_recipiente=20; l_conector=50; r_arandela=35; r_ext=10.5; r_int=3; r_recipiente=100; z_recipiente=-10}
! Header version: 2018
! Port assignment regex: !\s*Touchstone port\s*([0-9]+)\s*=\s*(CST MWS port|CST DS port)\s*([0-9]+|Zmin|Zmax)\s*\(\"(.*)\"\)(\s*mode\s*([0-9]+))?.*
! Touchstone port assignment:
! Touchstone port 1 = CST MWS port 1 ("")
# GHz S RI R 50
0.001                   0.962566     -0.00627645
0.002                   0.962545      -0.0125508
0.003                    0.96251      -0.0188209
0.004                   0.962461      -0.0250847
0.005                   0.962396      -0.0313402
0.006                   0.962316      -0.0375855
0.007                   0.962218      -0.0438188
0.008                   0.962103      -0.0500385
0.009                   0.961969      -0.0562429
0.01                    0.961814      -0.0624307
0.011                   0.961638      -0.0686006
0.012                   0.961439      -0.0747516
0.013                   0.961215      -0.0808825
0.014                   0.960966      -0.0869927
0.015                    0.96069      -0.0930815
0.016                   0.960385      -0.0991483
0.017                   0.960051       -0.105193
0.018                   0.959685       -0.111215
0.019                   0.959287       -0.117214
0.02                    0.958855        -0.12319
0.021                   0.958389       -0.129143
0.022                   0.957887       -0.135073
0.023                   0.957349       -0.140981
0.024                   0.956773       -0.146867
0.025                   0.956159        -0.15273
0.026                   0.955506       -0.158572
0.027                   0.954813       -0.164392
0.028                    0.95408       -0.170191
0.029                   0.953307       -0.175969
0.03                    0.952493       -0.181726
0.031                   0.951637       -0.187463
0.032                    0.95074       -0.193181
0.033                     0.9498       -0.198879
0.034                   0.948819       -0.204558
0.035                   0.947796       -0.210219
0.036                    0.94673       -0.215861
0.037                   0.945623       -0.221484
0.038                   0.944473        -0.22709
0.039                   0.943281       -0.232678
0.04                    0.942046       -0.238248
0.041                    0.94077       -0.243802
0.042                   0.939452       -0.249338
0.043                   0.938092       -0.254857
0.044                    0.93669       -0.260359
0.045                   0.935248       -0.265844
0.046                   0.933764       -0.271313
0.047                   0.932238       -0.276765
0.048                   0.930673         -0.2822
0.049                   0.929066       -0.287619
0.05                     0.92742       -0.293022
0.051                   0.925733       -0.298408
0.052                   0.924007       -0.303777
0.053                   0.922241        -0.30913
0.054                   0.920435       -0.314466
0.055                   0.918591       -0.319786
0.056                   0.916708       -0.325088
0.057                   0.914786       -0.330374
0.058                   0.912827       -0.335643
0.059                   0.910829       -0.340895
0.06                    0.908794        -0.34613
0.061                   0.906721       -0.351347
0.062                   0.904611       -0.356547
0.063                   0.902464       -0.361729
0.064                   0.900281       -0.366894
0.065                   0.898061       -0.372041
0.066                   0.895806        -0.37717
0.067                   0.893514        -0.38228
0.068                   0.891187       -0.387373
0.069                   0.888825       -0.392446
0.07                    0.886427       -0.397502
0.071                   0.883995       -0.402538
0.072                   0.881529       -0.407555
0.073                   0.879028       -0.412553
0.074                   0.876494       -0.417532
0.075                   0.873926       -0.422491
0.076                   0.871324        -0.42743
0.077                   0.868689        -0.43235
0.078                   0.866021       -0.437249
0.079                   0.863321       -0.442128
0.08                    0.860588       -0.446986
0.081                   0.857823       -0.451824
0.082                   0.855027       -0.456641
0.083                   0.852198       -0.461437
0.084                   0.849339       -0.466211
0.085                   0.846448       -0.470964
0.086                   0.843526       -0.475696
0.087                   0.840574       -0.480405
0.088                   0.837591       -0.485093
0.089                   0.834578       -0.489758
0.09                    0.831535       -0.494401
0.091                   0.828463       -0.499022
0.092                   0.825361       -0.503619
0.093                    0.82223       -0.508194
0.094                   0.819071       -0.512745
0.095                   0.815882       -0.517274
0.096                   0.812666       -0.521778
0.097                   0.809421       -0.526259
0.098                   0.806148       -0.530717
0.099                   0.802848        -0.53515
0.1                      0.79952       -0.539559
0.101                   0.796165       -0.543944
0.102                   0.792783       -0.548304
0.103                   0.789375       -0.552639
0.104                    0.78594        -0.55695
0.105                   0.782479       -0.561235
0.106                   0.778993       -0.565496
0.107                    0.77548       -0.569731
0.108                   0.771942        -0.57394
0.109                   0.768379       -0.578124
0.11                    0.764791       -0.582282
0.111                   0.761179       -0.586415
0.112                   0.757542       -0.590521
0.113                   0.753881         -0.5946
0.114                   0.750196       -0.598654
0.115                   0.746487       -0.602681
0.116                   0.742755       -0.606681
0.117                      0.739       -0.610654
0.118                   0.735221         -0.6146
0.119                    0.73142       -0.618519
0.12                    0.727597       -0.622412
0.121                   0.723751       -0.626276
0.122                   0.719884       -0.630113
0.123                   0.715995       -0.633923
0.124                   0.712085       -0.637704
0.125                   0.708153       -0.641458
0.126                     0.7042       -0.645184
0.127                   0.700228       -0.648882
0.128                   0.696234       -0.652551
0.129                    0.69222       -0.656193
0.13                    0.688186       -0.659806
0.131                   0.684133        -0.66339
0.132                    0.68006       -0.666946
0.133                   0.675968       -0.670473
0.134                   0.671857       -0.673971
0.135                   0.667727        -0.67744
0.136                    0.66358        -0.68088
0.137                   0.659414       -0.684291
0.138                   0.655229       -0.687673
0.139                   0.651028       -0.691026
0.14                    0.646808       -0.694349
0.141                   0.642572       -0.697642
0.142                   0.638319       -0.700906
0.143                   0.634049       -0.704141
0.144                   0.629763       -0.707345
0.145                   0.625461        -0.71052
0.146                   0.621142       -0.713665
0.147                   0.616808        -0.71678
0.148                   0.612458       -0.719865
0.149                   0.608094        -0.72292
0.15                    0.603715       -0.725945
0.151                    0.59932        -0.72894
0.152                   0.594912       -0.731904
0.153                   0.590489       -0.734838
0.154                   0.586052       -0.737742
0.155                   0.581602       -0.740615
0.156                   0.577138       -0.743457
0.157                   0.572661       -0.746269
0.158                   0.568171       -0.749051
0.159                   0.563669       -0.751802
0.16                    0.559154       -0.754523
0.161                   0.554627       -0.757212
0.162                   0.550087       -0.759871
0.163                   0.545536       -0.762499
0.164                   0.540974       -0.765097
0.165                     0.5364       -0.767663
0.166                   0.531816       -0.770199
0.167                   0.527221       -0.772704
0.168                   0.522615       -0.775177
0.169                   0.517999        -0.77762
0.17                    0.513373       -0.780032
0.171                   0.508737       -0.782413
0.172                   0.504092       -0.784763
0.173                   0.499438       -0.787082
0.174                   0.494774        -0.78937
0.175                   0.490102       -0.791627
0.176                   0.485421       -0.793853
0.177                   0.480732       -0.796048
0.178                   0.476034       -0.798211
0.179                   0.471329       -0.800344
0.18                    0.466616       -0.802446
0.181                   0.461896       -0.804516
0.182                   0.457169       -0.806556
0.183                   0.452435       -0.808564
0.184                   0.447694       -0.810542
0.185                   0.442947       -0.812488
0.186                   0.438193       -0.814404
0.187                   0.433434       -0.816288
0.188                   0.428669       -0.818142
0.189                   0.423898       -0.819964
0.19                    0.419122       -0.821756
0.191                   0.414341       -0.823516
0.192                   0.409555       -0.825246
0.193                   0.404765       -0.826945
0.194                    0.39997       -0.828613
0.195                   0.395171        -0.83025
0.196                   0.390368       -0.831856
0.197                   0.385561       -0.833432
0.198                   0.380751       -0.834977
0.199                   0.375938       -0.836491
0.2                     0.371121       -0.837974
0.201                   0.366302       -0.839427
0.202                    0.36148       -0.840849
0.203                   0.356656       -0.842241
0.204                   0.351829       -0.843602
0.205                   0.347001       -0.844933
0.206                   0.342171       -0.846233
0.207                   0.337339       -0.847503
0.208                   0.332506       -0.848743
0.209                   0.327672       -0.849952
0.21                    0.322837       -0.851131
0.211                   0.318001        -0.85228
0.212                   0.313165         -0.8534
0.213                   0.308329       -0.854488
0.214                   0.303492       -0.855547
0.215                   0.298656       -0.856576
0.216                    0.29382       -0.857576
0.217                   0.288984       -0.858545
0.218                   0.284149       -0.859485
0.219                   0.279316       -0.860394
0.22                    0.274483       -0.861275
0.221                   0.269652       -0.862126
0.222                   0.264822       -0.862947
0.223                   0.259994       -0.863739
0.224                   0.255168       -0.864502
0.225                   0.250344       -0.865235
0.226                   0.245522       -0.865939
0.227                   0.240703       -0.866615
0.228                   0.235887       -0.867261
0.229                   0.231073       -0.867878
0.23                    0.226263       -0.868466
0.231                   0.221456       -0.869026
0.232                   0.216652       -0.869557
0.233                   0.211851       -0.870059
0.234                   0.207055       -0.870533
0.235                   0.202263       -0.870979
0.236                   0.197474       -0.871396
0.237                   0.192691       -0.871785
0.238                   0.187911       -0.872145
0.239                   0.183137       -0.872478
0.24                    0.178367       -0.872782
0.241                   0.173603       -0.873059
0.242                   0.168843       -0.873308
0.243                   0.164089       -0.873529
0.244                   0.159341       -0.873723
0.245                   0.154598       -0.873889
0.246                   0.149861       -0.874028
0.247                   0.145131       -0.874139
0.248                   0.140406       -0.874224
0.249                   0.135688       -0.874281
0.25                    0.130977       -0.874311
0.251                   0.126272       -0.874314
0.252                   0.121574       -0.874291
0.253                   0.116883       -0.874241
0.254                     0.1122       -0.874164
0.255                   0.107523       -0.874061
0.256                   0.102855       -0.873931
0.257                  0.0981936       -0.873775
0.258                  0.0935402       -0.873593
0.259                  0.0888948       -0.873385
0.26                   0.0842576       -0.873151
0.261                  0.0796288       -0.872892
0.262                  0.0750085       -0.872606
0.263                  0.0703965       -0.872295
0.264                  0.0657932       -0.871959
0.265                  0.0611987       -0.871597
0.266                  0.0566132       -0.871209
0.267                  0.0520369       -0.870797
0.268                  0.0474701        -0.87036
0.269                  0.0429124       -0.869898
0.27                   0.0383643       -0.869411
0.271                  0.0338259       -0.868899
0.272                  0.0292972       -0.868363
0.273                  0.0247784       -0.867803
0.274                  0.0202699       -0.867218
0.275                  0.0157715       -0.866609
0.276                  0.0112833       -0.865976
0.277                 0.00680554       -0.865319
0.278                 0.00233868       -0.864638
0.279                -0.00211796       -0.863934
0.28                 -0.00656344       -0.863206
0.281                 -0.0109981       -0.862454
0.282                 -0.0154217        -0.86168
0.283                 -0.0198339       -0.860882
0.284                 -0.0242348       -0.860061
0.285                 -0.0286246       -0.859217
0.286                 -0.0330026        -0.85835
0.287                 -0.0373693       -0.857461
0.288                 -0.0417239       -0.856549
0.289                 -0.0460668       -0.855614
0.29                  -0.0503978       -0.854658
0.291                 -0.0547166       -0.853679
0.292                 -0.0590232       -0.852678
0.293                 -0.0633175       -0.851655
0.294                 -0.0675995        -0.85061
0.295                 -0.0718688       -0.849544
0.296                 -0.0761257       -0.848456
0.297                 -0.0803698       -0.847347
0.298                 -0.0846011       -0.846217
0.299                 -0.0888194       -0.845065
0.3                   -0.0930248       -0.843892
0.301                 -0.0972173       -0.842699
0.302                  -0.101396       -0.841485
0.303                  -0.105562        -0.84025
0.304                  -0.109715       -0.838995
0.305                  -0.113854       -0.837719
0.306                  -0.117979       -0.836423
0.307                  -0.122091       -0.835107
0.308                  -0.126189       -0.833771
0.309                  -0.130274       -0.832416
0.31                   -0.134344        -0.83104
0.311                    -0.1384       -0.829645
0.312                  -0.142443       -0.828231
0.313                  -0.146471       -0.826797
0.314                  -0.150485       -0.825344
0.315                  -0.154485       -0.823873
0.316                   -0.15847       -0.822382
0.317                  -0.162441       -0.820872
0.318                  -0.166397       -0.819344
0.319                  -0.170339       -0.817798
0.32                   -0.174266       -0.816233
0.321                  -0.178179        -0.81465
0.322                  -0.182076       -0.813049
0.323                  -0.185959       -0.811429
0.324                  -0.189827       -0.809792
0.325                   -0.19368       -0.808138
0.326                  -0.197517       -0.806466
0.327                   -0.20134       -0.804776
0.328                  -0.205147       -0.803069
0.329                  -0.208939       -0.801345
0.33                   -0.212716       -0.799604
0.331                  -0.216478       -0.797846
0.332                  -0.220224       -0.796071
0.333                  -0.223954        -0.79428
0.334                  -0.227669       -0.792472
0.335                  -0.231368       -0.790648
0.336                  -0.235052       -0.788807
0.337                   -0.23872       -0.786951
0.338                  -0.242372       -0.785078
0.339                  -0.246009        -0.78319
0.34                   -0.249629       -0.781286
0.341                  -0.253234       -0.779366
0.342                  -0.256823       -0.777431
0.343                  -0.260395       -0.775481
0.344                  -0.263952       -0.773516
0.345                  -0.267493       -0.771535
0.346                  -0.271017        -0.76954
0.347                  -0.274526        -0.76753
0.348                  -0.278018       -0.765505
0.349                  -0.281493       -0.763465
0.35                   -0.284953       -0.761412
0.351                  -0.288396       -0.759344
0.352                  -0.291823       -0.757262
0.353                  -0.295233       -0.755165
0.354                  -0.298627       -0.753055
0.355                  -0.302005       -0.750932
0.356                  -0.305366       -0.748794
0.357                   -0.30871       -0.746643
0.358                  -0.312038       -0.744479
0.359                   -0.31535       -0.742302
0.36                   -0.318644       -0.740111
0.361                  -0.321922       -0.737908
0.362                  -0.325184       -0.735691
0.363                  -0.328428       -0.733462
0.364                  -0.331656       -0.731221
0.365                  -0.334867       -0.728967
0.366                  -0.338062         -0.7267
0.367                   -0.34124       -0.724421
0.368                    -0.3444       -0.722131
0.369                  -0.347544       -0.719828
0.37                   -0.350671       -0.717513
0.371                  -0.353781       -0.715187
0.372                  -0.356875       -0.712849
0.373                  -0.359951       -0.710499
0.374                  -0.363011       -0.708139
0.375                  -0.366053       -0.705767
0.376                  -0.369079       -0.703383
0.377                  -0.372087       -0.700989
0.378                  -0.375079       -0.698584
0.379                  -0.378053       -0.696169
0.38                   -0.381011       -0.693742
0.381                  -0.383951       -0.691305
0.382                  -0.386875       -0.688858
0.383                  -0.389781         -0.6864
0.384                  -0.392671       -0.683933
0.385                  -0.395543       -0.681455
0.386                  -0.398398       -0.678967
0.387                  -0.401236        -0.67647
0.388                  -0.404057       -0.673963
0.389                  -0.406861       -0.671446
0.39                   -0.409648        -0.66892
0.391                  -0.412418       -0.666384
0.392                  -0.415171        -0.66384
0.393                  -0.417907       -0.661286
0.394                  -0.420625       -0.658723
0.395                  -0.423326       -0.656151
0.396                  -0.426011       -0.653571
0.397                  -0.428678       -0.650982
0.398                  -0.431328       -0.648384
0.399                  -0.433961       -0.645778
0.4                    -0.436577       -0.643164
0.401                  -0.439176       -0.640541
0.402                  -0.441758        -0.63791
0.403                  -0.444323       -0.635271
0.404                   -0.44687       -0.632625
0.405                  -0.449401       -0.629971
0.406                  -0.451914       -0.627309
0.407                  -0.454411       -0.624639
0.408                   -0.45689       -0.621962
0.409                  -0.459353       -0.619278
0.41                   -0.461798       -0.616586
0.411                  -0.464227       -0.613887
0.412                  -0.466638       -0.611182
0.413                  -0.469032       -0.608469
0.414                   -0.47141       -0.605749
0.415                   -0.47377       -0.603023
0.416                  -0.476114        -0.60029
0.417                   -0.47844       -0.597551
0.418                   -0.48075       -0.594806
0.419                  -0.483043       -0.592053
0.42                   -0.485318       -0.589295
0.421                  -0.487577       -0.586531
0.422                  -0.489819       -0.583761
0.423                  -0.492045       -0.580985
0.424                  -0.494253       -0.578203
0.425                  -0.496444       -0.575415
0.426                  -0.498619       -0.572622
0.427                  -0.500777       -0.569823
0.428                  -0.502918       -0.567019
0.429                  -0.505043        -0.56421
0.43                   -0.507151       -0.561395
0.431                  -0.509242       -0.558575
0.432                  -0.511316       -0.555751
0.433                  -0.513374       -0.552921
0.434                  -0.515415       -0.550086
0.435                  -0.517439       -0.547247
0.436                  -0.519447       -0.544403
0.437                  -0.521438       -0.541555
0.438                  -0.523413       -0.538702
0.439                  -0.525372       -0.535845
0.44                   -0.527313       -0.532983
0.441                  -0.529239       -0.530117
0.442                  -0.531147       -0.527247
0.443                   -0.53304       -0.524374
0.444                  -0.534916       -0.521496
0.445                  -0.536775       -0.518614
0.446                  -0.538619       -0.515729
0.447                  -0.540446        -0.51284
0.448                  -0.542256       -0.509948
0.449                  -0.544051       -0.507052
0.45                   -0.545829       -0.504152
0.451                  -0.547591        -0.50125
0.452                  -0.549337       -0.498344
0.453                  -0.551066       -0.495435
0.454                   -0.55278       -0.492523
0.455                  -0.554477       -0.489607
0.456                  -0.556158        -0.48669
0.457                  -0.557824       -0.483769
0.458                  -0.559473       -0.480845
0.459                  -0.561106       -0.477919
0.46                   -0.562724       -0.474991
0.461                  -0.564325        -0.47206
0.462                  -0.565911       -0.469126
0.463                  -0.567481        -0.46619
0.464                  -0.569035       -0.463252
0.465                  -0.570573       -0.460312
0.466                  -0.572095       -0.457369
0.467                  -0.573602       -0.454425
0.468                  -0.575093       -0.451479
0.469                  -0.576568       -0.448531
0.47                   -0.578028       -0.445581
0.471                  -0.579472       -0.442629
0.472                  -0.580901       -0.439676
0.473                  -0.582314       -0.436721
0.474                  -0.583712       -0.433765
0.475                  -0.585094       -0.430807
0.476                  -0.586461       -0.427848
0.477                  -0.587812       -0.424888
0.478                  -0.589149       -0.421927
0.479                  -0.590469       -0.418964
0.48                   -0.591775          -0.416
0.481                  -0.593065       -0.413036
0.482                   -0.59434        -0.41007
0.483                    -0.5956       -0.407104
0.484                  -0.596845       -0.404137
0.485                  -0.598075       -0.401169
0.486                   -0.59929       -0.398201
0.487                  -0.600489       -0.395232
0.488                  -0.601674       -0.392262
0.489                  -0.602844       -0.389292
0.49                   -0.603999       -0.386322
0.491                  -0.605139       -0.383351
0.492                  -0.606264        -0.38038
0.493                  -0.607375       -0.377409
0.494                  -0.608471       -0.374438
0.495                  -0.609552       -0.371467
0.496                  -0.610618       -0.368496
0.497                   -0.61167       -0.365525
0.498                  -0.612707       -0.362554
0.499                   -0.61373       -0.359583
0.5                    -0.614738       -0.356613
0.501                  -0.615731       -0.353643
0.502                   -0.61671       -0.350673
0.503                  -0.617675       -0.347704
0.504                  -0.618626       -0.344735
0.505                  -0.619562       -0.341767
0.506                  -0.620484       -0.338799
0.507                  -0.621391       -0.335832
0.508                  -0.622285       -0.332866
0.509                  -0.623164       -0.329901
0.51                   -0.624029       -0.326936
0.511                   -0.62488       -0.323973
0.512                  -0.625717       -0.321011
0.513                   -0.62654       -0.318049
0.514                  -0.627349       -0.315089
0.515                  -0.628144       -0.312129
0.516                  -0.628926       -0.309171
0.517                  -0.629693       -0.306214
0.518                  -0.630447       -0.303259
0.519                  -0.631187       -0.300304
0.52                   -0.631913       -0.297351
0.521                  -0.632625         -0.2944
0.522                  -0.633324        -0.29145
0.523                   -0.63401       -0.288502
0.524                  -0.634681       -0.285555
0.525                   -0.63534        -0.28261
0.526                  -0.635984       -0.279667
0.527                  -0.636616       -0.276725
0.528                  -0.637234       -0.273786
0.529                  -0.637838       -0.270848
0.53                    -0.63843       -0.267912
0.531                  -0.639008       -0.264978
0.532                  -0.639573       -0.262046
0.533                  -0.640124       -0.259116
0.534                  -0.640663       -0.256188
0.535                  -0.641188       -0.253263
0.536                  -0.641701       -0.250339
0.537                    -0.6422       -0.247418
0.538                  -0.642686       -0.244499
0.539                   -0.64316       -0.241583
0.54                    -0.64362       -0.238668
0.541                  -0.644068       -0.235757
0.542                  -0.644503       -0.232847
0.543                  -0.644925       -0.229941
0.544                  -0.645334       -0.227036
0.545                  -0.645731       -0.224135
0.546                  -0.646115       -0.221236
0.547                  -0.646486       -0.218339
0.548                  -0.646845       -0.215446
0.549                  -0.647192       -0.212555
0.55                   -0.647525       -0.209667
0.551                  -0.647847       -0.206782
0.552                  -0.648156         -0.2039
0.553                  -0.648452        -0.20102
0.554                  -0.648737       -0.198144
0.555                  -0.649009       -0.195271
0.556                  -0.649269       -0.192401
0.557                  -0.649516       -0.189534
0.558                  -0.649752        -0.18667
0.559                  -0.649975       -0.183809
0.56                   -0.650186       -0.180951
0.561                  -0.650386       -0.178097
0.562                  -0.650573       -0.175246
0.563                  -0.650748       -0.172398
0.564                  -0.650911       -0.169553
0.565                  -0.651063       -0.166713
0.566                  -0.651202       -0.163875
0.567                   -0.65133       -0.161041
0.568                  -0.651446        -0.15821
0.569                  -0.651551       -0.155383
0.57                   -0.651644        -0.15256
0.571                  -0.651725        -0.14974
0.572                  -0.651794       -0.146924
0.573                  -0.651852       -0.144111
0.574                  -0.651898       -0.141303
0.575                  -0.651933       -0.138498
0.576                  -0.651957       -0.135696
0.577                  -0.651969       -0.132899
0.578                   -0.65197       -0.130106
0.579                  -0.651959       -0.127316
0.58                   -0.651938        -0.12453
0.581                  -0.651905       -0.121748
0.582                   -0.65186       -0.118971
0.583                  -0.651805       -0.116197
0.584                  -0.651738       -0.113427
0.585                  -0.651661       -0.110662
0.586                  -0.651572         -0.1079
0.587                  -0.651473       -0.105143
0.588                  -0.651362       -0.102389
0.589                  -0.651241      -0.0996403
0.59                   -0.651108      -0.0968956
0.591                  -0.650965      -0.0941551
0.592                  -0.650811      -0.0914188
0.593                  -0.650646       -0.088687
0.594                  -0.650471      -0.0859594
0.595                  -0.650285      -0.0832362
0.596                  -0.650088      -0.0805174
0.597                   -0.64988      -0.0778031
0.598                  -0.649662      -0.0750932
0.599                  -0.649434      -0.0723879
0.6                    -0.649195       -0.069687
0.601                  -0.648945      -0.0669907
0.602                  -0.648686      -0.0642989
0.603                  -0.648415      -0.0616119
0.604                  -0.648135      -0.0589294
0.605                  -0.647844      -0.0562516
0.606                  -0.647543      -0.0535784
0.607                  -0.647231      -0.0509099
0.608                   -0.64691      -0.0482463
0.609                  -0.646578      -0.0455874
0.61                   -0.646236      -0.0429334
0.611                  -0.645884       -0.040284
0.612                  -0.645522      -0.0376396
0.613                   -0.64515      -0.0349999
0.614                  -0.644768       -0.032365
0.615                  -0.644376      -0.0297354
0.616                  -0.643975      -0.0271104
0.617                  -0.643563      -0.0244906
0.618                  -0.643142      -0.0218757
0.619                  -0.642711      -0.0192659
0.62                    -0.64227      -0.0166609
0.621                  -0.641819      -0.0140611
0.622                  -0.641359      -0.0114663
0.623                  -0.640889     -0.00887688
0.624                  -0.640409     -0.00629224
0.625                   -0.63992     -0.00371287
0.626                  -0.639422     -0.00113878
0.627                  -0.638914      0.00143013
0.628                  -0.638396      0.00399385
0.629                  -0.637869      0.00655234
0.63                   -0.637333      0.00910559
0.631                  -0.636787       0.0116536
0.632                  -0.636232       0.0141962
0.633                  -0.635668       0.0167336
0.634                  -0.635094       0.0192654
0.635                  -0.634512       0.0217922
0.636                   -0.63392       0.0243133
0.637                  -0.633319        0.026829
0.638                  -0.632709       0.0293394
0.639                   -0.63209       0.0318442
0.64                   -0.631462       0.0343436
0.641                  -0.630824       0.0368374
0.642                  -0.630178        0.039326
0.643                  -0.629523       0.0418087
0.644                   -0.62886        0.044286
0.645                  -0.628187       0.0467577
0.646                  -0.627505       0.0492239
0.647                  -0.626815       0.0516844
0.648                  -0.626116       0.0541391
0.649                  -0.625408       0.0565884
0.65                   -0.624692        0.059032
0.651                  -0.623967       0.0614697
0.652                  -0.623233       0.0639019
0.653                  -0.622491       0.0663282
0.654                   -0.62174       0.0687489
0.655                  -0.620981       0.0711638
0.656                  -0.620213       0.0735728
0.657                  -0.619437       0.0759761
0.658                  -0.618652       0.0783736
0.659                   -0.61786       0.0807652
0.66                   -0.617058       0.0831509
0.661                  -0.616249       0.0855309
0.662                  -0.615431       0.0879048
0.663                  -0.614605       0.0902728
0.664                  -0.613771        0.092635
0.665                  -0.612928       0.0949911
0.666                  -0.612078       0.0973415
0.667                  -0.611219       0.0996857
0.668                  -0.610353        0.102024
0.669                  -0.609478        0.104356
0.67                   -0.608595        0.106682
0.671                  -0.607704        0.109002
0.672                  -0.606806        0.111317
0.673                  -0.605899        0.113625
0.674                  -0.604985        0.115926
0.675                  -0.604063        0.118222
0.676                  -0.603133        0.120512
0.677                  -0.602195        0.122796
0.678                   -0.60125        0.125073
0.679                  -0.600297        0.127344
0.68                   -0.599336        0.129609
0.681                  -0.598367        0.131868
0.682                  -0.597391         0.13412
0.683                  -0.596408        0.136367
0.684                  -0.595416        0.138607
0.685                  -0.594418        0.140841
0.686                  -0.593412        0.143068
0.687                  -0.592398        0.145289
0.688                  -0.591377        0.147504
0.689                  -0.590349        0.149713
0.69                   -0.589313        0.151915
0.691                   -0.58827        0.154111
0.692                   -0.58722          0.1563
0.693                  -0.586162        0.158483
0.694                  -0.585097         0.16066
0.695                  -0.584025         0.16283
0.696                  -0.582946        0.164994
0.697                   -0.58186        0.167152
0.698                  -0.580767        0.169303
0.699                  -0.579666        0.171447
0.7                    -0.578559        0.173585
0.701                  -0.577445        0.175717
0.702                  -0.576323        0.177842
0.703                  -0.575195         0.17996
0.704                   -0.57406        0.182072
0.705                  -0.572918        0.184178
0.706                  -0.571769        0.186276
0.707                  -0.570613        0.188369
0.708                  -0.569451        0.190454
0.709                  -0.568282        0.192533
0.71                   -0.567106        0.194606
0.711                  -0.565923        0.196671
0.712                  -0.564734        0.198731
0.713                  -0.563538        0.200783
0.714                  -0.562336        0.202829
0.715                  -0.561127        0.204868
0.716                  -0.559911          0.2069
0.717                  -0.558689        0.208926
0.718                  -0.557461        0.210945
0.719                  -0.556226        0.212957
0.72                   -0.554985        0.214963
0.721                  -0.553737        0.216962
0.722                  -0.552483        0.218954
0.723                  -0.551223        0.220939
0.724                  -0.549956        0.222917
0.725                  -0.548683        0.224889
0.726                  -0.547404        0.226854
0.727                  -0.546119        0.228812
0.728                  -0.544828        0.230763
0.729                   -0.54353        0.232707
0.73                   -0.542226        0.234645
0.731                  -0.540917        0.236575
0.732                  -0.539601        0.238499
0.733                  -0.538279        0.240416
0.734                  -0.536952        0.242325
0.735                  -0.535618        0.244228
0.736                  -0.534279        0.246124
0.737                  -0.532933        0.248014
0.738                  -0.531582        0.249896
0.739                  -0.530225        0.251771
0.74                   -0.528862        0.253639
0.741                  -0.527493          0.2555
0.742                  -0.526119        0.257354
0.743                  -0.524739        0.259202
0.744                  -0.523353        0.261042
0.745                  -0.521962        0.262875
0.746                  -0.520565        0.264701
0.747                  -0.519162         0.26652
0.748                  -0.517754        0.268332
0.749                   -0.51634        0.270137
0.75                   -0.514921        0.271935
0.751                  -0.513497        0.273726
0.752                  -0.512067         0.27551
0.753                  -0.510631        0.277287
0.754                   -0.50919        0.279056
0.755                  -0.507744        0.280818
0.756                  -0.506293        0.282574
0.757                  -0.504836        0.284322
0.758                  -0.503374        0.286063
0.759                  -0.501907        0.287797
0.76                   -0.500435        0.289523
0.761                  -0.498957        0.291243
0.762                  -0.497474        0.292955
0.763                  -0.495987         0.29466
0.764                  -0.494494        0.296358
0.765                  -0.492996        0.298049
0.766                  -0.491493        0.299732
0.767                  -0.489985        0.301408
0.768                  -0.488472        0.303077
0.769                  -0.486955        0.304739
0.77                   -0.485432        0.306393
0.771                  -0.483904        0.308041
0.772                  -0.482372         0.30968
0.773                  -0.480835        0.311313
0.774                  -0.479293        0.312938
0.775                  -0.477746        0.314556
0.776                  -0.476195        0.316167
0.777                  -0.474639         0.31777
0.778                  -0.473078        0.319367
0.779                  -0.471513        0.320955
0.78                   -0.469943        0.322537
0.781                  -0.468369        0.324111
0.782                   -0.46679        0.325677
0.783                  -0.465206        0.327237
0.784                  -0.463618        0.328789
0.785                  -0.462026        0.330333
0.786                  -0.460429        0.331871
0.787                  -0.458828          0.3334
0.788                  -0.457222        0.334923
0.789                  -0.455612        0.336438
0.79                   -0.453998        0.337945
0.791                   -0.45238        0.339446
0.792                  -0.450757        0.340938
0.793                   -0.44913        0.342424
0.794                  -0.447499        0.343901
0.795                  -0.445864        0.345372
0.796                  -0.444224        0.346835
0.797                  -0.442581         0.34829
0.798                  -0.440933        0.349738
0.799                  -0.439282        0.351179
0.8                    -0.437626        0.352612
0.801                  -0.435967        0.354038
0.802                  -0.434303        0.355456
0.803                  -0.432636        0.356866
0.804                  -0.430965        0.358269
0.805                   -0.42929        0.359665
0.806                  -0.427611        0.361053
0.807                  -0.425928        0.362434
0.808                  -0.424241        0.363807
0.809                  -0.422551        0.365172
0.81                   -0.420857         0.36653
0.811                   -0.41916         0.36788
0.812                  -0.417459        0.369223
0.813                  -0.415754        0.370559
0.814                  -0.414045        0.371886
0.815                  -0.412333        0.373206
0.816                  -0.410618        0.374519
0.817                  -0.408899        0.375824
0.818                  -0.407176        0.377122
0.819                   -0.40545        0.378411
0.82                   -0.403721        0.379694
0.821                  -0.401988        0.380968
0.822                  -0.400252        0.382235
0.823                  -0.398513        0.383495
0.824                   -0.39677        0.384747
0.825                  -0.395024        0.385991
0.826                  -0.393275        0.387228
0.827                  -0.391523        0.388457
0.828                  -0.389767        0.389678
0.829                  -0.388008        0.390892
0.83                   -0.386247        0.392098
0.831                  -0.384482        0.393297
0.832                  -0.382714        0.394487
0.833                  -0.380943        0.395671
0.834                  -0.379169        0.396846
0.835                  -0.377392        0.398014
0.836                  -0.375612        0.399175
0.837                   -0.37383        0.400327
0.838                  -0.372044        0.401472
0.839                  -0.370255        0.402609
0.84                   -0.368464        0.403739
0.841                   -0.36667        0.404861
0.842                  -0.364873        0.405975
0.843                  -0.363073        0.407082
0.844                  -0.361271        0.408181
0.845                  -0.359466        0.409272
0.846                  -0.357659        0.410356
0.847                  -0.355848        0.411432
0.848                  -0.354036          0.4125
0.849                   -0.35222        0.413561
0.85                   -0.350402        0.414613
0.851                  -0.348582        0.415659
0.852                  -0.346759        0.416696
0.853                  -0.344934        0.417726
0.854                  -0.343106        0.418748
0.855                  -0.341276        0.419762
0.856                  -0.339444        0.420769
0.857                  -0.337609        0.421768
0.858                  -0.335772        0.422759
0.859                  -0.333933        0.423743
0.86                   -0.332091        0.424719
0.861                  -0.330248        0.425687
0.862                  -0.328402        0.426647
0.863                  -0.326554          0.4276
0.864                  -0.324704        0.428545
0.865                  -0.322852        0.429483
0.866                  -0.320997        0.430412
0.867                  -0.319141        0.431334
0.868                  -0.317283        0.432248
0.869                  -0.315422        0.433155
0.87                    -0.31356        0.434054
0.871                  -0.311696        0.434945
0.872                   -0.30983        0.435828
0.873                  -0.307962        0.436704
0.874                  -0.306093        0.437572
0.875                  -0.304221        0.438432
0.876                  -0.302348        0.439285
0.877                  -0.300473         0.44013
0.878                  -0.298597        0.440967
0.879                  -0.296718        0.441796
0.88                   -0.294838        0.442618
0.881                  -0.292957        0.443432
0.882                  -0.291074        0.444238
0.883                  -0.289189        0.445037
0.884                  -0.287303        0.445828
0.885                  -0.285415        0.446611
0.886                  -0.283526        0.447387
0.887                  -0.281635        0.448155
0.888                  -0.279743        0.448915
0.889                   -0.27785        0.449667
0.89                   -0.275955        0.450412
0.891                  -0.274059        0.451149
0.892                  -0.272161        0.451879
0.893                  -0.270262          0.4526
0.894                  -0.268362        0.453314
0.895                  -0.266461        0.454021
0.896                  -0.264559        0.454719
0.897                  -0.262656         0.45541
0.898                  -0.260751        0.456094
0.899                  -0.258845        0.456769
0.9                    -0.256938        0.457437
0.901                  -0.255031        0.458098
0.902                  -0.253122         0.45875
0.903                  -0.251212        0.459395
0.904                  -0.249301        0.460033
0.905                  -0.247389        0.460662
0.906                  -0.245477        0.461284
0.907                  -0.243563        0.461899
0.908                  -0.241649        0.462506
0.909                  -0.239734        0.463105
0.91                   -0.237818        0.463696
0.911                  -0.235901         0.46428
0.912                  -0.233984        0.464856
0.913                  -0.232066        0.465425
0.914                  -0.230147        0.465986
0.915                  -0.228228        0.466539
0.916                  -0.226308        0.467085
0.917                  -0.224387        0.467623
0.918                  -0.222466        0.468154
0.919                  -0.220544        0.468677
0.92                   -0.218622        0.469192
0.921                  -0.216699          0.4697
0.922                  -0.214776          0.4702
0.923                  -0.212853        0.470693
0.924                  -0.210929        0.471178
0.925                  -0.209005        0.471656
0.926                   -0.20708        0.472126
0.927                  -0.205155        0.472588
0.928                   -0.20323        0.473043
0.929                  -0.201304         0.47349
0.93                   -0.199379         0.47393
0.931                  -0.197453        0.474362
0.932                  -0.195527        0.474787
0.933                  -0.193601        0.475204
0.934                  -0.191674        0.475614
0.935                  -0.189748        0.476016
0.936                  -0.187821        0.476411
0.937                  -0.185895        0.476798
0.938                  -0.183968        0.477178
0.939                  -0.182042         0.47755
0.94                   -0.180116        0.477915
0.941                  -0.178189        0.478273
0.942                  -0.176263        0.478622
0.943                  -0.174337        0.478965
0.944                  -0.172411          0.4793
0.945                  -0.170485        0.479627
0.946                   -0.16856        0.479948
0.947                  -0.166634         0.48026
0.948                  -0.164709        0.480566
0.949                  -0.162785        0.480864
0.95                    -0.16086        0.481154
0.951                  -0.158936        0.481437
0.952                  -0.157012        0.481713
0.953                  -0.155089        0.481981
0.954                  -0.153166        0.482242
0.955                  -0.151244        0.482496
0.956                  -0.149322        0.482742
0.957                    -0.1474        0.482981
0.958                  -0.145479        0.483213
0.959                  -0.143559        0.483437
0.96                   -0.141639        0.483654
0.961                   -0.13972        0.483864
0.962                  -0.137801        0.484066
0.963                  -0.135884        0.484261
0.964                  -0.133966        0.484449
0.965                   -0.13205         0.48463
0.966                  -0.130134        0.484803
0.967                  -0.128219        0.484969
0.968                  -0.126305        0.485128
0.969                  -0.124392        0.485279
0.97                   -0.122479        0.485424
0.971                  -0.120567        0.485561
0.972                  -0.118657        0.485691
0.973                  -0.116747        0.485813
0.974                  -0.114838        0.485929
0.975                   -0.11293        0.486037
0.976                  -0.111023        0.486139
0.977                  -0.109117        0.486233
0.978                  -0.107212         0.48632
0.979                  -0.105308        0.486399
0.98                   -0.103406        0.486472
0.981                  -0.101504        0.486538
0.982                 -0.0996037        0.486596
0.983                 -0.0977044        0.486648
0.984                 -0.0958062        0.486692
0.985                 -0.0939093        0.486729
0.986                 -0.0920137         0.48676
0.987                 -0.0901193        0.486783
0.988                 -0.0882262        0.486799
0.989                 -0.0863346        0.486808
0.99                   -0.084444         0.48681
0.991                  -0.082555        0.486805
0.992                 -0.0806674        0.486793
0.993                  -0.078781        0.486774
0.994                 -0.0768963        0.486749
0.995                 -0.0750128        0.486716
0.996                  -0.073131        0.486676
0.997                 -0.0712505         0.48663
0.998                 -0.0693718        0.486576
0.999                 -0.0674944        0.486516
1                     -0.0656187        0.486448
1.001                 -0.0637445        0.486374
1.002                 -0.0618721        0.486293
1.003                 -0.0600012        0.486205
1.004                 -0.0581321         0.48611
1.005                 -0.0562646        0.486009
1.006                 -0.0543988          0.4859
1.007                 -0.0525348        0.485785
1.008                 -0.0506724        0.485663
1.009                 -0.0488121        0.485534
1.01                  -0.0469533        0.485399
1.011                 -0.0450965        0.485256
1.012                 -0.0432415        0.485107
1.013                 -0.0413885        0.484951
1.014                 -0.0395373        0.484789
1.015                  -0.037688         0.48462
1.016                 -0.0358407        0.484444
1.017                 -0.0339953        0.484261
1.018                 -0.0321518        0.484072
1.019                 -0.0303104        0.483876
1.02                  -0.0284711        0.483674
1.021                 -0.0266339        0.483465
1.022                 -0.0247985        0.483249
1.023                 -0.0229655        0.483027
1.024                 -0.0211344        0.482798
1.025                 -0.0193057        0.482563
1.026                 -0.0174789        0.482321
1.027                 -0.0156543        0.482072
1.028                 -0.0138321        0.481817
1.029                 -0.0120121        0.481556
1.03                  -0.0101942        0.481288
1.031                -0.00837863        0.481013
1.032                -0.00656535        0.480732
1.033                 -0.0047544        0.480445
1.034                -0.00294569        0.480151
1.035                -0.00113934        0.479851
1.036                0.000664509        0.479544
1.037                 0.00246595        0.479231
1.038                 0.00426518        0.478912
1.039                 0.00606186        0.478586
1.04                  0.00785606        0.478254
1.041                 0.00964788        0.477915
1.042                   0.011437        0.477571
1.043                  0.0132238        0.477219
1.044                   0.015008        0.476862
1.045                  0.0167896        0.476498
1.046                  0.0185687        0.476129
1.047                  0.0203452        0.475753
1.048                   0.022119         0.47537
1.049                  0.0238903        0.474982
1.05                   0.0256589        0.474587
1.051                  0.0274248        0.474186
1.052                   0.029188        0.473779
1.053                  0.0309486        0.473366
1.054                  0.0327064        0.472946
1.055                  0.0344613        0.472521
1.056                  0.0362136        0.472089
1.057                  0.0379631        0.471652
1.058                  0.0397098        0.471208
1.059                  0.0414537        0.470758
1.06                   0.0431948        0.470303
1.061                  0.0449328        0.469841
1.062                  0.0466681        0.469373
1.063                  0.0484005        0.468899
1.064                    0.05013        0.468419
1.065                  0.0518565        0.467934
1.066                    0.05358        0.467442
1.067                  0.0553007        0.466944
1.068                  0.0570183        0.466441
1.069                   0.058733        0.465932
1.07                   0.0604445        0.465416
1.071                   0.062153        0.464895
1.072                  0.0638585        0.464368
1.073                   0.065561        0.463835
1.074                  0.0672603        0.463297
1.075                  0.0689565        0.462752
1.076                  0.0706496        0.462202
1.077                  0.0723395        0.461646
1.078                  0.0740263        0.461085
1.079                  0.0757099        0.460517
1.08                   0.0773903        0.459944
1.081                  0.0790676        0.459366
1.082                  0.0807415        0.458781
1.083                  0.0824122        0.458191
1.084                  0.0840796        0.457595
1.085                  0.0857439        0.456994
1.086                  0.0874047        0.456387
1.087                  0.0890623        0.455774
1.088                  0.0907165        0.455156
1.089                  0.0923675        0.454532
1.09                    0.094015        0.453903
1.091                  0.0956593        0.453269
1.092                     0.0973        0.452628
1.093                  0.0989372        0.451982
1.094                   0.100571        0.451331
1.095                   0.102202        0.450675
1.096                   0.103829        0.450012
1.097                   0.105452        0.449345
1.098                   0.107073        0.448672
1.099                   0.108689        0.447994
1.1                     0.110302         0.44731
1.101                   0.111912        0.446621
1.102                   0.113518        0.445927
1.103                    0.11512        0.445227
1.104                   0.116719        0.444522
1.105                   0.118315        0.443812
1.106                   0.119906        0.443096
1.107                   0.121494        0.442375
1.108                   0.123079        0.441649
1.109                    0.12466        0.440918
1.11                    0.126237        0.440182
1.111                    0.12781         0.43944
1.112                    0.12938        0.438693
1.113                   0.130946        0.437941
1.114                   0.132509        0.437184
1.115                   0.134067        0.436422
1.116                   0.135622        0.435655
1.117                   0.137173        0.434883
1.118                   0.138721        0.434106
1.119                   0.140264        0.433323
1.12                    0.141804        0.432536
1.121                    0.14334        0.431743
1.122                   0.144872        0.430946
1.123                     0.1464        0.430144
1.124                   0.147925        0.429336
1.125                   0.149446        0.428524
1.126                   0.150962        0.427707
1.127                   0.152475        0.426885
1.128                   0.153984        0.426058
1.129                   0.155489        0.425226
1.13                     0.15699         0.42439
1.131                   0.158487        0.423548
1.132                   0.159981        0.422702
1.133                    0.16147        0.421851
1.134                   0.162955        0.420995
1.135                   0.164436        0.420135
1.136                   0.165914         0.41927
1.137                   0.167387          0.4184
1.138                   0.168856        0.417525
1.139                   0.170321        0.416646
1.14                    0.171782        0.415762
1.141                   0.173239        0.414873
1.142                   0.174692         0.41398
1.143                   0.176141        0.413082
1.144                   0.177586        0.412179
1.145                   0.179027        0.411272
1.146                   0.180463        0.410361
1.147                   0.181896        0.409445
1.148                   0.183324        0.408524
1.149                   0.184748        0.407599
1.15                    0.186168        0.406669
1.151                   0.187584        0.405735
1.152                   0.188996        0.404796
1.153                   0.190403        0.403853
1.154                   0.191807        0.402906
1.155                   0.193205        0.401954
1.156                     0.1946        0.400998
1.157                   0.195991        0.400037
1.158                   0.197377        0.399072
1.159                   0.198759        0.398103
1.16                    0.200137         0.39713
1.161                    0.20151        0.396152
1.162                    0.20288         0.39517
1.163                   0.204244        0.394184
1.164                   0.205605        0.393193
1.165                   0.206961        0.392198
1.166                   0.208313        0.391199
1.167                   0.209661        0.390196
1.168                   0.211004        0.389189
1.169                   0.212343        0.388177
1.17                    0.213677        0.387162
1.171                   0.215008        0.386142
1.172                   0.216333        0.385118
1.173                   0.217654         0.38409
1.174                   0.218971        0.383058
1.175                   0.220284        0.382022
1.176                   0.221592        0.380982
1.177                   0.222896        0.379938
1.178                   0.224195        0.378891
1.179                   0.225489        0.377839
1.18                     0.22678        0.376783
1.181                   0.228065        0.375723
1.182                   0.229347        0.374659
1.183                   0.230624        0.373592
1.184                   0.231896         0.37252
1.185                   0.233164        0.371445
1.186                   0.234427        0.370366
1.187                   0.235686        0.369283
1.188                    0.23694        0.368196
1.189                    0.23819        0.367105
1.19                    0.239435        0.366011
1.191                   0.240675        0.364913
1.192                   0.241911        0.363811
1.193                   0.243142        0.362705
1.194                   0.244369        0.361596
1.195                   0.245591        0.360483
1.196                   0.246809        0.359366
1.197                   0.248022        0.358246
1.198                    0.24923        0.357122
1.199                   0.250434        0.355995
1.2                     0.251633        0.354864
1.201                   0.252828        0.353729
1.202                   0.254018        0.352591
1.203                   0.255203        0.351449
1.204                   0.256383        0.350303
1.205                   0.257559        0.349155
1.206                    0.25873        0.348002
1.207                   0.259897        0.346847
1.208                   0.261059        0.345687
1.209                   0.262216        0.344525
1.21                    0.263368        0.343359
1.211                   0.264516        0.342189
1.212                   0.265659        0.341016
1.213                   0.266797         0.33984
1.214                    0.26793        0.338661
1.215                   0.269059        0.337478
1.216                   0.270183        0.336292
1.217                   0.271302        0.335102
1.218                   0.272416        0.333909
1.219                   0.273526        0.332713
1.22                    0.274631        0.331514
1.221                   0.275731        0.330311
1.222                   0.276826        0.329106
1.223                   0.277917        0.327897
1.224                   0.279002        0.326685
1.225                   0.280083         0.32547
1.226                   0.281159        0.324251
1.227                    0.28223         0.32303
1.228                   0.283297        0.321805
1.229                   0.284358        0.320578
1.23                    0.285415        0.319347
1.231                   0.286467        0.318113
1.232                   0.287514        0.316876
1.233                   0.288556        0.315637
1.234                   0.289593        0.314394
1.235                   0.290625        0.313148
1.236                   0.291653        0.311899
1.237                   0.292675        0.310648
1.238                   0.293693        0.309393
1.239                   0.294706        0.308135
1.24                    0.295714        0.306875
1.241                   0.296717        0.305612
1.242                   0.297715        0.304346
1.243                   0.298708        0.303077
1.244                   0.299696        0.301805
1.245                   0.300679         0.30053
1.246                   0.301657        0.299253
1.247                   0.302631        0.297973
1.248                   0.303599         0.29669
1.249                   0.304562        0.295404
1.25                    0.305521        0.294116
1.251                   0.306474        0.292825
1.252                   0.307423        0.291531
1.253                   0.308366        0.290234
1.254                   0.309305        0.288935
1.255                   0.310239        0.287634
1.256                   0.311167        0.286329
1.257                   0.312091        0.285022
1.258                   0.313009        0.283713
1.259                   0.313923        0.282401
1.26                    0.314831        0.281086
1.261                   0.315735        0.279769
1.262                   0.316633         0.27845
1.263                   0.317526        0.277127
1.264                   0.318415        0.275803
1.265                   0.319298        0.274476
1.266                   0.320177        0.273146
1.267                    0.32105        0.271814
1.268                   0.321918         0.27048
1.269                   0.322781        0.269143
1.27                    0.323639        0.267804
1.271                   0.324492        0.266463
1.272                    0.32534        0.265119
1.273                   0.326183        0.263773
1.274                   0.327021        0.262424
1.275                   0.327853        0.261074
1.276                   0.328681        0.259721
1.277                   0.329503        0.258366
1.278                   0.330321        0.257008
1.279                   0.331133        0.255649
1.28                     0.33194        0.254287
1.281                   0.332742        0.252923
1.282                   0.333539        0.251557
1.283                   0.334331        0.250188
1.284                   0.335117        0.248818
1.285                   0.335899        0.247445
1.286                   0.336675         0.24607
1.287                   0.337446        0.244694
1.288                   0.338212        0.243315
1.289                   0.338973        0.241934
1.29                    0.339729        0.240551
1.291                    0.34048        0.239166
1.292                   0.341225        0.237779
1.293                   0.341965         0.23639
1.294                     0.3427        0.234999
1.295                   0.343431        0.233606
1.296                   0.344155        0.232212
1.297                   0.344875        0.230815
1.298                   0.345589        0.229417
1.299                   0.346299        0.228016
1.3                     0.347002        0.226614
1.301                   0.347701         0.22521
1.302                   0.348395        0.223804
1.303                   0.349083        0.222397
1.304                   0.349767        0.220987
1.305                   0.350445        0.219576
1.306                   0.351117        0.218163
1.307                   0.351785        0.216748
1.308                   0.352447        0.215332
1.309                   0.353105        0.213914
1.31                    0.353756        0.212494
1.311                   0.354403        0.211072
1.312                   0.355045        0.209649
1.313                   0.355681        0.208225
1.314                   0.356312        0.206798
1.315                   0.356938         0.20537
1.316                   0.357558        0.203941
1.317                   0.358173         0.20251
1.318                   0.358783        0.201077
1.319                   0.359388        0.199643
1.32                    0.359988        0.198207
1.321                   0.360582         0.19677
1.322                   0.361171        0.195332
1.323                   0.361755        0.193891
1.324                   0.362333         0.19245
1.325                   0.362906        0.191007
1.326                   0.363474        0.189563
1.327                   0.364037        0.188117
1.328                   0.364594         0.18667
1.329                   0.365146        0.185221
1.33                    0.365693        0.183772
1.331                   0.366235        0.182321
1.332                   0.366771        0.180868
1.333                   0.367302        0.179415
1.334                   0.367827         0.17796
1.335                   0.368348        0.176504
1.336                   0.368863        0.175046
1.337                   0.369373        0.173588
1.338                   0.369877        0.172128
1.339                   0.370376        0.170667
1.34                     0.37087        0.169205
1.341                   0.371359        0.167741
1.342                   0.371842        0.166277
1.343                    0.37232        0.164812
1.344                   0.372792        0.163345
1.345                    0.37326        0.161877
1.346                   0.373722        0.160409
1.347                   0.374178        0.158939
1.348                    0.37463        0.157468
1.349                   0.375076        0.155997
1.35                    0.375516        0.154524
1.351                   0.375952         0.15305
1.352                   0.376382        0.151576
1.353                   0.376807          0.1501
1.354                   0.377226        0.148624
1.355                    0.37764        0.147146
1.356                   0.378049        0.145668
1.357                   0.378452        0.144189
1.358                    0.37885        0.142709
1.359                   0.379243        0.141228
1.36                     0.37963        0.139747
1.361                   0.380013        0.138264
1.362                   0.380389        0.136781
1.363                   0.380761        0.135297
1.364                   0.381127        0.133813
1.365                   0.381487        0.132328
1.366                   0.381843        0.130842
1.367                   0.382193        0.129355
1.368                   0.382537        0.127868
1.369                   0.382877         0.12638
1.37                    0.383211        0.124891
1.371                   0.383539        0.123402
1.372                   0.383863        0.121912
1.373                   0.384181        0.120422
1.374                   0.384493        0.118931
1.375                     0.3848         0.11744
1.376                   0.385102        0.115948
1.377                   0.385399        0.114455
1.378                    0.38569        0.112962
1.379                   0.385976        0.111469
1.38                    0.386256        0.109975
1.381                   0.386531        0.108481
1.382                   0.386801        0.106986
1.383                   0.387066        0.105491
1.384                   0.387325        0.103996
1.385                   0.387579          0.1025
1.386                   0.387827        0.101004
1.387                    0.38807       0.0995075
1.388                   0.388308       0.0980108
1.389                    0.38854       0.0965138
1.39                    0.388767       0.0950165
1.391                   0.388989        0.093519
1.392                   0.389205       0.0920213
1.393                   0.389416       0.0905234
1.394                   0.389621       0.0890253
1.395                   0.389822        0.087527
1.396                   0.390016       0.0860286
1.397                   0.390206         0.08453
1.398                    0.39039       0.0830313
1.399                   0.390569       0.0815325
1.4                     0.390743       0.0800337
1.401                   0.390911       0.0785347
1.402                   0.391074       0.0770358
1.403                   0.391231       0.0755368
1.404                   0.391383       0.0740378
1.405                    0.39153       0.0725388
1.406                   0.391671       0.0710399
1.407                   0.391808        0.069541
1.408                   0.391938       0.0680421
1.409                   0.392064       0.0665434
1.41                    0.392184       0.0650447
1.411                   0.392299       0.0635462
1.412                   0.392408       0.0620478
1.413                   0.392512       0.0605496
1.414                   0.392611       0.0590516
1.415                   0.392705       0.0575538
1.416                   0.392793       0.0560561
1.417                   0.392876       0.0545587
1.418                   0.392953       0.0530616
1.419                   0.393025       0.0515647
1.42                    0.393092       0.0500682
1.421                   0.393154       0.0485719
1.422                    0.39321        0.047076
1.423                   0.393261       0.0455804
1.424                   0.393307       0.0440851
1.425                   0.393347       0.0425903
1.426                   0.393382       0.0410958
1.427                   0.393412       0.0396018
1.428                   0.393437       0.0381082
1.429                   0.393456       0.0366151
1.43                     0.39347       0.0351224
1.431                   0.393478       0.0336302
1.432                   0.393482       0.0321386
1.433                    0.39348       0.0306475
1.434                   0.393473       0.0291569
1.435                    0.39346       0.0276669
1.436                   0.393442       0.0261774
1.437                   0.393419       0.0246886
1.438                   0.393391       0.0232004
1.439                   0.393358       0.0217129
1.44                    0.393319        0.020226
1.441                   0.393275       0.0187398
1.442                   0.393225       0.0172543
1.443                   0.393171       0.0157695
1.444                   0.393111       0.0142854
1.445                   0.393046       0.0128021
1.446                   0.392976       0.0113196
1.447                     0.3929      0.00983781
1.448                    0.39282      0.00835688
1.449                   0.392734      0.00687677
1.45                    0.392642       0.0053975
1.451                   0.392546       0.0039191
1.452                   0.392444      0.00244159
1.453                   0.392338     0.000964976
1.454                   0.392226    -0.000510717
1.455                   0.392108     -0.00198547
1.456                   0.391986     -0.00345927
1.457                   0.391859     -0.00493209
1.458                   0.391726     -0.00640391
1.459                   0.391588     -0.00787472
1.46                    0.391445      -0.0093445
1.461                   0.391297      -0.0108132
1.462                   0.391143      -0.0122809
1.463                   0.390985      -0.0137475
1.464                   0.390821      -0.0152129
1.465                   0.390652      -0.0166773
1.466                   0.390478      -0.0181405
1.467                   0.390299      -0.0196025
1.468                   0.390115      -0.0210634
1.469                   0.389925      -0.0225231
1.47                    0.389731      -0.0239815
1.471                   0.389531      -0.0254387
1.472                   0.389326      -0.0268947
1.473                   0.389116      -0.0283494
1.474                   0.388902      -0.0298028
1.475                   0.388682      -0.0312549
1.476                   0.388456      -0.0327056
1.477                   0.388226      -0.0341551
1.478                   0.387991      -0.0356031
1.479                   0.387751      -0.0370498
1.48                    0.387505      -0.0384951
1.481                   0.387255      -0.0399389
1.482                      0.387      -0.0413814
1.483                   0.386739      -0.0428223
1.484                   0.386474      -0.0442618
1.485                   0.386203      -0.0456998
1.486                   0.385928      -0.0471363
1.487                   0.385647      -0.0485713
1.488                   0.385362      -0.0500048
1.489                   0.385071      -0.0514366
1.49                    0.384776      -0.0528669
1.491                   0.384475      -0.0542956
1.492                    0.38417      -0.0557227
1.493                   0.383859      -0.0571481
1.494                   0.383544      -0.0585719
1.495                   0.383223       -0.059994
1.496                   0.382898      -0.0614145
1.497                   0.382568      -0.0628332
1.498                   0.382233      -0.0642502
1.499                   0.381893      -0.0656654
1.5                     0.381548      -0.0670789
1.501                   0.381198      -0.0684907
1.502                   0.380843      -0.0699006
1.503                   0.380484      -0.0713087
1.504                   0.380119       -0.072715
1.505                    0.37975      -0.0741194
1.506                   0.379376       -0.075522
1.507                   0.378997      -0.0769227
1.508                   0.378613      -0.0783215
1.509                   0.378224      -0.0797184
1.51                    0.377831      -0.0811133
1.511                   0.377432      -0.0825063
1.512                   0.377029      -0.0838973
1.513                   0.376621      -0.0852863
1.514                   0.376208      -0.0866733
1.515                   0.375791      -0.0880584
1.516                   0.375369      -0.0894413
1.517                   0.374942      -0.0908222
1.518                    0.37451      -0.0922011
1.519                   0.374074      -0.0935778
1.52                    0.373632      -0.0949525
1.521                   0.373186       -0.096325
1.522                   0.372736      -0.0976953
1.523                    0.37228      -0.0990636
1.524                    0.37182        -0.10043
1.525                   0.371356       -0.101793
1.526                   0.370886       -0.103155
1.527                   0.370412       -0.104515
1.528                   0.369934       -0.105872
1.529                    0.36945       -0.107227
1.53                    0.368963       -0.108579
1.531                    0.36847        -0.10993
1.532                   0.367973       -0.111278
1.533                   0.367471       -0.112623
1.534                   0.366965       -0.113967
1.535                   0.366454       -0.115308
1.536                   0.365939       -0.116646
1.537                   0.365419       -0.117983
1.538                   0.364894       -0.119317
1.539                   0.364365       -0.120648
1.54                    0.363832       -0.121977
1.541                   0.363294       -0.123304
1.542                   0.362751       -0.124628
1.543                   0.362204       -0.125949
1.544                   0.361653       -0.127268
1.545                   0.361097       -0.128585
1.546                   0.360536       -0.129899
1.547                   0.359972       -0.131211
1.548                   0.359402       -0.132519
1.549                   0.358829       -0.133826
1.55                    0.358251        -0.13513
1.551                   0.357669       -0.136431
1.552                   0.357082       -0.137729
1.553                   0.356491       -0.139025
1.554                   0.355895       -0.140318
1.555                   0.355295       -0.141609
1.556                   0.354691       -0.142897
1.557                   0.354083       -0.144182
1.558                    0.35347       -0.145465
1.559                   0.352853       -0.146744
1.56                    0.352232       -0.148021
1.561                   0.351606       -0.149296
1.562                   0.350977       -0.150567
1.563                   0.350343       -0.151836
1.564                   0.349705       -0.153102
1.565                   0.349062       -0.154365
1.566                   0.348416       -0.155625
1.567                   0.347765       -0.156882
1.568                    0.34711       -0.158137
1.569                   0.346451       -0.159388
1.57                    0.345788       -0.160637
1.571                    0.34512       -0.161883
1.572                   0.344449       -0.163126
1.573                   0.343773       -0.164366
1.574                   0.343094       -0.165603
1.575                    0.34241       -0.166837
1.576                   0.341722       -0.168068
1.577                   0.341031       -0.169297
1.578                   0.340335       -0.170522
1.579                   0.339635       -0.171744
1.58                    0.338931       -0.172963
1.581                   0.338223       -0.174179
1.582                   0.337511       -0.175392
1.583                   0.336796       -0.176602
1.584                   0.336076       -0.177809
1.585                   0.335353       -0.179013
1.586                   0.334625       -0.180214
1.587                   0.333894       -0.181411
1.588                   0.333158       -0.182606
1.589                   0.332419       -0.183797
1.59                    0.331676       -0.184985
1.591                   0.330929        -0.18617
1.592                   0.330179       -0.187352
1.593                   0.329424       -0.188531
1.594                   0.328666       -0.189706
1.595                   0.327904       -0.190878
1.596                   0.327138       -0.192047
1.597                   0.326369       -0.193213
1.598                   0.325595       -0.194376
1.599                   0.324818       -0.195535
1.6                     0.324038       -0.196691
1.601                   0.323253       -0.197844
1.602                   0.322465       -0.198993
1.603                   0.321673       -0.200139
1.604                   0.320878       -0.201282
1.605                   0.320079       -0.202421
1.606                   0.319276       -0.203557
1.607                    0.31847        -0.20469
1.608                    0.31766        -0.20582
1.609                   0.316847       -0.206946
1.61                     0.31603       -0.208068
1.611                    0.31521       -0.209188
1.612                   0.314386       -0.210303
1.613                   0.313558       -0.211416
1.614                   0.312727       -0.212525
1.615                   0.311893       -0.213631
1.616                   0.311055       -0.214733
1.617                   0.310214       -0.215831
1.618                   0.309369       -0.216927
1.619                   0.308521       -0.218018
1.62                    0.307669       -0.219107
1.621                   0.306814       -0.220191
1.622                   0.305956       -0.221273
1.623                   0.305094        -0.22235
1.624                   0.304229       -0.223425
1.625                   0.303361       -0.224495
1.626                    0.30249       -0.225563
1.627                   0.301615       -0.226626
1.628                   0.300737       -0.227686
1.629                   0.299855       -0.228743
1.63                    0.298971       -0.229796
1.631                   0.298083       -0.230845
1.632                   0.297192       -0.231891
1.633                   0.296298       -0.232933
1.634                     0.2954       -0.233971
1.635                     0.2945       -0.235006
1.636                   0.293596       -0.236038
1.637                   0.292689       -0.237065
1.638                   0.291779       -0.238089
1.639                   0.290866        -0.23911
1.64                     0.28995       -0.240126
1.641                   0.289031       -0.241139
1.642                   0.288109       -0.242149
1.643                   0.287184       -0.243154
1.644                   0.286256       -0.244156
1.645                   0.285325       -0.245155
1.646                   0.284391       -0.246149
1.647                   0.283454        -0.24714
1.648                   0.282514       -0.248127
1.649                   0.281571       -0.249111
1.65                    0.280625        -0.25009
1.651                   0.279676       -0.251066
1.652                   0.278725       -0.252039
1.653                    0.27777       -0.253007
1.654                   0.276813       -0.253972
1.655                   0.275853       -0.254933
1.656                    0.27489        -0.25589
1.657                   0.273924       -0.256843
1.658                   0.272956       -0.257793
1.659                   0.271984       -0.258739
1.66                     0.27101       -0.259681
1.661                   0.270034       -0.260619
1.662                   0.269054       -0.261554
1.663                   0.268072       -0.262484
1.664                   0.267087       -0.263411
1.665                     0.2661       -0.264334
1.666                    0.26511       -0.265253
1.667                   0.264117       -0.266168
1.668                   0.263122        -0.26708
1.669                   0.262124       -0.267988
1.67                    0.261123       -0.268891
1.671                    0.26012       -0.269791
1.672                   0.259114       -0.270687
1.673                   0.258106        -0.27158
1.674                   0.257096       -0.272468
1.675                   0.256082       -0.273352
1.676                   0.255067       -0.274233
1.677                   0.254049        -0.27511
1.678                   0.253028       -0.275983
1.679                   0.252005       -0.276852
1.68                    0.250979       -0.277717
1.681                   0.249952       -0.278578
1.682                   0.248921       -0.279435
1.683                   0.247889       -0.280289
1.684                   0.246854       -0.281138
1.685                   0.245817       -0.281984
1.686                   0.244777       -0.282825
1.687                   0.243735       -0.283663
1.688                   0.242691       -0.284497
1.689                   0.241644       -0.285327
1.69                    0.240596       -0.286153
1.691                   0.239545       -0.286975
1.692                   0.238491       -0.287793
1.693                   0.237436       -0.288607
1.694                   0.236378       -0.289417
1.695                   0.235318       -0.290223
1.696                   0.234257       -0.291026
1.697                   0.233192       -0.291824
1.698                   0.232126       -0.292618
1.699                   0.231058       -0.293409
1.7                     0.229987       -0.294195
1.701                   0.228915       -0.294978
1.702                    0.22784       -0.295757
1.703                   0.226763       -0.296531
1.704                   0.225685       -0.297302
1.705                   0.224604       -0.298069
1.706                   0.223521       -0.298831
1.707                   0.222436        -0.29959
1.708                    0.22135       -0.300345
1.709                   0.220261       -0.301096
1.71                     0.21917       -0.301843
1.711                   0.218078       -0.302586
1.712                   0.216983       -0.303325
1.713                   0.215887        -0.30406
1.714                   0.214788        -0.30479
1.715                   0.213688       -0.305517
1.716                   0.212586       -0.306241
1.717                   0.211482       -0.306959
1.718                   0.210377       -0.307675
1.719                   0.209269       -0.308386
1.72                     0.20816       -0.309093
1.721                   0.207048       -0.309796
1.722                   0.205936       -0.310495
1.723                   0.204821        -0.31119
1.724                   0.203704       -0.311881
1.725                   0.202586       -0.312568
1.726                   0.201466       -0.313251
1.727                   0.200345        -0.31393
1.728                   0.199222       -0.314606
1.729                   0.198097       -0.315277
1.73                     0.19697       -0.315944
1.731                   0.195842       -0.316607
1.732                   0.194712       -0.317266
1.733                    0.19358       -0.317922
1.734                   0.192447       -0.318573
1.735                   0.191313        -0.31922
1.736                   0.190176       -0.319863
1.737                   0.189038       -0.320503
1.738                   0.187899       -0.321138
1.739                   0.186758       -0.321769
1.74                    0.185616       -0.322396
1.741                   0.184472        -0.32302
1.742                   0.183326       -0.323639
1.743                   0.182179       -0.324254
1.744                   0.181031       -0.324866
1.745                   0.179881       -0.325473
1.746                    0.17873       -0.326076
1.747                   0.177577       -0.326676
1.748                   0.176423       -0.327271
1.749                   0.175267       -0.327862
1.75                     0.17411        -0.32845
1.751                   0.172952       -0.329033
1.752                   0.171792       -0.329612
1.753                   0.170631       -0.330188
1.754                   0.169469       -0.330759
1.755                   0.168305       -0.331327
1.756                    0.16714        -0.33189
1.757                   0.165974        -0.33245
1.758                   0.164806       -0.333006
1.759                   0.163637       -0.333557
1.76                    0.162467       -0.334105
1.761                   0.161296       -0.334648
1.762                   0.160123       -0.335188
1.763                   0.158949       -0.335724
1.764                   0.157774       -0.336255
1.765                   0.156598       -0.336783
1.766                    0.15542       -0.337307
1.767                   0.154241       -0.337826
1.768                   0.153061       -0.338342
1.769                    0.15188       -0.338854
1.77                    0.150698       -0.339362
1.771                   0.149515       -0.339866
1.772                    0.14833       -0.340366
1.773                   0.147145       -0.340862
1.774                   0.145958       -0.341354
1.775                    0.14477       -0.341842
1.776                   0.143581       -0.342326
1.777                   0.142391       -0.342806
1.778                     0.1412       -0.343283
1.779                   0.140008       -0.343755
1.78                    0.138815       -0.344223
1.781                   0.137621       -0.344688
1.782                   0.136426       -0.345148
1.783                    0.13523       -0.345604
1.784                   0.134033       -0.346057
1.785                   0.132834       -0.346506
1.786                   0.131635        -0.34695
1.787                   0.130435       -0.347391
1.788                   0.129234       -0.347828
1.789                   0.128032        -0.34826
1.79                    0.126829       -0.348689
1.791                   0.125626       -0.349114
1.792                   0.124421       -0.349535
1.793                   0.123215       -0.349952
1.794                   0.122009       -0.350366
1.795                   0.120801       -0.350775
1.796                   0.119593        -0.35118
1.797                   0.118384       -0.351581
1.798                   0.117174       -0.351979
1.799                   0.115963       -0.352372
1.8                     0.114751       -0.352762
1.801                   0.113539       -0.353148
1.802                   0.112326       -0.353529
1.803                   0.111112       -0.353907
1.804                   0.109897       -0.354281
1.805                   0.108681       -0.354651
1.806                   0.107464       -0.355017
1.807                   0.106247       -0.355379
1.808                   0.105029       -0.355738
1.809                    0.10381       -0.356092
1.81                    0.102591       -0.356442
1.811                   0.101371       -0.356789
1.812                    0.10015       -0.357131
1.813                  0.0989282        -0.35747
1.814                  0.0977058       -0.357805
1.815                  0.0964828       -0.358136
1.816                  0.0952589       -0.358463
1.817                  0.0940347       -0.358786
1.818                  0.0928094       -0.359105
1.819                  0.0915838        -0.35942
1.82                   0.0903573       -0.359732
1.821                  0.0891304       -0.360039
1.822                  0.0879026       -0.360343
1.823                  0.0866743       -0.360642
1.824                  0.0854453       -0.360938
1.825                  0.0842159        -0.36123
1.826                  0.0829858       -0.361518
1.827                   0.081755       -0.361802
1.828                  0.0805237       -0.362082
1.829                  0.0792918       -0.362359
1.83                   0.0780596       -0.362631
1.831                  0.0768264         -0.3629
1.832                  0.0755929       -0.363164
1.833                  0.0743587       -0.363425
1.834                  0.0731242       -0.363682
1.835                  0.0718889       -0.363935
1.836                  0.0706533       -0.364184
1.837                  0.0694172       -0.364429
1.838                  0.0681806        -0.36467
1.839                  0.0669432       -0.364908
1.84                   0.0657055       -0.365141
1.841                  0.0644674       -0.365371
1.842                  0.0632288       -0.365597
1.843                  0.0619898       -0.365819
1.844                  0.0607503       -0.366036
1.845                  0.0595102       -0.366251
1.846                  0.0582698       -0.366461
1.847                  0.0570289       -0.366667
1.848                  0.0557877       -0.366869
1.849                   0.054546       -0.367068
1.85                   0.0533038       -0.367263
1.851                  0.0520613       -0.367453
1.852                  0.0508185        -0.36764
1.853                  0.0495752       -0.367823
1.854                  0.0483315       -0.368002
1.855                  0.0470875       -0.368177
1.856                  0.0458431       -0.368349
1.857                  0.0445983       -0.368516
1.858                  0.0433533       -0.368679
1.859                  0.0421078       -0.368839
1.86                    0.040862       -0.368995
1.861                   0.039616       -0.369146
1.862                  0.0383696       -0.369294
1.863                  0.0371228       -0.369438
1.864                  0.0358758       -0.369578
1.865                  0.0346285       -0.369715
1.866                   0.033381       -0.369847
1.867                  0.0321331       -0.369975
1.868                   0.030885         -0.3701
1.869                  0.0296365        -0.37022
1.87                   0.0283879       -0.370337
1.871                  0.0271389        -0.37045
1.872                  0.0258898       -0.370559
1.873                  0.0246405       -0.370664
1.874                  0.0233908       -0.370765
1.875                   0.022141       -0.370862
1.876                   0.020891       -0.370955
1.877                  0.0196408       -0.371044
1.878                  0.0183904        -0.37113
1.879                  0.0171398       -0.371211
1.88                    0.015889       -0.371289
1.881                  0.0146381       -0.371362
1.882                  0.0133869       -0.371432
1.883                  0.0121357       -0.371498
1.884                  0.0108843       -0.371559
1.885                 0.00963276       -0.371617
1.886                 0.00838105       -0.371671
1.887                 0.00712928       -0.371721
1.888                 0.00587738       -0.371767
1.889                 0.00462527       -0.371809
1.89                  0.00337323       -0.371847
1.891                 0.00212101       -0.371882
1.892                0.000868699       -0.371912
1.893               -0.000383597       -0.371938
1.894                -0.00163604       -0.371961
1.895                -0.00288854       -0.371979
1.896                -0.00414107       -0.371993
1.897                -0.00539363       -0.372004
1.898                -0.00664621        -0.37201
1.899                 -0.0078988       -0.372013
1.9                  -0.00915146       -0.372011
1.901                 -0.0104041       -0.372006
1.902                 -0.0116567       -0.371996
1.903                 -0.0129093       -0.371983
1.904                 -0.0141619       -0.371966
1.905                 -0.0154144       -0.371944
1.906                  -0.016667       -0.371919
1.907                 -0.0179194        -0.37189
1.908                 -0.0191719       -0.371856
1.909                 -0.0204242       -0.371819
1.91                  -0.0216765       -0.371777
1.911                 -0.0229286       -0.371732
1.912                 -0.0241808       -0.371683
1.913                 -0.0254328       -0.371629
1.914                 -0.0266847       -0.371572
1.915                 -0.0279364        -0.37151
1.916                 -0.0291881       -0.371445
1.917                 -0.0304395       -0.371375
1.918                 -0.0316909       -0.371302
1.919                  -0.032942       -0.371224
1.92                  -0.0341931       -0.371142
1.921                 -0.0354439       -0.371057
1.922                 -0.0366944       -0.370967
1.923                 -0.0379448       -0.370873
1.924                  -0.039195       -0.370775
1.925                 -0.0404451       -0.370673
1.926                 -0.0416948       -0.370567
1.927                 -0.0429443       -0.370457
1.928                 -0.0441936       -0.370343
1.929                 -0.0454426       -0.370225
1.93                  -0.0466914       -0.370103
1.931                 -0.0479397       -0.369976
1.932                 -0.0491879       -0.369846
1.933                 -0.0504357       -0.369711
1.934                 -0.0516832       -0.369572
1.935                 -0.0529303        -0.36943
1.936                 -0.0541772       -0.369283
1.937                 -0.0554237       -0.369132
1.938                 -0.0566698       -0.368976
1.939                 -0.0579156       -0.368817
1.94                   -0.059161       -0.368654
1.941                 -0.0604058       -0.368486
1.942                 -0.0616503       -0.368314
1.943                 -0.0628946       -0.368139
1.944                 -0.0641382       -0.367959
1.945                 -0.0653814       -0.367775
1.946                 -0.0666242       -0.367586
1.947                 -0.0678665       -0.367394
1.948                 -0.0691083       -0.367197
1.949                 -0.0703497       -0.366997
1.95                  -0.0715905       -0.366792
1.951                 -0.0728307       -0.366583
1.952                 -0.0740704       -0.366369
1.953                 -0.0753097       -0.366152
1.954                 -0.0765483        -0.36593
1.955                 -0.0777863       -0.365704
1.956                 -0.0790238       -0.365474
1.957                 -0.0802607        -0.36524
1.958                 -0.0814969       -0.365001
1.959                 -0.0827326       -0.364759
1.96                  -0.0839675       -0.364512
1.961                 -0.0852019       -0.364261
1.962                 -0.0864354       -0.364005
1.963                 -0.0876685       -0.363746
1.964                 -0.0889007       -0.363482
1.965                 -0.0901321       -0.363214
1.966                  -0.091363       -0.362942
1.967                  -0.092593       -0.362665
1.968                 -0.0938223       -0.362384
1.969                 -0.0950507       -0.362099
1.97                  -0.0962785        -0.36181
1.971                 -0.0975054       -0.361517
1.972                 -0.0987315       -0.361219
1.973                 -0.0999568       -0.360917
1.974                  -0.101181        -0.36061
1.975                  -0.102405         -0.3603
1.976                  -0.103627       -0.359985
1.977                  -0.104849       -0.359666
1.978                   -0.10607       -0.359342
1.979                   -0.10729       -0.359014
1.98                   -0.108509       -0.358682
1.981                  -0.109727       -0.358346
1.982                  -0.110944       -0.358005
1.983                   -0.11216        -0.35766
1.984                  -0.113375       -0.357311
1.985                  -0.114589       -0.356957
1.986                  -0.115801       -0.356599
1.987                  -0.117013       -0.356237
1.988                  -0.118224       -0.355871
1.989                  -0.119433         -0.3555
1.99                   -0.120642       -0.355125
1.991                  -0.121849       -0.354745
1.992                  -0.123056       -0.354361
1.993                  -0.124261       -0.353973
1.994                  -0.125464        -0.35358
1.995                  -0.126667       -0.353184
1.996                  -0.127868       -0.352782
1.997                  -0.129068       -0.352377
1.998                  -0.130267       -0.351967
1.999                  -0.131465       -0.351553
2                      -0.132661       -0.351134
