! TOUCHSTONE file generated by CST MICROWAVE STUDIO
! Date and time: Sat Aug  1 23:57:46 2026
! Project name: Sonda-Coaxial_21mm_DisifixB_v2_Alchol.cst
! Parameters = {h_recipiente=20; l_conector=50; r_arandela=35; r_ext=10.5; r_int=3; r_recipiente=100; z_recipiente=-50}
! Header version: 2018
! Port assignment regex: !\s*Touchstone port\s*([0-9]+)\s*=\s*(CST MWS port|CST DS port)\s*([0-9]+|Zmin|Zmax)\s*\(\"(.*)\"\)(\s*mode\s*([0-9]+))?.*
! Touchstone port assignment:
! Touchstone port 1 = CST MWS port 1 ("")
# GHz S RI R 50
0.001                   0.955615     -0.00633545
0.002                   0.955603      -0.0126684
0.003                   0.955583      -0.0189964
0.004                   0.955555       -0.025317
0.005                   0.955516      -0.0316278
0.006                   0.955468      -0.0379267
0.007                   0.955408      -0.0442116
0.008                   0.955335      -0.0504804
0.009                   0.955247      -0.0567315
0.01                    0.955145       -0.062963
0.011                   0.955024      -0.0691737
0.012                   0.954885      -0.0753623
0.013                   0.954726      -0.0815276
0.014                   0.954544      -0.0876687
0.015                   0.954338       -0.093785
0.016                   0.954106      -0.0998758
0.017                   0.953847       -0.105941
0.018                   0.953559        -0.11198
0.019                   0.953241       -0.117992
0.02                    0.952891       -0.123979
0.021                   0.952508       -0.129939
0.022                    0.95209       -0.135873
0.023                   0.951637       -0.141781
0.024                   0.951147       -0.147665
0.025                   0.950619       -0.153523
0.026                   0.950053       -0.159356
0.027                   0.949448       -0.165166
0.028                   0.948803       -0.170952
0.029                   0.948117       -0.176714
0.03                     0.94739       -0.182455
0.031                   0.946622       -0.188173
0.032                   0.945811       -0.193869
0.033                   0.944959       -0.199544
0.034                   0.944064       -0.205199
0.035                   0.943127       -0.210833
0.036                   0.942147       -0.216448
0.037                   0.941124       -0.222043
0.038                   0.940059       -0.227619
0.039                    0.93895       -0.233177
0.04                    0.937799       -0.238716
0.041                   0.936606       -0.244238
0.042                    0.93537       -0.249741
0.043                   0.934092       -0.255227
0.044                   0.932771       -0.260696
0.045                   0.931409       -0.266148
0.046                   0.930005       -0.271583
0.047                   0.928559       -0.277001
0.048                   0.927072       -0.282402
0.049                   0.925544       -0.287787
0.05                    0.923976       -0.293156
0.051                   0.922366       -0.298508
0.052                   0.920717       -0.303843
0.053                   0.919027       -0.309163
0.054                   0.917298       -0.314466
0.055                   0.915529       -0.319752
0.056                   0.913722       -0.325023
0.057                   0.911875       -0.330277
0.058                    0.90999       -0.335514
0.059                   0.908066       -0.340735
0.06                    0.906104       -0.345939
0.061                   0.904105       -0.351127
0.062                   0.902068       -0.356298
0.063                   0.899994       -0.361452
0.064                   0.897883       -0.366589
0.065                   0.895736       -0.371708
0.066                   0.893552       -0.376811
0.067                   0.891332       -0.381896
0.068                   0.889077       -0.386963
0.069                   0.886786       -0.392013
0.07                    0.884459       -0.397045
0.071                   0.882098       -0.402059
0.072                   0.879702       -0.407055
0.073                   0.877272       -0.412033
0.074                   0.874808       -0.416992
0.075                    0.87231       -0.421932
0.076                   0.869778       -0.426854
0.077                   0.867213       -0.431756
0.078                   0.864614        -0.43664
0.079                   0.861983       -0.441504
0.08                     0.85932       -0.446348
0.081                   0.856624       -0.451173
0.082                   0.853896       -0.455978
0.083                   0.851136       -0.460763
0.084                   0.848345       -0.465527
0.085                   0.845522       -0.470271
0.086                   0.842668       -0.474995
0.087                   0.839784       -0.479697
0.088                   0.836869       -0.484379
0.089                   0.833923        -0.48904
0.09                    0.830948       -0.493679
0.091                   0.827943       -0.498296
0.092                   0.824908       -0.502892
0.093                   0.821844       -0.507466
0.094                   0.818751       -0.512018
0.095                   0.815629       -0.516548
0.096                   0.812479       -0.521055
0.097                     0.8093        -0.52554
0.098                   0.806093       -0.530002
0.099                   0.802858        -0.53444
0.1                     0.799595       -0.538856
0.101                   0.796305       -0.543249
0.102                   0.792988       -0.547618
0.103                   0.789645       -0.551963
0.104                   0.786274       -0.556285
0.105                   0.782877       -0.560583
0.106                   0.779454       -0.564856
0.107                   0.776005       -0.569105
0.108                    0.77253        -0.57333
0.109                    0.76903       -0.577531
0.11                    0.765504       -0.581706
0.111                   0.761954       -0.585857
0.112                   0.758378       -0.589982
0.113                   0.754779       -0.594083
0.114                   0.751155       -0.598158
0.115                   0.747507       -0.602208
0.116                   0.743835       -0.606231
0.117                    0.74014       -0.610229
0.118                   0.736421       -0.614202
0.119                   0.732679       -0.618148
0.12                    0.728915       -0.622068
0.121                   0.725128       -0.625961
0.122                   0.721318       -0.629828
0.123                   0.717486       -0.633669
0.124                   0.713633       -0.637483
0.125                   0.709758        -0.64127
0.126                   0.705861        -0.64503
0.127                   0.701944       -0.648763
0.128                   0.698005       -0.652468
0.129                   0.694045       -0.656147
0.13                    0.690066       -0.659798
0.131                   0.686066       -0.663421
0.132                   0.682045       -0.667017
0.133                   0.678006       -0.670585
0.134                   0.673947       -0.674125
0.135                   0.669868       -0.677637
0.136                   0.665771       -0.681121
0.137                   0.661655       -0.684577
0.138                    0.65752       -0.688005
0.139                   0.653367       -0.691404
0.14                    0.649196       -0.694775
0.141                   0.645007       -0.698117
0.142                   0.640801        -0.70143
0.143                   0.636577       -0.704715
0.144                   0.632337       -0.707971
0.145                   0.628078       -0.711198
0.146                   0.623805       -0.714396
0.147                   0.619514       -0.717565
0.148                   0.615207       -0.720705
0.149                   0.610884       -0.723815
0.15                    0.606546       -0.726897
0.151                   0.602192       -0.729948
0.152                   0.597823       -0.732971
0.153                   0.593439       -0.735964
0.154                   0.589041       -0.738927
0.155                   0.584628       -0.741861
0.156                   0.580201       -0.744765
0.157                   0.575759       -0.747639
0.158                   0.571304       -0.750484
0.159                   0.566836       -0.753298
0.16                    0.562354       -0.756083
0.161                   0.557859       -0.758837
0.162                   0.553352       -0.761562
0.163                   0.548831       -0.764257
0.164                   0.544299       -0.766922
0.165                   0.539754       -0.769556
0.166                   0.535198        -0.77216
0.167                    0.53063       -0.774734
0.168                    0.52605       -0.777278
0.169                    0.52146       -0.779791
0.17                    0.516858       -0.782274
0.171                   0.512246       -0.784727
0.172                   0.507623        -0.78715
0.173                    0.50299       -0.789541
0.174                   0.498347       -0.791903
0.175                   0.493694       -0.794234
0.176                   0.489032       -0.796535
0.177                   0.484361       -0.798805
0.178                    0.47968       -0.801044
0.179                   0.474991       -0.803254
0.18                    0.470293       -0.805432
0.181                   0.465586        -0.80758
0.182                   0.460872       -0.809697
0.183                   0.456149       -0.811784
0.184                   0.451419       -0.813841
0.185                   0.446681       -0.815866
0.186                   0.441936       -0.817861
0.187                   0.437184       -0.819826
0.188                   0.432426        -0.82176
0.189                   0.427661       -0.823663
0.19                    0.422889       -0.825536
0.191                   0.418111       -0.827379
0.192                   0.413327        -0.82919
0.193                   0.408538       -0.830971
0.194                   0.403743       -0.832722
0.195                   0.398943       -0.834442
0.196                   0.394138       -0.836132
0.197                   0.389328       -0.837791
0.198                   0.384514        -0.83942
0.199                   0.379695       -0.841018
0.2                     0.374872       -0.842586
0.201                   0.370045       -0.844124
0.202                   0.365214       -0.845631
0.203                    0.36038       -0.847107
0.204                   0.355543       -0.848554
0.205                   0.350702        -0.84997
0.206                   0.345859       -0.851356
0.207                   0.341013       -0.852712
0.208                   0.336165       -0.854037
0.209                   0.331314       -0.855333
0.21                    0.326461       -0.856598
0.211                   0.321607       -0.857834
0.212                    0.31675       -0.859039
0.213                   0.311892       -0.860214
0.214                   0.307034       -0.861359
0.215                   0.302174       -0.862475
0.216                   0.297313       -0.863561
0.217                   0.292452       -0.864616
0.218                   0.287591       -0.865642
0.219                   0.282728       -0.866639
0.22                    0.277867       -0.867606
0.221                   0.273005       -0.868543
0.222                   0.268144       -0.869451
0.223                   0.263283       -0.870329
0.224                   0.258423       -0.871178
0.225                   0.253565       -0.871997
0.226                   0.248707       -0.872788
0.227                    0.24385       -0.873549
0.228                   0.238996        -0.87428
0.229                   0.234143       -0.874983
0.23                    0.229292       -0.875657
0.231                   0.224443       -0.876302
0.232                   0.219596       -0.876918
0.233                   0.214752       -0.877505
0.234                    0.20991       -0.878063
0.235                   0.205072       -0.878592
0.236                   0.200236       -0.879094
0.237                   0.195404       -0.879566
0.238                   0.190575        -0.88001
0.239                   0.185749       -0.880426
0.24                    0.180928       -0.880813
0.241                    0.17611       -0.881173
0.242                   0.171297       -0.881504
0.243                   0.166487       -0.881807
0.244                   0.161682       -0.882082
0.245                   0.156882       -0.882329
0.246                   0.152087       -0.882549
0.247                   0.147296        -0.88274
0.248                   0.142511       -0.882904
0.249                   0.137732       -0.883041
0.25                    0.132957        -0.88315
0.251                   0.128188       -0.883232
0.252                   0.123426       -0.883286
0.253                   0.118668       -0.883314
0.254                   0.113918       -0.883314
0.255                   0.109173       -0.883287
0.256                   0.104435       -0.883234
0.257                  0.0997037       -0.883153
0.258                  0.0949793       -0.883046
0.259                  0.0902614       -0.882912
0.26                    0.085551       -0.882752
0.261                  0.0808476       -0.882566
0.262                  0.0761515       -0.882353
0.263                  0.0714632       -0.882114
0.264                  0.0667825       -0.881849
0.265                  0.0621093       -0.881557
0.266                  0.0574446        -0.88124
0.267                  0.0527879       -0.880897
0.268                  0.0481394       -0.880529
0.269                  0.0434993       -0.880135
0.27                   0.0388679       -0.879715
0.271                  0.0342454        -0.87927
0.272                  0.0296314         -0.8788
0.273                  0.0250265       -0.878305
0.274                  0.0204311       -0.877784
0.275                  0.0158444       -0.877239
0.276                  0.0112674       -0.876669
0.277                 0.00669991       -0.876074
0.278                 0.00214236       -0.875455
0.279                -0.00240571       -0.874811
0.28                 -0.00694376       -0.874143
0.281                 -0.0114717        -0.87345
0.282                 -0.0159893       -0.872734
0.283                 -0.0204969       -0.871993
0.284                 -0.0249939       -0.871228
0.285                 -0.0294801        -0.87044
0.286                 -0.0339559       -0.869628
0.287                 -0.0384207       -0.868792
0.288                 -0.0428746       -0.867934
0.289                 -0.0473173       -0.867051
0.29                  -0.0517491       -0.866146
0.291                 -0.0561695       -0.865217
0.292                 -0.0605782       -0.864265
0.293                 -0.0649758       -0.863291
0.294                 -0.0693613       -0.862294
0.295                 -0.0737352       -0.861274
0.296                 -0.0780975       -0.860232
0.297                 -0.0824475       -0.859167
0.298                 -0.0867855        -0.85808
0.299                 -0.0911112       -0.856971
0.3                   -0.0954246        -0.85584
0.301                 -0.0997256       -0.854687
0.302                  -0.104014       -0.853513
0.303                   -0.10829       -0.852317
0.304                  -0.112553       -0.851099
0.305                  -0.116804        -0.84986
0.306                  -0.121041         -0.8486
0.307                  -0.125265       -0.847318
0.308                  -0.129477       -0.846016
0.309                  -0.133674       -0.844692
0.31                   -0.137859       -0.843348
0.311                   -0.14203       -0.841984
0.312                  -0.146188       -0.840598
0.313                  -0.150333       -0.839193
0.314                  -0.154463       -0.837767
0.315                  -0.158579       -0.836321
0.316                  -0.162682       -0.834855
0.317                  -0.166771       -0.833369
0.318                  -0.170846       -0.831864
0.319                  -0.174907       -0.830339
0.32                   -0.178953       -0.828794
0.321                  -0.182985        -0.82723
0.322                  -0.187003       -0.825647
0.323                  -0.191007       -0.824045
0.324                  -0.194996       -0.822423
0.325                   -0.19897       -0.820783
0.326                  -0.202929       -0.819125
0.327                  -0.206874       -0.817447
0.328                  -0.210804       -0.815751
0.329                  -0.214719       -0.814037
0.33                   -0.218619       -0.812305
0.331                  -0.222504       -0.810555
0.332                  -0.226374       -0.808786
0.333                  -0.230229          -0.807
0.334                  -0.234068       -0.805196
0.335                  -0.237892       -0.803375
0.336                  -0.241701       -0.801536
0.337                  -0.245494        -0.79968
0.338                  -0.249272       -0.797807
0.339                  -0.253034       -0.795917
0.34                    -0.25678        -0.79401
0.341                  -0.260511       -0.792086
0.342                  -0.264226       -0.790145
0.343                  -0.267925       -0.788188
0.344                  -0.271608       -0.786215
0.345                  -0.275276       -0.784225
0.346                  -0.278927       -0.782219
0.347                  -0.282562       -0.780198
0.348                  -0.286181        -0.77816
0.349                  -0.289784       -0.776106
0.35                   -0.293371       -0.774037
0.351                  -0.296942       -0.771953
0.352                  -0.300496       -0.769853
0.353                  -0.304034       -0.767738
0.354                  -0.307555       -0.765608
0.355                   -0.31106       -0.763463
0.356                  -0.314549       -0.761303
0.357                  -0.318021       -0.759128
0.358                  -0.321476       -0.756939
0.359                  -0.324915       -0.754735
0.36                   -0.328337       -0.752517
0.361                  -0.331742       -0.750285
0.362                  -0.335131       -0.748038
0.363                  -0.338503       -0.745778
0.364                  -0.341858       -0.743504
0.365                  -0.345196       -0.741216
0.366                  -0.348517       -0.738915
0.367                  -0.351821         -0.7366
0.368                  -0.355109       -0.734272
0.369                  -0.358379       -0.731931
0.37                   -0.361632       -0.729576
0.371                  -0.364869       -0.727209
0.372                  -0.368088       -0.724829
0.373                   -0.37129       -0.722436
0.374                  -0.374475        -0.72003
0.375                  -0.377642       -0.717613
0.376                  -0.380793       -0.715182
0.377                  -0.383926        -0.71274
0.378                  -0.387042       -0.710286
0.379                  -0.390141       -0.707819
0.38                   -0.393222       -0.705341
0.381                  -0.396286       -0.702851
0.382                  -0.399333        -0.70035
0.383                  -0.402362       -0.697837
0.384                  -0.405374       -0.695312
0.385                  -0.408369       -0.692777
0.386                  -0.411346       -0.690231
0.387                  -0.414305       -0.687673
0.388                  -0.417247       -0.685105
0.389                  -0.420172       -0.682525
0.39                   -0.423079       -0.679936
0.391                  -0.425969       -0.677335
0.392                  -0.428841       -0.674725
0.393                  -0.431696       -0.672104
0.394                  -0.434533       -0.669473
0.395                  -0.437352       -0.666832
0.396                  -0.440154       -0.664181
0.397                  -0.442938        -0.66152
0.398                  -0.445705        -0.65885
0.399                  -0.448454        -0.65617
0.4                    -0.451186       -0.653481
0.401                    -0.4539       -0.650782
0.402                  -0.456596       -0.648075
0.403                  -0.459274       -0.645358
0.404                  -0.461936       -0.642632
0.405                  -0.464579       -0.639897
0.406                  -0.467204       -0.637154
0.407                  -0.469812       -0.634401
0.408                  -0.472403       -0.631641
0.409                  -0.474976       -0.628872
0.41                   -0.477531       -0.626095
0.411                  -0.480068       -0.623309
0.412                  -0.482588       -0.620516
0.413                   -0.48509       -0.617714
0.414                  -0.487575       -0.614905
0.415                  -0.490042       -0.612088
0.416                  -0.492491       -0.609263
0.417                  -0.494922       -0.606431
0.418                  -0.497336       -0.603591
0.419                  -0.499733       -0.600745
0.42                   -0.502111       -0.597891
0.421                  -0.504472       -0.595029
0.422                  -0.506816       -0.592161
0.423                  -0.509142       -0.589286
0.424                   -0.51145       -0.586405
0.425                  -0.513741       -0.583517
0.426                  -0.516014       -0.580622
0.427                  -0.518269        -0.57772
0.428                  -0.520507       -0.574813
0.429                  -0.522728       -0.571899
0.43                    -0.52493       -0.568979
0.431                  -0.527116       -0.566053
0.432                  -0.529284       -0.563121
0.433                  -0.531434       -0.560184
0.434                  -0.533567        -0.55724
0.435                  -0.535682       -0.554291
0.436                   -0.53778       -0.551337
0.437                  -0.539861       -0.548377
0.438                  -0.541924       -0.545412
0.439                   -0.54397       -0.542441
0.44                   -0.545998       -0.539466
0.441                  -0.548009       -0.536486
0.442                  -0.550002         -0.5335
0.443                  -0.551978        -0.53051
0.444                  -0.553937       -0.527515
0.445                  -0.555879       -0.524516
0.446                  -0.557803       -0.521512
0.447                   -0.55971       -0.518504
0.448                    -0.5616       -0.515491
0.449                  -0.563472       -0.512474
0.45                   -0.565328       -0.509453
0.451                  -0.567166       -0.506428
0.452                  -0.568987       -0.503399
0.453                  -0.570791       -0.500366
0.454                  -0.572578        -0.49733
0.455                  -0.574347       -0.494289
0.456                    -0.5761       -0.491246
0.457                  -0.577835       -0.488198
0.458                  -0.579554       -0.485148
0.459                  -0.581256       -0.482094
0.46                    -0.58294       -0.479037
0.461                  -0.584608       -0.475977
0.462                  -0.586259       -0.472914
0.463                  -0.587892       -0.469847
0.464                  -0.589509       -0.466778
0.465                   -0.59111       -0.463707
0.466                  -0.592693       -0.460632
0.467                   -0.59426       -0.457555
0.468                   -0.59581       -0.454476
0.469                  -0.597343       -0.451394
0.47                   -0.598859        -0.44831
0.471                  -0.600359       -0.445224
0.472                  -0.601842       -0.442135
0.473                  -0.603309       -0.439045
0.474                  -0.604759       -0.435952
0.475                  -0.606193       -0.432858
0.476                  -0.607609       -0.429761
0.477                   -0.60901       -0.426663
0.478                  -0.610394       -0.423564
0.479                  -0.611762       -0.420463
0.48                   -0.613113        -0.41736
0.481                  -0.614448       -0.414256
0.482                  -0.615767       -0.411151
0.483                  -0.617069       -0.408044
0.484                  -0.618355       -0.404936
0.485                  -0.619625       -0.401827
0.486                  -0.620879       -0.398718
0.487                  -0.622117       -0.395607
0.488                  -0.623338       -0.392495
0.489                  -0.624544       -0.389383
0.49                   -0.625733        -0.38627
0.491                  -0.626907       -0.383156
0.492                  -0.628064       -0.380042
0.493                  -0.629206       -0.376927
0.494                  -0.630332       -0.373812
0.495                  -0.631441       -0.370697
0.496                  -0.632535       -0.367581
0.497                  -0.633614       -0.364465
0.498                  -0.634676       -0.361349
0.499                  -0.635723       -0.358234
0.5                    -0.636754       -0.355118
0.501                   -0.63777       -0.352002
0.502                   -0.63877       -0.348886
0.503                  -0.639754       -0.345771
0.504                  -0.640723       -0.342656
0.505                  -0.641676       -0.339542
0.506                  -0.642614       -0.336428
0.507                  -0.643537       -0.333314
0.508                  -0.644444       -0.330201
0.509                  -0.645336       -0.327089
0.51                   -0.646213       -0.323977
0.511                  -0.647074       -0.320867
0.512                   -0.64792       -0.317757
0.513                  -0.648751       -0.314648
0.514                  -0.649567        -0.31154
0.515                  -0.650368       -0.308433
0.516                  -0.651154       -0.305328
0.517                  -0.651925       -0.302223
0.518                  -0.652681        -0.29912
0.519                  -0.653422       -0.296018
0.52                   -0.654148       -0.292918
0.521                  -0.654859       -0.289819
0.522                  -0.655556       -0.286721
0.523                  -0.656238       -0.283625
0.524                  -0.656905       -0.280531
0.525                  -0.657557       -0.277439
0.526                  -0.658195       -0.274348
0.527                  -0.658818       -0.271259
0.528                  -0.659427       -0.268172
0.529                  -0.660022       -0.265087
0.53                   -0.660601       -0.262004
0.531                  -0.661167       -0.258923
0.532                  -0.661718       -0.255844
0.533                  -0.662255       -0.252767
0.534                  -0.662777       -0.249693
0.535                  -0.663285        -0.24662
0.536                  -0.663779        -0.24355
0.537                  -0.664259       -0.240483
0.538                  -0.664725       -0.237418
0.539                  -0.665177       -0.234355
0.54                   -0.665615       -0.231295
0.541                  -0.666039       -0.228238
0.542                  -0.666449       -0.225183
0.543                  -0.666844       -0.222131
0.544                  -0.667227       -0.219082
0.545                  -0.667595       -0.216036
0.546                   -0.66795       -0.212993
0.547                  -0.668291       -0.209952
0.548                  -0.668618       -0.206915
0.549                  -0.668932        -0.20388
0.55                   -0.669232       -0.200849
0.551                  -0.669519       -0.197821
0.552                  -0.669792       -0.194796
0.553                  -0.670051       -0.191774
0.554                  -0.670298       -0.188756
0.555                  -0.670531       -0.185741
0.556                  -0.670751       -0.182729
0.557                  -0.670957       -0.179721
0.558                   -0.67115       -0.176716
0.559                   -0.67133       -0.173715
0.56                   -0.671497       -0.170717
0.561                  -0.671651       -0.167723
0.562                  -0.671792       -0.164732
0.563                   -0.67192       -0.161746
0.564                  -0.672035       -0.158763
0.565                  -0.672137       -0.155784
0.566                  -0.672226       -0.152809
0.567                  -0.672303       -0.149838
0.568                  -0.672366        -0.14687
0.569                  -0.672417       -0.143907
0.57                   -0.672456       -0.140947
0.571                  -0.672481       -0.137992
0.572                  -0.672495       -0.135041
0.573                  -0.672495       -0.132094
0.574                  -0.672483       -0.129151
0.575                  -0.672459       -0.126213
0.576                  -0.672422       -0.123278
0.577                  -0.672373       -0.120348
0.578                  -0.672312       -0.117423
0.579                  -0.672238       -0.114501
0.58                   -0.672153       -0.111585
0.581                  -0.672055       -0.108672
0.582                  -0.671944       -0.105765
0.583                  -0.671822       -0.102861
0.584                  -0.671688       -0.099963
0.585                  -0.671542      -0.0970689
0.586                  -0.671384      -0.0941797
0.587                  -0.671214      -0.0912952
0.588                  -0.671032      -0.0884155
0.589                  -0.670838      -0.0855404
0.59                   -0.670633      -0.0826702
0.591                  -0.670416       -0.079805
0.592                  -0.670187      -0.0769445
0.593                  -0.669947      -0.0740891
0.594                  -0.669695      -0.0712385
0.595                  -0.669432       -0.068393
0.596                  -0.669157      -0.0655525
0.597                   -0.66887      -0.0627172
0.598                  -0.668572      -0.0598869
0.599                  -0.668263      -0.0570617
0.6                    -0.667943      -0.0542419
0.601                  -0.667611      -0.0514271
0.602                  -0.667268      -0.0486175
0.603                  -0.666914      -0.0458132
0.604                  -0.666549      -0.0430143
0.605                  -0.666173      -0.0402208
0.606                  -0.665785      -0.0374326
0.607                  -0.665387      -0.0346498
0.608                  -0.664978      -0.0318724
0.609                  -0.664558      -0.0291005
0.61                   -0.664127       -0.026334
0.611                  -0.663685      -0.0235732
0.612                  -0.663233       -0.020818
0.613                  -0.662769       -0.018068
0.614                  -0.662295      -0.0153239
0.615                  -0.661811      -0.0125856
0.616                  -0.661316      -0.0098527
0.617                   -0.66081     -0.00712556
0.618                  -0.660294     -0.00440419
0.619                  -0.659767     -0.00168862
0.62                    -0.65923      0.00102125
0.621                  -0.658683      0.00372525
0.622                  -0.658125      0.00642351
0.623                  -0.657557      0.00911568
0.624                  -0.656979       0.0118022
0.625                   -0.65639       0.0144826
0.626                  -0.655792       0.0171571
0.627                  -0.655183       0.0198257
0.628                  -0.654564       0.0224882
0.629                  -0.653936       0.0251447
0.63                   -0.653297       0.0277952
0.631                  -0.652648       0.0304394
0.632                   -0.65199       0.0330778
0.633                  -0.651321       0.0357099
0.634                  -0.650643       0.0383359
0.635                  -0.649955       0.0409557
0.636                  -0.649258       0.0435693
0.637                   -0.64855       0.0461767
0.638                  -0.647833       0.0487778
0.639                  -0.647107       0.0513726
0.64                   -0.646371       0.0539613
0.641                  -0.645625       0.0565435
0.642                   -0.64487       0.0591194
0.643                  -0.644106       0.0616889
0.644                  -0.643332        0.064252
0.645                  -0.642549       0.0668087
0.646                  -0.641757       0.0693591
0.647                  -0.640955        0.071903
0.648                  -0.640145       0.0744404
0.649                  -0.639325       0.0769713
0.65                   -0.638496       0.0794957
0.651                  -0.637657       0.0820135
0.652                   -0.63681       0.0845246
0.653                  -0.635954       0.0870293
0.654                  -0.635089       0.0895274
0.655                  -0.634215        0.092019
0.656                  -0.633332       0.0945038
0.657                  -0.632441       0.0969819
0.658                   -0.63154       0.0994535
0.659                  -0.630631        0.101918
0.66                   -0.629713        0.104376
0.661                  -0.628787        0.106828
0.662                  -0.627851        0.109272
0.663                  -0.626908         0.11171
0.664                  -0.625956        0.114141
0.665                  -0.624995        0.116566
0.666                  -0.624026        0.118983
0.667                  -0.623048        0.121394
0.668                  -0.622062        0.123797
0.669                  -0.621068        0.126194
0.67                   -0.620065        0.128584
0.671                  -0.619055        0.130967
0.672                  -0.618036        0.133343
0.673                  -0.617008        0.135713
0.674                  -0.615973        0.138075
0.675                   -0.61493         0.14043
0.676                  -0.613878        0.142778
0.677                  -0.612819        0.145119
0.678                  -0.611752        0.147454
0.679                  -0.610676        0.149781
0.68                   -0.609593        0.152101
0.681                  -0.608502        0.154414
0.682                  -0.607403         0.15672
0.683                  -0.606297        0.159019
0.684                  -0.605183        0.161311
0.685                  -0.604061        0.163595
0.686                  -0.602931        0.165873
0.687                  -0.601794        0.168143
0.688                  -0.600649        0.170406
0.689                  -0.599497        0.172662
0.69                   -0.598337        0.174911
0.691                   -0.59717        0.177153
0.692                  -0.595995        0.179387
0.693                  -0.594813        0.181614
0.694                  -0.593624        0.183834
0.695                  -0.592427        0.186047
0.696                  -0.591223        0.188252
0.697                  -0.590012         0.19045
0.698                  -0.588794        0.192641
0.699                  -0.587568        0.194824
0.7                    -0.586336           0.197
0.701                  -0.585096        0.199169
0.702                  -0.583849         0.20133
0.703                  -0.582596        0.203484
0.704                  -0.581335        0.205631
0.705                  -0.580068         0.20777
0.706                  -0.578793        0.209902
0.707                  -0.577512        0.212026
0.708                  -0.576224        0.214144
0.709                  -0.574929        0.216253
0.71                   -0.573628        0.218355
0.711                   -0.57232         0.22045
0.712                  -0.571005        0.222537
0.713                  -0.569683        0.224617
0.714                  -0.568355        0.226689
0.715                  -0.567021        0.228754
0.716                   -0.56568        0.230812
0.717                  -0.564333        0.232861
0.718                  -0.562979        0.234904
0.719                  -0.561618        0.236938
0.72                   -0.560252        0.238965
0.721                  -0.558878        0.240985
0.722                  -0.557499        0.242997
0.723                  -0.556114        0.245002
0.724                  -0.554722        0.246998
0.725                  -0.553324        0.248988
0.726                   -0.55192        0.250969
0.727                   -0.55051        0.252944
0.728                  -0.549094         0.25491
0.729                  -0.547672        0.256869
0.73                   -0.546243         0.25882
0.731                  -0.544809        0.260764
0.732                  -0.543369          0.2627
0.733                  -0.541923        0.264628
0.734                  -0.540471        0.266549
0.735                  -0.539014        0.268462
0.736                   -0.53755        0.270367
0.737                  -0.536081        0.272265
0.738                  -0.534606        0.274155
0.739                  -0.533126        0.276037
0.74                    -0.53164        0.277911
0.741                  -0.530148        0.279778
0.742                   -0.52865        0.281637
0.743                  -0.527148        0.283488
0.744                  -0.525639        0.285332
0.745                  -0.524125        0.287168
0.746                  -0.522606        0.288996
0.747                  -0.521081        0.290816
0.748                  -0.519551        0.292629
0.749                  -0.518016        0.294433
0.75                   -0.516475         0.29623
0.751                   -0.51493         0.29802
0.752                  -0.513378        0.299801
0.753                  -0.511822        0.301575
0.754                  -0.510261         0.30334
0.755                  -0.508694        0.305098
0.756                  -0.507122        0.306849
0.757                  -0.505546        0.308591
0.758                  -0.503964        0.310325
0.759                  -0.502377        0.312052
0.76                   -0.500786        0.313771
0.761                  -0.499189        0.315482
0.762                  -0.497588        0.317185
0.763                  -0.495981        0.318881
0.764                   -0.49437        0.320568
0.765                  -0.492755        0.322248
0.766                  -0.491134        0.323919
0.767                  -0.489509        0.325583
0.768                  -0.487878        0.327239
0.769                  -0.486244        0.328887
0.77                   -0.484605        0.330528
0.771                  -0.482961         0.33216
0.772                  -0.481312        0.333784
0.773                  -0.479659        0.335401
0.774                  -0.478002         0.33701
0.775                   -0.47634         0.33861
0.776                  -0.474674        0.340203
0.777                  -0.473003        0.341788
0.778                  -0.471328        0.343365
0.779                  -0.469649        0.344934
0.78                   -0.467965        0.346495
0.781                  -0.466277        0.348049
0.782                  -0.464585        0.349594
0.783                  -0.462889        0.351131
0.784                  -0.461189        0.352661
0.785                  -0.459484        0.354182
0.786                  -0.457776        0.355696
0.787                  -0.456063        0.357201
0.788                  -0.454346        0.358699
0.789                  -0.452625        0.360188
0.79                   -0.450901         0.36167
0.791                  -0.449172        0.363144
0.792                   -0.44744         0.36461
0.793                  -0.445703        0.366067
0.794                  -0.443963        0.367517
0.795                  -0.442219        0.368959
0.796                  -0.440471        0.370393
0.797                   -0.43872        0.371819
0.798                  -0.436964        0.373237
0.799                  -0.435206        0.374647
0.8                    -0.433443        0.376049
0.801                  -0.431677        0.377443
0.802                  -0.429907        0.378829
0.803                  -0.428134        0.380207
0.804                  -0.426357        0.381577
0.805                  -0.424577        0.382939
0.806                  -0.422793        0.384293
0.807                  -0.421006        0.385639
0.808                  -0.419215        0.386977
0.809                  -0.417421        0.388307
0.81                   -0.415624        0.389629
0.811                  -0.413823        0.390943
0.812                  -0.412019        0.392249
0.813                  -0.410212        0.393547
0.814                  -0.408402        0.394837
0.815                  -0.406588        0.396119
0.816                  -0.404772        0.397393
0.817                  -0.402952        0.398659
0.818                  -0.401129        0.399917
0.819                  -0.399303        0.401167
0.82                   -0.397474        0.402409
0.821                  -0.395642        0.403643
0.822                  -0.393807        0.404869
0.823                  -0.391969        0.406087
0.824                  -0.390129        0.407297
0.825                  -0.388285        0.408499
0.826                  -0.386439        0.409693
0.827                  -0.384589        0.410879
0.828                  -0.382737        0.412057
0.829                  -0.380883        0.413227
0.83                   -0.379025        0.414389
0.831                  -0.377165        0.415543
0.832                  -0.375302        0.416689
0.833                  -0.373436        0.417826
0.834                  -0.371568        0.418956
0.835                  -0.369698        0.420078
0.836                  -0.367824        0.421192
0.837                  -0.365948        0.422298
0.838                   -0.36407        0.423395
0.839                  -0.362189        0.424485
0.84                   -0.360306        0.425567
0.841                  -0.358421        0.426641
0.842                  -0.356533        0.427707
0.843                  -0.354643        0.428764
0.844                   -0.35275        0.429814
0.845                  -0.350855        0.430856
0.846                  -0.348958         0.43189
0.847                  -0.347059        0.432916
0.848                  -0.345158        0.433933
0.849                  -0.343254        0.434943
0.85                   -0.341348        0.435945
0.851                   -0.33944        0.436939
0.852                  -0.337531        0.437924
0.853                  -0.335618        0.438902
0.854                  -0.333705        0.439872
0.855                  -0.331789        0.440834
0.856                   -0.32987        0.441788
0.857                  -0.327951        0.442733
0.858                  -0.326029        0.443671
0.859                  -0.324105        0.444601
0.86                    -0.32218        0.445523
0.861                  -0.320253        0.446437
0.862                  -0.318324        0.447343
0.863                  -0.316393        0.448241
0.864                   -0.31446        0.449131
0.865                  -0.312526        0.450013
0.866                   -0.31059        0.450887
0.867                  -0.308653        0.451753
0.868                  -0.306714        0.452612
0.869                  -0.304773        0.453462
0.87                   -0.302831        0.454304
0.871                  -0.300887        0.455138
0.872                  -0.298941        0.455965
0.873                  -0.296995        0.456783
0.874                  -0.295047        0.457594
0.875                  -0.293097        0.458396
0.876                  -0.291146        0.459191
0.877                  -0.289194        0.459978
0.878                   -0.28724        0.460756
0.879                  -0.285285        0.461527
0.88                   -0.283329         0.46229
0.881                  -0.281372        0.463045
0.882                  -0.279413        0.463792
0.883                  -0.277453        0.464531
0.884                  -0.275492        0.465263
0.885                   -0.27353        0.465986
0.886                  -0.271567        0.466701
0.887                  -0.269602        0.467409
0.888                  -0.267637        0.468109
0.889                   -0.26567        0.468801
0.89                   -0.263703        0.469485
0.891                  -0.261735         0.47016
0.892                  -0.259765        0.470829
0.893                  -0.257795        0.471489
0.894                  -0.255824        0.472141
0.895                  -0.253852        0.472786
0.896                   -0.25188        0.473423
0.897                  -0.249906        0.474052
0.898                  -0.247932        0.474673
0.899                  -0.245957        0.475286
0.9                    -0.243981        0.475891
0.901                  -0.242005        0.476489
0.902                  -0.240028        0.477078
0.903                   -0.23805         0.47766
0.904                  -0.236072        0.478234
0.905                  -0.234093        0.478801
0.906                  -0.232113        0.479359
0.907                  -0.230134         0.47991
0.908                  -0.228153        0.480453
0.909                  -0.226172        0.480988
0.91                   -0.224191        0.481515
0.911                  -0.222209        0.482035
0.912                  -0.220227        0.482546
0.913                  -0.218245         0.48305
0.914                  -0.216262        0.483546
0.915                  -0.214279        0.484035
0.916                  -0.212295        0.484516
0.917                  -0.210312        0.484989
0.918                  -0.208328        0.485454
0.919                  -0.206344        0.485911
0.92                   -0.204359        0.486361
0.921                  -0.202375        0.486803
0.922                   -0.20039        0.487238
0.923                  -0.198406        0.487664
0.924                  -0.196421        0.488083
0.925                  -0.194436        0.488495
0.926                  -0.192452        0.488898
0.927                  -0.190467        0.489294
0.928                  -0.188483        0.489682
0.929                  -0.186498        0.490063
0.93                   -0.184513        0.490436
0.931                  -0.182529        0.490801
0.932                  -0.180545        0.491159
0.933                  -0.178561        0.491509
0.934                  -0.176577        0.491851
0.935                  -0.174594        0.492186
0.936                   -0.17261        0.492513
0.937                  -0.170627        0.492833
0.938                  -0.168644        0.493145
0.939                  -0.166662        0.493449
0.94                    -0.16468        0.493746
0.941                  -0.162698        0.494035
0.942                  -0.160717        0.494317
0.943                  -0.158736        0.494591
0.944                  -0.156756        0.494857
0.945                  -0.154776        0.495117
0.946                  -0.152796        0.495368
0.947                  -0.150818        0.495612
0.948                  -0.148839        0.495848
0.949                  -0.146862        0.496077
0.95                   -0.144885        0.496299
0.951                  -0.142908        0.496513
0.952                  -0.140933        0.496719
0.953                  -0.138958        0.496918
0.954                  -0.136983         0.49711
0.955                   -0.13501        0.497294
0.956                  -0.133037         0.49747
0.957                  -0.131065         0.49764
0.958                  -0.129094        0.497802
0.959                  -0.127123        0.497956
0.96                   -0.125154        0.498103
0.961                  -0.123185        0.498242
0.962                  -0.121218        0.498375
0.963                  -0.119251        0.498499
0.964                  -0.117285        0.498617
0.965                   -0.11532        0.498727
0.966                  -0.113357        0.498829
0.967                  -0.111394        0.498925
0.968                  -0.109432        0.499013
0.969                  -0.107472        0.499093
0.97                   -0.105512        0.499167
0.971                  -0.103554        0.499233
0.972                  -0.101597        0.499292
0.973                 -0.0996412        0.499343
0.974                 -0.0976864        0.499388
0.975                 -0.0957331        0.499425
0.976                 -0.0937808        0.499454
0.977                 -0.0918299        0.499477
0.978                 -0.0898804        0.499492
0.979                 -0.0879322          0.4995
0.98                  -0.0859854        0.499501
0.981                 -0.0840399        0.499495
0.982                 -0.0820958        0.499481
0.983                 -0.0801533         0.49946
0.984                 -0.0782122        0.499432
0.985                 -0.0762725        0.499397
0.986                 -0.0743344        0.499355
0.987                 -0.0723977        0.499306
0.988                 -0.0704627         0.49925
0.989                 -0.0685293        0.499186
0.99                  -0.0665972        0.499115
0.991                  -0.064667        0.499038
0.992                 -0.0627385        0.498953
0.993                 -0.0608116        0.498861
0.994                 -0.0588864        0.498762
0.995                 -0.0569628        0.498656
0.996                 -0.0550411        0.498543
0.997                 -0.0531211        0.498423
0.998                 -0.0512028        0.498296
0.999                 -0.0492865        0.498162
1                      -0.047372        0.498021
1.001                 -0.0454592        0.497873
1.002                 -0.0435486        0.497719
1.003                 -0.0416397        0.497557
1.004                 -0.0397327        0.497388
1.005                 -0.0378276        0.497212
1.006                 -0.0359248         0.49703
1.007                 -0.0340237         0.49684
1.008                 -0.0321247        0.496644
1.009                 -0.0302277        0.496441
1.01                  -0.0283329        0.496231
1.011                   -0.02644        0.496014
1.012                 -0.0245494         0.49579
1.013                 -0.0226609         0.49556
1.014                 -0.0207745        0.495322
1.015                 -0.0188903        0.495078
1.016                 -0.0170083        0.494827
1.017                 -0.0151286         0.49457
1.018                  -0.013251        0.494305
1.019                 -0.0113758        0.494034
1.02                 -0.00950279        0.493756
1.021                -0.00763217        0.493472
1.022                -0.00576382        0.493181
1.023                  -0.003898        0.492883
1.024                -0.00203437        0.492578
1.025               -0.000173193        0.492267
1.026                 0.00168563        0.491949
1.027                 0.00354195        0.491624
1.028                 0.00539576        0.491293
1.029                 0.00724703        0.490956
1.03                  0.00909597        0.490611
1.031                  0.0109422         0.49026
1.032                   0.012786        0.489903
1.033                  0.0146272        0.489539
1.034                  0.0164657        0.489169
1.035                  0.0183018        0.488792
1.036                  0.0201351        0.488408
1.037                  0.0219658        0.488018
1.038                  0.0237937        0.487622
1.039                  0.0256192        0.487219
1.04                   0.0274417         0.48681
1.041                  0.0292615        0.486394
1.042                  0.0310787        0.485972
1.043                   0.032893        0.485544
1.044                  0.0347045        0.485109
1.045                  0.0365132        0.484667
1.046                   0.038319         0.48422
1.047                   0.040122        0.483766
1.048                  0.0419221        0.483306
1.049                  0.0437193        0.482839
1.05                   0.0455135        0.482367
1.051                  0.0473048        0.481887
1.052                  0.0490933        0.481402
1.053                  0.0508786        0.480911
1.054                   0.052661        0.480413
1.055                  0.0544404        0.479909
1.056                  0.0562166        0.479399
1.057                  0.0579899        0.478882
1.058                  0.0597601         0.47836
1.059                  0.0615272        0.477831
1.06                    0.063291        0.477297
1.061                  0.0650519        0.476756
1.062                  0.0668095        0.476209
1.063                  0.0685641        0.475656
1.064                  0.0703153        0.475097
1.065                  0.0720633        0.474532
1.066                  0.0738082         0.47396
1.067                  0.0755498        0.473383
1.068                  0.0772881          0.4728
1.069                   0.079023        0.472211
1.07                   0.0807548        0.471616
1.071                  0.0824832        0.471015
1.072                  0.0842081        0.470408
1.073                  0.0859298        0.469795
1.074                   0.087648        0.469177
1.075                  0.0893629        0.468552
1.076                  0.0910745        0.467921
1.077                  0.0927825        0.467285
1.078                   0.094487        0.466643
1.079                   0.096188        0.465995
1.08                   0.0978857        0.465341
1.081                  0.0995798        0.464682
1.082                    0.10127        0.464017
1.083                   0.102957        0.463345
1.084                   0.104641        0.462669
1.085                   0.106321        0.461986
1.086                   0.107997        0.461298
1.087                    0.10967        0.460605
1.088                   0.111339        0.459905
1.089                   0.113004          0.4592
1.09                    0.114666        0.458489
1.091                   0.116324        0.457773
1.092                   0.117978        0.457051
1.093                   0.119629        0.456324
1.094                   0.121276        0.455591
1.095                   0.122919        0.454852
1.096                   0.124558        0.454108
1.097                   0.126194        0.453359
1.098                   0.127825        0.452604
1.099                   0.129454        0.451844
1.1                     0.131078        0.451078
1.101                   0.132698        0.450307
1.102                   0.134314         0.44953
1.103                   0.135927        0.448748
1.104                   0.137536        0.447961
1.105                    0.13914        0.447168
1.106                   0.140741         0.44637
1.107                   0.142338        0.445567
1.108                   0.143931        0.444758
1.109                    0.14552        0.443944
1.11                    0.147105        0.443125
1.111                   0.148686          0.4423
1.112                   0.150263        0.441471
1.113                   0.151836        0.440636
1.114                   0.153404        0.439796
1.115                   0.154969        0.438951
1.116                    0.15653        0.438101
1.117                   0.158086        0.437245
1.118                   0.159639        0.436385
1.119                   0.161187        0.435519
1.12                    0.162731        0.434649
1.121                   0.164272        0.433773
1.122                   0.165807        0.432892
1.123                   0.167339        0.432006
1.124                   0.168867        0.431116
1.125                    0.17039         0.43022
1.126                   0.171909         0.42932
1.127                   0.173424        0.428414
1.128                   0.174935        0.427504
1.129                   0.176441        0.426588
1.13                    0.177943        0.425668
1.131                   0.179441        0.424743
1.132                   0.180934        0.423813
1.133                   0.182423        0.422878
1.134                   0.183908        0.421939
1.135                   0.185388        0.420995
1.136                   0.186865        0.420046
1.137                   0.188336        0.419092
1.138                   0.189804        0.418133
1.139                   0.191267         0.41717
1.14                    0.192725        0.416202
1.141                   0.194179         0.41523
1.142                   0.195629        0.414253
1.143                   0.197074        0.413271
1.144                   0.198515        0.412285
1.145                   0.199951        0.411294
1.146                   0.201383        0.410298
1.147                    0.20281        0.409298
1.148                   0.204233        0.408294
1.149                   0.205651        0.407285
1.15                    0.207065        0.406271
1.151                   0.208474        0.405253
1.152                   0.209878        0.404231
1.153                   0.211279        0.403204
1.154                   0.212674        0.402173
1.155                   0.214065        0.401137
1.156                   0.215451        0.400097
1.157                   0.216833        0.399053
1.158                    0.21821        0.398004
1.159                   0.219582        0.396951
1.16                     0.22095        0.395894
1.161                   0.222313        0.394832
1.162                   0.223671        0.393766
1.163                   0.225025        0.392697
1.164                   0.226374        0.391622
1.165                   0.227718        0.390544
1.166                   0.229058        0.389462
1.167                   0.230393        0.388375
1.168                   0.231723        0.387284
1.169                   0.233048        0.386189
1.17                    0.234369        0.385091
1.171                   0.235684        0.383988
1.172                   0.236996        0.382881
1.173                   0.238302        0.381769
1.174                   0.239603        0.380654
1.175                     0.2409        0.379535
1.176                   0.242192        0.378412
1.177                   0.243479        0.377286
1.178                   0.244761        0.376155
1.179                   0.246038         0.37502
1.18                    0.247311        0.373881
1.181                   0.248578        0.372739
1.182                   0.249841        0.371593
1.183                   0.251099        0.370443
1.184                   0.252352        0.369289
1.185                     0.2536        0.368131
1.186                   0.254843         0.36697
1.187                   0.256081        0.365804
1.188                   0.257315        0.364635
1.189                   0.258543        0.363463
1.19                    0.259767        0.362287
1.191                   0.260985        0.361107
1.192                   0.262199        0.359923
1.193                   0.263407        0.358736
1.194                   0.264611        0.357545
1.195                   0.265809        0.356351
1.196                   0.267003        0.355153
1.197                   0.268192        0.353952
1.198                   0.269375        0.352747
1.199                   0.270554        0.351539
1.2                     0.271727        0.350327
1.201                   0.272896        0.349111
1.202                   0.274059        0.347893
1.203                   0.275218        0.346671
1.204                   0.276371        0.345445
1.205                   0.277519        0.344216
1.206                   0.278663        0.342984
1.207                   0.279801        0.341748
1.208                   0.280934        0.340509
1.209                   0.282062        0.339267
1.21                    0.283185        0.338022
1.211                   0.284302        0.336773
1.212                   0.285415        0.335521
1.213                   0.286523        0.334266
1.214                   0.287625        0.333008
1.215                   0.288722        0.331746
1.216                   0.289814        0.330482
1.217                   0.290902        0.329214
1.218                   0.291983        0.327943
1.219                    0.29306        0.326669
1.22                    0.294132        0.325392
1.221                   0.295198        0.324112
1.222                   0.296259        0.322829
1.223                   0.297315        0.321543
1.224                   0.298366        0.320254
1.225                   0.299412        0.318962
1.226                   0.300452        0.317667
1.227                   0.301487         0.31637
1.228                   0.302517        0.315069
1.229                   0.303542        0.313765
1.23                    0.304562        0.312459
1.231                   0.305576        0.311149
1.232                   0.306585        0.309837
1.233                   0.307589        0.308522
1.234                   0.308588        0.307205
1.235                   0.309581        0.305884
1.236                    0.31057        0.304561
1.237                   0.311552        0.303235
1.238                    0.31253        0.301906
1.239                   0.313503        0.300575
1.24                     0.31447        0.299241
1.241                   0.315432        0.297904
1.242                   0.316388        0.296565
1.243                   0.317339        0.295223
1.244                   0.318286        0.293879
1.245                   0.319226        0.292532
1.246                   0.320162        0.291182
1.247                   0.321092         0.28983
1.248                   0.322017        0.288476
1.249                   0.322936        0.287119
1.25                     0.32385        0.285759
1.251                   0.324759        0.284397
1.252                   0.325663        0.283033
1.253                   0.326561        0.281666
1.254                   0.327454        0.280297
1.255                   0.328342        0.278926
1.256                   0.329224        0.277552
1.257                   0.330101        0.276176
1.258                   0.330973        0.274798
1.259                   0.331839        0.273417
1.26                      0.3327        0.272034
1.261                   0.333555        0.270649
1.262                   0.334406        0.269261
1.263                   0.335251        0.267872
1.264                    0.33609         0.26648
1.265                   0.336924        0.265086
1.266                   0.337753         0.26369
1.267                   0.338576        0.262292
1.268                   0.339395        0.260891
1.269                   0.340207        0.259489
1.27                    0.341015        0.258084
1.271                   0.341817        0.256678
1.272                   0.342613        0.255269
1.273                   0.343404        0.253859
1.274                    0.34419        0.252446
1.275                   0.344971        0.251032
1.276                   0.345746        0.249615
1.277                   0.346515        0.248197
1.278                    0.34728        0.246777
1.279                   0.348039        0.245355
1.28                    0.348792        0.243931
1.281                    0.34954        0.242505
1.282                   0.350283        0.241077
1.283                    0.35102        0.239647
1.284                   0.351752        0.238216
1.285                   0.352479        0.236783
1.286                     0.3532        0.235348
1.287                   0.353915        0.233912
1.288                   0.354626        0.232473
1.289                   0.355331        0.231034
1.29                     0.35603        0.229592
1.291                   0.356724        0.228148
1.292                   0.357413        0.226703
1.293                   0.358096        0.225257
1.294                   0.358774        0.223809
1.295                   0.359446        0.222359
1.296                   0.360113        0.220908
1.297                   0.360775        0.219455
1.298                   0.361431           0.218
1.299                   0.362082        0.216545
1.3                     0.362727        0.215087
1.301                   0.363367        0.213628
1.302                   0.364002        0.212168
1.303                   0.364631        0.210706
1.304                   0.365255        0.209243
1.305                   0.365873        0.207779
1.306                   0.366486        0.206313
1.307                   0.367093        0.204845
1.308                   0.367695        0.203377
1.309                   0.368292        0.201907
1.31                    0.368883        0.200435
1.311                   0.369469        0.198963
1.312                   0.370049        0.197489
1.313                   0.370624        0.196014
1.314                   0.371193        0.194538
1.315                   0.371757        0.193061
1.316                   0.372316        0.191582
1.317                   0.372869        0.190102
1.318                   0.373417        0.188621
1.319                   0.373959        0.187139
1.32                    0.374496        0.185656
1.321                   0.375028        0.184171
1.322                   0.375554        0.182686
1.323                   0.376075          0.1812
1.324                    0.37659        0.179712
1.325                     0.3771        0.178224
1.326                   0.377604        0.176734
1.327                   0.378103        0.175244
1.328                   0.378597        0.173752
1.329                   0.379085         0.17226
1.33                    0.379568        0.170766
1.331                   0.380045        0.169272
1.332                   0.380517        0.167777
1.333                   0.380984        0.166281
1.334                   0.381445        0.164784
1.335                   0.381901        0.163286
1.336                   0.382351        0.161787
1.337                   0.382796        0.160288
1.338                   0.383236        0.158788
1.339                    0.38367        0.157287
1.34                    0.384098        0.155785
1.341                   0.384522        0.154283
1.342                    0.38494        0.152779
1.343                   0.385352        0.151276
1.344                   0.385759        0.149771
1.345                   0.386161        0.148266
1.346                   0.386558         0.14676
1.347                   0.386949        0.145253
1.348                   0.387334        0.143746
1.349                   0.387714        0.142238
1.35                    0.388089         0.14073
1.351                   0.388459        0.139221
1.352                   0.388823        0.137712
1.353                   0.389181        0.136202
1.354                   0.389535        0.134691
1.355                   0.389883         0.13318
1.356                   0.390225        0.131669
1.357                   0.390562        0.130157
1.358                   0.390894        0.128645
1.359                   0.391221        0.127132
1.36                    0.391542        0.125619
1.361                   0.391857        0.124105
1.362                   0.392168        0.122592
1.363                   0.392473        0.121077
1.364                   0.392772        0.119563
1.365                   0.393067        0.118048
1.366                   0.393356        0.116533
1.367                   0.393639        0.115017
1.368                   0.393917        0.113501
1.369                    0.39419        0.111985
1.37                    0.394458        0.110469
1.371                    0.39472        0.108953
1.372                   0.394977        0.107436
1.373                   0.395229        0.105919
1.374                   0.395475        0.104402
1.375                   0.395716        0.102885
1.376                   0.395951        0.101368
1.377                   0.396181       0.0998502
1.378                   0.396406       0.0983327
1.379                   0.396626       0.0968151
1.38                     0.39684       0.0952975
1.381                   0.397049       0.0937798
1.382                   0.397253        0.092262
1.383                   0.397451       0.0907443
1.384                   0.397644       0.0892265
1.385                   0.397832       0.0877088
1.386                   0.398015       0.0861911
1.387                   0.398192       0.0846734
1.388                   0.398364       0.0831558
1.389                   0.398531       0.0816383
1.39                    0.398692       0.0801209
1.391                   0.398848       0.0786037
1.392                   0.398999       0.0770865
1.393                   0.399144       0.0755695
1.394                   0.399284       0.0740527
1.395                    0.39942       0.0725361
1.396                   0.399549       0.0710196
1.397                   0.399674       0.0695034
1.398                   0.399793       0.0679874
1.399                   0.399907       0.0664716
1.4                     0.400016       0.0649562
1.401                   0.400119        0.063441
1.402                   0.400217        0.061926
1.403                    0.40031       0.0604115
1.404                   0.400398       0.0588972
1.405                   0.400481       0.0573833
1.406                   0.400558       0.0558697
1.407                    0.40063       0.0543566
1.408                   0.400697       0.0528438
1.409                   0.400759       0.0513314
1.41                    0.400815       0.0498195
1.411                   0.400866        0.048308
1.412                   0.400912       0.0467969
1.413                   0.400953       0.0452864
1.414                   0.400989       0.0437763
1.415                   0.401019       0.0422667
1.416                   0.401044       0.0407577
1.417                   0.401065       0.0392492
1.418                   0.401079       0.0377412
1.419                   0.401089       0.0362338
1.42                    0.401094       0.0347271
1.421                   0.401093       0.0332209
1.422                   0.401087       0.0317153
1.423                   0.401077       0.0302104
1.424                   0.401061       0.0287061
1.425                   0.401039       0.0272024
1.426                   0.401013       0.0256995
1.427                   0.400982       0.0241973
1.428                   0.400945       0.0226957
1.429                   0.400903       0.0211949
1.43                    0.400856       0.0196949
1.431                   0.400804       0.0181956
1.432                   0.400747       0.0166971
1.433                   0.400685       0.0151994
1.434                   0.400618       0.0137024
1.435                   0.400545       0.0122063
1.436                   0.400468       0.0107111
1.437                   0.400385      0.00921669
1.438                   0.400298      0.00772315
1.439                   0.400205      0.00623051
1.44                    0.400107      0.00473877
1.441                   0.400004      0.00324794
1.442                   0.399896      0.00175805
1.443                   0.399783     0.000269099
1.444                   0.399665     -0.00121888
1.445                   0.399542     -0.00270589
1.446                   0.399414      -0.0041919
1.447                    0.39928      -0.0056769
1.448                   0.399142     -0.00716087
1.449                   0.398999     -0.00864381
1.45                    0.398851      -0.0101257
1.451                   0.398697      -0.0116065
1.452                   0.398539      -0.0130862
1.453                   0.398376      -0.0145648
1.454                   0.398207      -0.0160423
1.455                   0.398034      -0.0175187
1.456                   0.397856      -0.0189939
1.457                   0.397672       -0.020468
1.458                   0.397484      -0.0219408
1.459                    0.39729      -0.0234125
1.46                    0.397092       -0.024883
1.461                   0.396889      -0.0263522
1.462                   0.396681      -0.0278202
1.463                   0.396468       -0.029287
1.464                   0.396249      -0.0307525
1.465                   0.396026      -0.0322167
1.466                   0.395798      -0.0336796
1.467                   0.395566      -0.0351411
1.468                   0.395328      -0.0366014
1.469                   0.395085      -0.0380603
1.47                    0.394837      -0.0395178
1.471                   0.394585       -0.040974
1.472                   0.394327      -0.0424288
1.473                   0.394065      -0.0438821
1.474                   0.393798      -0.0453341
1.475                   0.393525      -0.0467846
1.476                   0.393248      -0.0482336
1.477                   0.392966      -0.0496812
1.478                    0.39268      -0.0511273
1.479                   0.392388      -0.0525719
1.48                    0.392092       -0.054015
1.481                    0.39179      -0.0554565
1.482                   0.391484      -0.0568966
1.483                   0.391173       -0.058335
1.484                   0.390857      -0.0597719
1.485                   0.390537      -0.0612072
1.486                   0.390211      -0.0626409
1.487                   0.389881       -0.064073
1.488                   0.389546      -0.0655034
1.489                   0.389206      -0.0669322
1.49                    0.388861      -0.0683594
1.491                   0.388512      -0.0697849
1.492                   0.388157      -0.0712086
1.493                   0.387798      -0.0726307
1.494                   0.387435       -0.074051
1.495                   0.387066      -0.0754696
1.496                   0.386693      -0.0768865
1.497                   0.386315      -0.0783016
1.498                   0.385932      -0.0797149
1.499                   0.385545      -0.0811264
1.5                     0.385152      -0.0825361
1.501                   0.384756       -0.083944
1.502                   0.384354        -0.08535
1.503                   0.383948      -0.0867542
1.504                   0.383537      -0.0881565
1.505                   0.383121      -0.0895569
1.506                   0.382701      -0.0909554
1.507                   0.382276       -0.092352
1.508                   0.381846      -0.0937467
1.509                   0.381411      -0.0951394
1.51                    0.380972      -0.0965302
1.511                   0.380529       -0.097919
1.512                   0.380081      -0.0993058
1.513                   0.379628       -0.100691
1.514                    0.37917       -0.102073
1.515                   0.378708       -0.103454
1.516                   0.378241       -0.104833
1.517                    0.37777        -0.10621
1.518                   0.377294       -0.107584
1.519                   0.376813       -0.108957
1.52                    0.376328       -0.110327
1.521                   0.375839       -0.111695
1.522                   0.375344       -0.113061
1.523                   0.374846       -0.114425
1.524                   0.374342       -0.115787
1.525                   0.373835       -0.117147
1.526                   0.373322       -0.118504
1.527                   0.372805        -0.11986
1.528                   0.372284       -0.121213
1.529                   0.371758       -0.122564
1.53                    0.371228       -0.123912
1.531                   0.370693       -0.125258
1.532                   0.370153       -0.126602
1.533                    0.36961       -0.127944
1.534                   0.369061       -0.129283
1.535                   0.368509       -0.130621
1.536                   0.367951       -0.131955
1.537                    0.36739       -0.133288
1.538                   0.366824       -0.134618
1.539                   0.366253       -0.135945
1.54                    0.365679       -0.137271
1.541                   0.365099       -0.138593
1.542                   0.364516       -0.139914
1.543                   0.363928       -0.141232
1.544                   0.363335       -0.142547
1.545                   0.362738       -0.143861
1.546                   0.362137       -0.145171
1.547                   0.361532       -0.146479
1.548                   0.360922       -0.147785
1.549                   0.360308       -0.149088
1.55                     0.35969       -0.150388
1.551                   0.359067       -0.151687
1.552                    0.35844       -0.152982
1.553                   0.357808       -0.154275
1.554                   0.357173       -0.155565
1.555                   0.356533       -0.156853
1.556                   0.355889       -0.158138
1.557                    0.35524        -0.15942
1.558                   0.354588         -0.1607
1.559                   0.353931       -0.161977
1.56                     0.35327       -0.163251
1.561                   0.352604       -0.164523
1.562                   0.351935       -0.165792
1.563                   0.351261       -0.167059
1.564                   0.350583       -0.168322
1.565                   0.349901       -0.169583
1.566                   0.349215       -0.170841
1.567                   0.348525       -0.172096
1.568                    0.34783       -0.173349
1.569                   0.347131       -0.174599
1.57                    0.346429       -0.175845
1.571                   0.345722       -0.177089
1.572                   0.345011       -0.178331
1.573                   0.344296       -0.179569
1.574                   0.343576       -0.180805
1.575                   0.342853       -0.182037
1.576                   0.342126       -0.183267
1.577                   0.341394       -0.184494
1.578                   0.340659       -0.185718
1.579                    0.33992       -0.186939
1.58                    0.339176       -0.188157
1.581                   0.338429       -0.189372
1.582                   0.337677       -0.190584
1.583                   0.336922       -0.191793
1.584                   0.336162       -0.192999
1.585                   0.335399       -0.194202
1.586                   0.334631       -0.195402
1.587                    0.33386       -0.196599
1.588                   0.333085       -0.197793
1.589                   0.332306       -0.198984
1.59                    0.331523       -0.200171
1.591                   0.330736       -0.201356
1.592                   0.329945       -0.202538
1.593                    0.32915       -0.203716
1.594                   0.328352       -0.204891
1.595                   0.327549       -0.206064
1.596                   0.326743       -0.207233
1.597                   0.325933       -0.208398
1.598                   0.325119       -0.209561
1.599                   0.324301        -0.21072
1.6                      0.32348       -0.211877
1.601                   0.322655        -0.21303
1.602                   0.321825       -0.214179
1.603                   0.320993       -0.215326
1.604                   0.320156       -0.216469
1.605                   0.319316       -0.217609
1.606                   0.318472       -0.218746
1.607                   0.317624       -0.219879
1.608                   0.316773       -0.221009
1.609                   0.315918       -0.222136
1.61                    0.315059       -0.223259
1.611                   0.314197       -0.224379
1.612                    0.31333       -0.225496
1.613                   0.312461       -0.226609
1.614                   0.311587       -0.227719
1.615                   0.310711       -0.228825
1.616                    0.30983       -0.229928
1.617                   0.308946       -0.231028
1.618                   0.308058       -0.232124
1.619                   0.307167       -0.233217
1.62                    0.306272       -0.234306
1.621                   0.305374       -0.235392
1.622                   0.304472       -0.236474
1.623                   0.303567       -0.237553
1.624                   0.302658       -0.238628
1.625                   0.301746         -0.2397
1.626                    0.30083       -0.240768
1.627                   0.299911       -0.241832
1.628                   0.298988       -0.242893
1.629                   0.298062       -0.243951
1.63                    0.297133       -0.245005
1.631                     0.2962       -0.246055
1.632                   0.295264       -0.247102
1.633                   0.294324       -0.248145
1.634                   0.293381       -0.249184
1.635                   0.292435        -0.25022
1.636                   0.291485       -0.251252
1.637                   0.290532       -0.252281
1.638                   0.289576       -0.253306
1.639                   0.288617       -0.254327
1.64                    0.287654       -0.255344
1.641                   0.286688       -0.256358
1.642                   0.285719       -0.257368
1.643                   0.284746       -0.258374
1.644                    0.28377       -0.259377
1.645                   0.282791       -0.260375
1.646                   0.281809        -0.26137
1.647                   0.280824       -0.262362
1.648                   0.279836       -0.263349
1.649                   0.278844       -0.264333
1.65                     0.27785       -0.265312
1.651                   0.276852       -0.266288
1.652                   0.275851        -0.26726
1.653                   0.274847       -0.268229
1.654                    0.27384       -0.269193
1.655                    0.27283       -0.270154
1.656                   0.271817        -0.27111
1.657                   0.270801       -0.272063
1.658                   0.269781       -0.273012
1.659                   0.268759       -0.273957
1.66                    0.267734       -0.274898
1.661                   0.266706       -0.275836
1.662                   0.265675       -0.276769
1.663                   0.264641       -0.277698
1.664                   0.263604       -0.278623
1.665                   0.262565       -0.279545
1.666                   0.261522       -0.280462
1.667                   0.260477       -0.281376
1.668                   0.259428       -0.282285
1.669                   0.258377       -0.283191
1.67                    0.257323       -0.284092
1.671                   0.256266       -0.284989
1.672                   0.255207       -0.285883
1.673                   0.254145       -0.286772
1.674                   0.253079       -0.287657
1.675                   0.252012       -0.288538
1.676                   0.250941       -0.289416
1.677                   0.249868       -0.290289
1.678                   0.248792       -0.291158
1.679                   0.247713       -0.292023
1.68                    0.246632       -0.292883
1.681                   0.245548        -0.29374
1.682                   0.244462       -0.294593
1.683                   0.243372       -0.295441
1.684                   0.242281       -0.296285
1.685                   0.241186       -0.297125
1.686                    0.24009       -0.297961
1.687                    0.23899       -0.298793
1.688                   0.237888       -0.299621
1.689                   0.236784       -0.300444
1.69                    0.235677       -0.301263
1.691                   0.234567       -0.302079
1.692                   0.233456       -0.302889
1.693                   0.232341       -0.303696
1.694                   0.231225       -0.304499
1.695                   0.230106       -0.305297
1.696                   0.228984       -0.306091
1.697                    0.22786        -0.30688
1.698                   0.226734       -0.307666
1.699                   0.225605       -0.308447
1.7                     0.224474       -0.309224
1.701                   0.223341       -0.309997
1.702                   0.222206       -0.310765
1.703                   0.221068       -0.311529
1.704                   0.219928       -0.312289
1.705                   0.218786       -0.313045
1.706                   0.217641       -0.313796
1.707                   0.216495       -0.314543
1.708                   0.215346       -0.315286
1.709                   0.214195       -0.316024
1.71                    0.213042       -0.316758
1.711                   0.211886       -0.317487
1.712                   0.210729       -0.318213
1.713                    0.20957       -0.318933
1.714                   0.208408        -0.31965
1.715                   0.207245       -0.320362
1.716                   0.206079        -0.32107
1.717                   0.204911       -0.321773
1.718                   0.203742       -0.322473
1.719                    0.20257       -0.323167
1.72                    0.201396       -0.323857
1.721                   0.200221       -0.324543
1.722                   0.199043       -0.325225
1.723                   0.197864       -0.325902
1.724                   0.196682       -0.326575
1.725                   0.195499       -0.327243
1.726                   0.194314       -0.327907
1.727                   0.193127       -0.328566
1.728                   0.191939       -0.329221
1.729                   0.190748       -0.329872
1.73                    0.189556       -0.330518
1.731                   0.188362       -0.331159
1.732                   0.187166       -0.331797
1.733                   0.185968       -0.332429
1.734                   0.184769       -0.333058
1.735                   0.183568       -0.333681
1.736                   0.182365       -0.334301
1.737                   0.181161       -0.334916
1.738                   0.179955       -0.335526
1.739                   0.178747       -0.336132
1.74                    0.177538       -0.336733
1.741                   0.176327        -0.33733
1.742                   0.175115       -0.337923
1.743                   0.173901       -0.338511
1.744                   0.172686       -0.339094
1.745                   0.171469       -0.339673
1.746                    0.17025       -0.340248
1.747                    0.16903       -0.340818
1.748                   0.167809       -0.341383
1.749                   0.166586       -0.341944
1.75                    0.165362       -0.342501
1.751                   0.164136       -0.343052
1.752                   0.162909         -0.3436
1.753                   0.161681       -0.344143
1.754                   0.160451       -0.344681
1.755                    0.15922       -0.345215
1.756                   0.157988       -0.345744
1.757                   0.156754       -0.346269
1.758                   0.155519       -0.346789
1.759                   0.154283       -0.347305
1.76                    0.153045       -0.347816
1.761                   0.151807       -0.348323
1.762                   0.150567       -0.348825
1.763                   0.149326       -0.349323
1.764                   0.148084       -0.349816
1.765                    0.14684       -0.350304
1.766                   0.145596       -0.350788
1.767                    0.14435       -0.351267
1.768                   0.143103       -0.351742
1.769                   0.141856       -0.352212
1.77                    0.140607       -0.352678
1.771                   0.139357        -0.35314
1.772                   0.138106       -0.353596
1.773                   0.136854       -0.354048
1.774                   0.135601       -0.354496
1.775                   0.134348       -0.354939
1.776                   0.133093       -0.355377
1.777                   0.131837       -0.355811
1.778                   0.130581       -0.356241
1.779                   0.129323       -0.356666
1.78                    0.128065       -0.357086
1.781                   0.126806       -0.357502
1.782                   0.125546       -0.357913
1.783                   0.124285        -0.35832
1.784                   0.123023       -0.358722
1.785                   0.121761       -0.359119
1.786                   0.120498       -0.359512
1.787                   0.119234       -0.359901
1.788                   0.117969       -0.360285
1.789                   0.116704       -0.360664
1.79                    0.115438       -0.361039
1.791                   0.114171       -0.361409
1.792                   0.112904       -0.361775
1.793                   0.111636       -0.362136
1.794                   0.110367       -0.362493
1.795                   0.109098       -0.362845
1.796                   0.107828       -0.363193
1.797                   0.106558       -0.363536
1.798                   0.105287       -0.363875
1.799                   0.104015       -0.364209
1.8                     0.102744       -0.364538
1.801                   0.101471       -0.364864
1.802                   0.100198       -0.365184
1.803                  0.0989251         -0.3655
1.804                  0.0976512       -0.365812
1.805                  0.0963771       -0.366119
1.806                  0.0951025       -0.366421
1.807                  0.0938274       -0.366719
1.808                  0.0925522       -0.367013
1.809                  0.0912763       -0.367302
1.81                   0.0900004       -0.367587
1.811                  0.0887241       -0.367867
1.812                  0.0874472       -0.368142
1.813                  0.0861704       -0.368413
1.814                  0.0848931        -0.36868
1.815                  0.0836156       -0.368942
1.816                   0.082338         -0.3692
1.817                    0.08106       -0.369453
1.818                   0.079782       -0.369702
1.819                  0.0785038       -0.369946
1.82                   0.0772253       -0.370186
1.821                  0.0759467       -0.370422
1.822                  0.0746679       -0.370653
1.823                  0.0733891       -0.370879
1.824                  0.0721102       -0.371102
1.825                  0.0708311       -0.371319
1.826                   0.069552       -0.371533
1.827                   0.068273       -0.371741
1.828                  0.0669938       -0.371946
1.829                  0.0657146       -0.372146
1.83                   0.0644355       -0.372342
1.831                  0.0631563       -0.372533
1.832                  0.0618773        -0.37272
1.833                  0.0605981       -0.372902
1.834                  0.0593192        -0.37308
1.835                  0.0580403       -0.373254
1.836                  0.0567615       -0.373423
1.837                  0.0554827       -0.373588
1.838                  0.0542042       -0.373749
1.839                  0.0529256       -0.373905
1.84                   0.0516474       -0.374057
1.841                  0.0503692       -0.374205
1.842                  0.0490913       -0.374348
1.843                  0.0478138       -0.374487
1.844                  0.0465362       -0.374621
1.845                   0.045259       -0.374752
1.846                  0.0439821       -0.374878
1.847                  0.0427053       -0.374999
1.848                  0.0414288       -0.375117
1.849                  0.0401527        -0.37523
1.85                    0.038877       -0.375339
1.851                  0.0376014       -0.375443
1.852                  0.0363262       -0.375543
1.853                  0.0350514       -0.375639
1.854                   0.033777       -0.375731
1.855                   0.032503       -0.375819
1.856                  0.0312293       -0.375902
1.857                  0.0299561       -0.375981
1.858                  0.0286832       -0.376056
1.859                  0.0274109       -0.376126
1.86                   0.0261391       -0.376193
1.861                  0.0248676       -0.376255
1.862                  0.0235967       -0.376313
1.863                  0.0223262       -0.376367
1.864                  0.0210563       -0.376416
1.865                  0.0197868       -0.376462
1.866                  0.0185179       -0.376503
1.867                  0.0172497        -0.37654
1.868                  0.0159819       -0.376573
1.869                  0.0147147       -0.376602
1.87                   0.0134482       -0.376627
1.871                  0.0121822       -0.376647
1.872                  0.0109168       -0.376664
1.873                 0.00965206       -0.376676
1.874                 0.00838797       -0.376684
1.875                 0.00712456       -0.376688
1.876                 0.00586187       -0.376688
1.877                 0.00459971       -0.376684
1.878                 0.00333828       -0.376676
1.879                 0.00207768       -0.376664
1.88                 0.000817656       -0.376648
1.881               -0.000441512       -0.376628
1.882                -0.00170008       -0.376604
1.883                -0.00295767       -0.376575
1.884                -0.00421465       -0.376543
1.885                 -0.0054709       -0.376507
1.886                -0.00672632       -0.376466
1.887                -0.00798082       -0.376422
1.888                -0.00923464       -0.376374
1.889                 -0.0104876       -0.376321
1.89                  -0.0117397       -0.376265
1.891                 -0.0129911       -0.376205
1.892                 -0.0142415       -0.376141
1.893                  -0.015491       -0.376073
1.894                 -0.0167396       -0.376001
1.895                 -0.0179874       -0.375925
1.896                 -0.0192343       -0.375845
1.897                 -0.0204803       -0.375761
1.898                 -0.0217254       -0.375674
1.899                 -0.0229695       -0.375582
1.9                   -0.0242127       -0.375487
1.901                 -0.0254548       -0.375388
1.902                 -0.0266962       -0.375285
1.903                 -0.0279364       -0.375178
1.904                 -0.0291757       -0.375067
1.905                 -0.0304141       -0.374953
1.906                 -0.0316514       -0.374834
1.907                 -0.0328876       -0.374712
1.908                  -0.034123       -0.374586
1.909                 -0.0353572       -0.374456
1.91                  -0.0365905       -0.374323
1.911                 -0.0378225       -0.374185
1.912                 -0.0390537       -0.374044
1.913                 -0.0402837       -0.373899
1.914                 -0.0415127       -0.373751
1.915                 -0.0427406       -0.373598
1.916                 -0.0439673       -0.373442
1.917                 -0.0451931       -0.373282
1.918                 -0.0464176       -0.373119
1.919                 -0.0476411       -0.372952
1.92                  -0.0488635       -0.372781
1.921                 -0.0500847       -0.372606
1.922                 -0.0513047       -0.372428
1.923                 -0.0525236       -0.372246
1.924                 -0.0537414       -0.372061
1.925                  -0.054958       -0.371872
1.926                 -0.0561734       -0.371679
1.927                 -0.0573877       -0.371482
1.928                 -0.0586008       -0.371282
1.929                 -0.0598126       -0.371079
1.93                  -0.0610232       -0.370871
1.931                 -0.0622327       -0.370661
1.932                 -0.0634409       -0.370446
1.933                 -0.0646481       -0.370228
1.934                 -0.0658538       -0.370007
1.935                 -0.0670584       -0.369782
1.936                 -0.0682616       -0.369553
1.937                 -0.0694637       -0.369321
1.938                 -0.0706645       -0.369085
1.939                  -0.071864       -0.368846
1.94                  -0.0730623       -0.368603
1.941                 -0.0742594       -0.368357
1.942                  -0.075455       -0.368108
1.943                 -0.0766495       -0.367854
1.944                 -0.0778426       -0.367598
1.945                 -0.0790346       -0.367338
1.946                 -0.0802251       -0.367074
1.947                 -0.0814143       -0.366807
1.948                 -0.0826023       -0.366537
1.949                 -0.0837889       -0.366263
1.95                  -0.0849742       -0.365986
1.951                 -0.0861582       -0.365705
1.952                 -0.0873408       -0.365421
1.953                 -0.0885221       -0.365134
1.954                  -0.089702       -0.364843
1.955                 -0.0908807       -0.364549
1.956                 -0.0920579       -0.364251
1.957                 -0.0932337        -0.36395
1.958                 -0.0944082       -0.363646
1.959                 -0.0955815       -0.363338
1.96                  -0.0967532       -0.363027
1.961                 -0.0979236       -0.362713
1.962                 -0.0990927       -0.362395
1.963                   -0.10026       -0.362075
1.964                  -0.101427        -0.36175
1.965                  -0.102592       -0.361423
1.966                  -0.103755       -0.361092
1.967                  -0.104917       -0.360758
1.968                  -0.106078       -0.360421
1.969                  -0.107237        -0.36008
1.97                   -0.108395       -0.359736
1.971                  -0.109551       -0.359389
1.972                  -0.110706       -0.359039
1.973                   -0.11186       -0.358685
1.974                  -0.113012       -0.358328
1.975                  -0.114163       -0.357968
1.976                  -0.115312       -0.357605
1.977                   -0.11646       -0.357239
1.978                  -0.117607       -0.356869
1.979                  -0.118752       -0.356496
1.98                   -0.119895        -0.35612
1.981                  -0.121038       -0.355741
1.982                  -0.122178       -0.355358
1.983                  -0.123318       -0.354973
1.984                  -0.124455       -0.354584
1.985                  -0.125592       -0.354192
1.986                  -0.126727       -0.353797
1.987                   -0.12786       -0.353399
1.988                  -0.128992       -0.352998
1.989                  -0.130123       -0.352593
1.99                   -0.131252       -0.352186
1.991                  -0.132379       -0.351775
1.992                  -0.133505       -0.351361
1.993                   -0.13463       -0.350945
1.994                  -0.135753       -0.350525
1.995                  -0.136875       -0.350101
1.996                  -0.137995       -0.349675
1.997                  -0.139114       -0.349246
1.998                  -0.140231       -0.348814
1.999                  -0.141347       -0.348378
2                      -0.142461        -0.34794
