! TOUCHSTONE file generated by CST MICROWAVE STUDIO
! Date and time: Sat Aug  1 23:57:48 2026
! Project name: Sonda-Coaxial_21mm_DisifixB_v2_Alchol.cst
! Parameters = {h_recipiente=20; l_conector=50; r_arandela=35; r_ext=10.5; r_int=3; r_recipiente=100; z_recipiente=-100}
! Header version: 2018
! Port assignment regex: !\s*Touchstone port\s*([0-9]+)\s*=\s*(CST MWS port|CST DS port)\s*([0-9]+|Zmin|Zmax)\s*\(\"(.*)\"\)(\s*mode\s*([0-9]+))?.*
! Touchstone port assignment:
! Touchstone port 1 = CST MWS port 1 ("")
# GHz S RI R 50
0.001                   0.971437     -0.00618708
0.002                   0.971407      -0.0123725
0.003                   0.971358      -0.0185546
0.004                   0.971288      -0.0247318
0.005                   0.971197      -0.0309024
0.006                   0.971085      -0.0370651
0.007                    0.97095      -0.0432183
0.008                   0.970793      -0.0493609
0.009                   0.970612      -0.0554914
0.01                    0.970407      -0.0616088
0.011                   0.970176      -0.0677122
0.012                   0.969918      -0.0738005
0.013                   0.969633       -0.079873
0.014                   0.969319       -0.085929
0.015                   0.968975      -0.0919679
0.016                   0.968601      -0.0979894
0.017                   0.968195       -0.103993
0.018                   0.967756       -0.109978
0.019                   0.967283       -0.115945
0.02                    0.966776       -0.121894
0.021                   0.966234       -0.127824
0.022                   0.965656       -0.133736
0.023                   0.965041       -0.139629
0.024                   0.964388       -0.145503
0.025                   0.963698        -0.15136
0.026                   0.962969       -0.157198
0.027                   0.962201       -0.163019
0.028                   0.961394       -0.168821
0.029                   0.960547       -0.174606
0.03                     0.95966       -0.180374
0.031                   0.958733       -0.186125
0.032                   0.957766       -0.191859
0.033                   0.956758       -0.197576
0.034                   0.955709       -0.203276
0.035                    0.95462        -0.20896
0.036                    0.95349       -0.214628
0.037                   0.952319        -0.22028
0.038                   0.951107       -0.225915
0.039                   0.949855       -0.231535
0.04                    0.948562       -0.237139
0.041                   0.947229       -0.242728
0.042                   0.945855       -0.248301
0.043                   0.944441       -0.253858
0.044                   0.942987         -0.2594
0.045                   0.941493       -0.264926
0.046                    0.93996       -0.270437
0.047                   0.938386       -0.275932
0.048                   0.936773       -0.281412
0.049                   0.935122       -0.286876
0.05                    0.933431       -0.292324
0.051                   0.931701       -0.297757
0.052                   0.929933       -0.303174
0.053                   0.928126       -0.308575
0.054                   0.926281        -0.31396
0.055                   0.924399       -0.319328
0.056                   0.922478       -0.324681
0.057                   0.920521       -0.330018
0.058                   0.918526       -0.335338
0.059                   0.916494       -0.340641
0.06                    0.914425       -0.345927
0.061                    0.91232       -0.351197
0.062                   0.910179        -0.35645
0.063                   0.908001       -0.361685
0.064                   0.905788       -0.366903
0.065                    0.90354       -0.372104
0.066                   0.901256       -0.377287
0.067                   0.898937       -0.382452
0.068                   0.896583       -0.387598
0.069                   0.894194       -0.392727
0.07                    0.891771       -0.397837
0.071                   0.889314       -0.402929
0.072                   0.886823       -0.408001
0.073                   0.884299       -0.413055
0.074                   0.881741       -0.418089
0.075                    0.87915       -0.423104
0.076                   0.876526         -0.4281
0.077                   0.873869       -0.433076
0.078                   0.871179       -0.438031
0.079                   0.868458       -0.442967
0.08                    0.865704       -0.447882
0.081                   0.862919       -0.452777
0.082                   0.860102       -0.457651
0.083                   0.857254       -0.462504
0.084                   0.854374       -0.467336
0.085                   0.851464       -0.472146
0.086                   0.848523       -0.476935
0.087                   0.845552       -0.481703
0.088                    0.84255       -0.486448
0.089                   0.839519       -0.491172
0.09                    0.836458       -0.495873
0.091                   0.833367       -0.500551
0.092                   0.830247       -0.505207
0.093                   0.827098        -0.50984
0.094                   0.823921       -0.514451
0.095                   0.820714       -0.519037
0.096                    0.81748       -0.523601
0.097                   0.814217       -0.528141
0.098                   0.810927       -0.532657
0.099                   0.807609        -0.53715
0.1                     0.804263       -0.541618
0.101                   0.800891       -0.546062
0.102                   0.797491       -0.550482
0.103                   0.794065       -0.554877
0.104                   0.790612       -0.559247
0.105                   0.787133       -0.563593
0.106                   0.783629       -0.567913
0.107                   0.780098       -0.572208
0.108                   0.776542       -0.576478
0.109                   0.772961       -0.580722
0.11                    0.769354        -0.58494
0.111                   0.765723       -0.589133
0.112                   0.762067       -0.593299
0.113                   0.758387        -0.59744
0.114                   0.754683       -0.601554
0.115                   0.750955       -0.605642
0.116                   0.747204       -0.609703
0.117                   0.743429       -0.613737
0.118                   0.739631       -0.617745
0.119                    0.73581       -0.621725
0.12                    0.731966       -0.625678
0.121                     0.7281       -0.629604
0.122                   0.724212       -0.633503
0.123                   0.720301       -0.637375
0.124                    0.71637       -0.641218
0.125                   0.712416       -0.645034
0.126                   0.708442       -0.648821
0.127                   0.704447       -0.652581
0.128                   0.700431       -0.656313
0.129                   0.696394       -0.660016
0.13                    0.692337       -0.663691
0.131                   0.688261       -0.667337
0.132                   0.684164       -0.670956
0.133                   0.680048       -0.674545
0.134                   0.675912       -0.678106
0.135                   0.671758       -0.681637
0.136                   0.667585        -0.68514
0.137                   0.663393       -0.688613
0.138                   0.659183       -0.692058
0.139                   0.654955       -0.695473
0.14                    0.650709       -0.698859
0.141                   0.646446       -0.702215
0.142                   0.642165       -0.705542
0.143                   0.637867       -0.708839
0.144                   0.633553       -0.712107
0.145                   0.629222       -0.715344
0.146                   0.624874       -0.718552
0.147                    0.62051        -0.72173
0.148                   0.616131       -0.724878
0.149                   0.611736       -0.727996
0.15                    0.607325       -0.731084
0.151                     0.6029       -0.734142
0.152                   0.598459       -0.737169
0.153                   0.594004       -0.740166
0.154                   0.589535       -0.743132
0.155                   0.585051       -0.746069
0.156                   0.580554       -0.748974
0.157                   0.576042       -0.751849
0.158                   0.571517       -0.754694
0.159                    0.56698       -0.757508
0.16                    0.562429       -0.760291
0.161                   0.557866       -0.763043
0.162                    0.55329       -0.765765
0.163                   0.548701       -0.768456
0.164                   0.544101       -0.771116
0.165                   0.539489       -0.773744
0.166                   0.534866       -0.776343
0.167                   0.530231        -0.77891
0.168                   0.525586       -0.781446
0.169                   0.520929       -0.783951
0.17                    0.516262       -0.786425
0.171                   0.511585       -0.788868
0.172                   0.506898        -0.79128
0.173                   0.502201       -0.793661
0.174                   0.497494        -0.79601
0.175                   0.492778       -0.798329
0.176                   0.488053       -0.800616
0.177                   0.483319       -0.802872
0.178                   0.478576       -0.805097
0.179                   0.473825       -0.807291
0.18                    0.469066       -0.809453
0.181                   0.464299       -0.811585
0.182                   0.459524       -0.813685
0.183                   0.454742       -0.815754
0.184                   0.449952       -0.817791
0.185                   0.445155       -0.819798
0.186                   0.440352       -0.821773
0.187                   0.435542       -0.823717
0.188                   0.430726        -0.82563
0.189                   0.425903       -0.827512
0.19                    0.421075       -0.829363
0.191                   0.416241       -0.831182
0.192                   0.411402       -0.832971
0.193                   0.406557       -0.834728
0.194                   0.401708       -0.836454
0.195                   0.396854       -0.838149
0.196                   0.391995       -0.839813
0.197                   0.387132       -0.841446
0.198                   0.382265       -0.843048
0.199                   0.377394       -0.844619
0.2                     0.372519       -0.846159
0.201                   0.367641       -0.847668
0.202                    0.36276       -0.849147
0.203                   0.357876       -0.850594
0.204                   0.352989       -0.852011
0.205                   0.348099       -0.853397
0.206                   0.343207       -0.854752
0.207                   0.338313       -0.856077
0.208                   0.333417       -0.857371
0.209                    0.32852       -0.858634
0.21                    0.323621       -0.859867
0.211                    0.31872       -0.861069
0.212                   0.313819       -0.862241
0.213                   0.308917       -0.863382
0.214                   0.304014       -0.864493
0.215                    0.29911       -0.865574
0.216                   0.294207       -0.866624
0.217                   0.289303       -0.867645
0.218                   0.284399       -0.868635
0.219                   0.279496       -0.869595
0.22                    0.274594       -0.870525
0.221                   0.269692       -0.871425
0.222                   0.264791       -0.872296
0.223                   0.259891       -0.873136
0.224                   0.254993       -0.873947
0.225                   0.250096       -0.874728
0.226                   0.245201        -0.87548
0.227                   0.240308       -0.876202
0.228                   0.235417       -0.876894
0.229                   0.230528       -0.877557
0.23                    0.225642       -0.878191
0.231                   0.220759       -0.878795
0.232                   0.215878       -0.879371
0.233                   0.211001       -0.879917
0.234                   0.206127       -0.880434
0.235                   0.201256       -0.880922
0.236                   0.196389       -0.881382
0.237                   0.191526       -0.881813
0.238                   0.186666       -0.882214
0.239                   0.181811       -0.882588
0.24                     0.17696       -0.882933
0.241                   0.172114       -0.883249
0.242                   0.167273       -0.883537
0.243                   0.162436       -0.883797
0.244                   0.157605       -0.884029
0.245                   0.152778       -0.884233
0.246                   0.147957       -0.884408
0.247                   0.143142       -0.884556
0.248                   0.138332       -0.884676
0.249                   0.133528       -0.884768
0.25                    0.128731       -0.884833
0.251                   0.123939        -0.88487
0.252                   0.119154        -0.88488
0.253                   0.114376       -0.884863
0.254                   0.109604       -0.884818
0.255                   0.104839       -0.884746
0.256                   0.100081       -0.884647
0.257                  0.0953308       -0.884522
0.258                  0.0905876       -0.884369
0.259                  0.0858516        -0.88419
0.26                   0.0811236       -0.883985
0.261                  0.0764034       -0.883752
0.262                  0.0716911       -0.883494
0.263                   0.066987       -0.883209
0.264                  0.0622911       -0.882898
0.265                  0.0576038       -0.882561
0.266                  0.0529248       -0.882198
0.267                  0.0482547       -0.881809
0.268                  0.0435932       -0.881395
0.269                  0.0389409       -0.880955
0.27                   0.0342979       -0.880489
0.271                  0.0296639       -0.879998
0.272                  0.0250395       -0.879482
0.273                  0.0204246       -0.878941
0.274                  0.0158191       -0.878375
0.275                   0.011224       -0.877783
0.276                 0.00663854       -0.877167
0.277                 0.00206312       -0.876527
0.278                -0.00250196       -0.875861
0.279                -0.00705676       -0.875172
0.28                   -0.011601       -0.874458
0.281                 -0.0161347       -0.873719
0.282                 -0.0206575       -0.872957
0.283                 -0.0251698       -0.872171
0.284                 -0.0296708       -0.871361
0.285                 -0.0341608       -0.870527
0.286                 -0.0386394        -0.86967
0.287                 -0.0431069       -0.868789
0.288                  -0.047563       -0.867885
0.289                 -0.0520072       -0.866957
0.29                  -0.0564396       -0.866007
0.291                 -0.0608606       -0.865033
0.292                 -0.0652695       -0.864037
0.293                 -0.0696662       -0.863018
0.294                  -0.074051       -0.861976
0.295                 -0.0784235       -0.860912
0.296                 -0.0827836       -0.859826
0.297                 -0.0871312       -0.858717
0.298                 -0.0914661       -0.857586
0.299                 -0.0957883       -0.856433
0.3                    -0.100098       -0.855259
0.301                  -0.104394       -0.854062
0.302                  -0.108678       -0.852845
0.303                  -0.112949       -0.851605
0.304                  -0.117206       -0.850345
0.305                   -0.12145       -0.849063
0.306                  -0.125681        -0.84776
0.307                  -0.129898       -0.846436
0.308                  -0.134101       -0.845091
0.309                  -0.138291       -0.843726
0.31                   -0.142468        -0.84234
0.311                   -0.14663       -0.840934
0.312                  -0.150778       -0.839507
0.313                  -0.154913       -0.838061
0.314                  -0.159033       -0.836594
0.315                  -0.163139       -0.835107
0.316                  -0.167231       -0.833601
0.317                  -0.171308       -0.832075
0.318                  -0.175371       -0.830529
0.319                  -0.179419       -0.828964
0.32                   -0.183453        -0.82738
0.321                  -0.187472       -0.825777
0.322                  -0.191476       -0.824155
0.323                  -0.195466       -0.822514
0.324                  -0.199441       -0.820854
0.325                    -0.2034       -0.819176
0.326                  -0.207345       -0.817479
0.327                  -0.211274       -0.815764
0.328                  -0.215188       -0.814031
0.329                  -0.219087        -0.81228
0.33                   -0.222971       -0.810511
0.331                  -0.226839       -0.808723
0.332                  -0.230692       -0.806919
0.333                  -0.234529       -0.805097
0.334                  -0.238351       -0.803257
0.335                  -0.242156         -0.8014
0.336                  -0.245947       -0.799527
0.337                  -0.249721       -0.797636
0.338                   -0.25348       -0.795728
0.339                  -0.257222       -0.793803
0.34                   -0.260949       -0.791862
0.341                   -0.26466       -0.789905
0.342                  -0.268354       -0.787931
0.343                  -0.272033       -0.785941
0.344                  -0.275695       -0.783935
0.345                  -0.279341       -0.781913
0.346                  -0.282971       -0.779875
0.347                  -0.286584       -0.777822
0.348                  -0.290182       -0.775752
0.349                  -0.293762       -0.773668
0.35                   -0.297326       -0.771568
0.351                  -0.300874       -0.769453
0.352                  -0.304405       -0.767323
0.353                   -0.30792       -0.765179
0.354                  -0.311418       -0.763019
0.355                  -0.314899       -0.760845
0.356                  -0.318363       -0.758656
0.357                  -0.321811       -0.756453
0.358                  -0.325242       -0.754236
0.359                  -0.328656       -0.752004
0.36                   -0.332053       -0.749759
0.361                  -0.335433       -0.747499
0.362                  -0.338796       -0.745227
0.363                  -0.342143        -0.74294
0.364                  -0.345472        -0.74064
0.365                  -0.348784       -0.738326
0.366                  -0.352079          -0.736
0.367                  -0.355357        -0.73366
0.368                  -0.358618       -0.731307
0.369                  -0.361862       -0.728942
0.37                   -0.365088       -0.726563
0.371                  -0.368298       -0.724173
0.372                   -0.37149       -0.721769
0.373                  -0.374664       -0.719354
0.374                  -0.377822       -0.716926
0.375                  -0.380962       -0.714486
0.376                  -0.384085       -0.712034
0.377                   -0.38719        -0.70957
0.378                  -0.390278       -0.707095
0.379                  -0.393349       -0.704608
0.38                   -0.396402       -0.702109
0.381                  -0.399438       -0.699599
0.382                  -0.402456       -0.697078
0.383                  -0.405457       -0.694546
0.384                   -0.40844       -0.692003
0.385                  -0.411406       -0.689449
0.386                  -0.414354       -0.686884
0.387                  -0.417285       -0.684309
0.388                  -0.420198       -0.681723
0.389                  -0.423094       -0.679126
0.39                   -0.425971        -0.67652
0.391                  -0.428832       -0.673903
0.392                  -0.431675       -0.671277
0.393                    -0.4345        -0.66864
0.394                  -0.437308       -0.665994
0.395                  -0.440098       -0.663338
0.396                   -0.44287       -0.660672
0.397                  -0.445625       -0.657997
0.398                  -0.448362       -0.655313
0.399                  -0.451081       -0.652619
0.4                    -0.453783       -0.649917
0.401                  -0.456468       -0.647205
0.402                  -0.459134       -0.644485
0.403                  -0.461783       -0.641755
0.404                  -0.464414       -0.639018
0.405                  -0.467028       -0.636271
0.406                  -0.469624       -0.633517
0.407                  -0.472202       -0.630754
0.408                  -0.474763       -0.627983
0.409                  -0.477306       -0.625203
0.41                   -0.479831       -0.622416
0.411                  -0.482339       -0.619621
0.412                  -0.484829       -0.616818
0.413                  -0.487301       -0.614008
0.414                  -0.489756        -0.61119
0.415                  -0.492193       -0.608365
0.416                  -0.494613       -0.605532
0.417                  -0.497015       -0.602693
0.418                    -0.4994       -0.599846
0.419                  -0.501766       -0.596992
0.42                   -0.504116       -0.594131
0.421                  -0.506447       -0.591264
0.422                  -0.508761        -0.58839
0.423                  -0.511058       -0.585509
0.424                  -0.513337       -0.582622
0.425                  -0.515598       -0.579729
0.426                  -0.517842       -0.576829
0.427                  -0.520069       -0.573923
0.428                  -0.522278       -0.571012
0.429                   -0.52447       -0.568094
0.43                   -0.526643        -0.56517
0.431                    -0.5288       -0.562241
0.432                   -0.53094       -0.559306
0.433                  -0.533061       -0.556366
0.434                  -0.535166        -0.55342
0.435                  -0.537253       -0.550469
0.436                  -0.539322       -0.547513
0.437                  -0.541375       -0.544552
0.438                   -0.54341       -0.541585
0.439                  -0.545428       -0.538614
0.44                   -0.547428       -0.535638
0.441                  -0.549411       -0.532657
0.442                  -0.551377       -0.529671
0.443                  -0.553326       -0.526681
0.444                  -0.555257       -0.523687
0.445                  -0.557172       -0.520688
0.446                  -0.559069       -0.517685
0.447                  -0.560949       -0.514678
0.448                  -0.562812       -0.511666
0.449                  -0.564658       -0.508651
0.45                   -0.566486       -0.505632
0.451                  -0.568298       -0.502609
0.452                  -0.570093       -0.499583
0.453                   -0.57187       -0.496552
0.454                  -0.573631       -0.493519
0.455                  -0.575375       -0.490482
0.456                  -0.577102       -0.487441
0.457                  -0.578812       -0.484398
0.458                  -0.580505       -0.481351
0.459                  -0.582181       -0.478301
0.46                   -0.583841       -0.475248
0.461                  -0.585484       -0.472192
0.462                   -0.58711       -0.469134
0.463                  -0.588719       -0.466073
0.464                  -0.590311       -0.463009
0.465                  -0.591887       -0.459942
0.466                  -0.593447       -0.456874
0.467                   -0.59499       -0.453802
0.468                  -0.596516       -0.450729
0.469                  -0.598025       -0.447653
0.47                   -0.599518       -0.444575
0.471                  -0.600995       -0.441495
0.472                  -0.602455       -0.438414
0.473                  -0.603899        -0.43533
0.474                  -0.605326       -0.432244
0.475                  -0.606737       -0.429157
0.476                  -0.608132       -0.426068
0.477                   -0.60951       -0.422978
0.478                  -0.610872       -0.419886
0.479                  -0.612218       -0.416793
0.48                   -0.613548       -0.413698
0.481                  -0.614862       -0.410602
0.482                  -0.616159       -0.407505
0.483                  -0.617441       -0.404407
0.484                  -0.618706       -0.401308
0.485                  -0.619955       -0.398208
0.486                  -0.621189       -0.395108
0.487                  -0.622406       -0.392006
0.488                  -0.623608       -0.388904
0.489                  -0.624793       -0.385801
0.49                   -0.625963       -0.382697
0.491                  -0.627117       -0.379593
0.492                  -0.628255       -0.376489
0.493                  -0.629378       -0.373384
0.494                  -0.630485       -0.370279
0.495                  -0.631576       -0.367174
0.496                  -0.632652       -0.364068
0.497                  -0.633712       -0.360963
0.498                  -0.634756       -0.357857
0.499                  -0.635785       -0.354752
0.5                    -0.636799       -0.351647
0.501                  -0.637797       -0.348542
0.502                   -0.63878       -0.345437
0.503                  -0.639747       -0.342333
0.504                  -0.640699       -0.339229
0.505                  -0.641636       -0.336126
0.506                  -0.642558       -0.333023
0.507                  -0.643464       -0.329921
0.508                  -0.644355       -0.326819
0.509                  -0.645231       -0.323718
0.51                   -0.646093       -0.320618
0.511                  -0.646939       -0.317519
0.512                   -0.64777       -0.314421
0.513                  -0.648586       -0.311324
0.514                  -0.649387       -0.308228
0.515                  -0.650173       -0.305133
0.516                  -0.650945        -0.30204
0.517                  -0.651702       -0.298947
0.518                  -0.652444       -0.295856
0.519                  -0.653171       -0.292766
0.52                   -0.653884       -0.289678
0.521                  -0.654582       -0.286591
0.522                  -0.655265       -0.283506
0.523                  -0.655934       -0.280422
0.524                  -0.656589        -0.27734
0.525                  -0.657229        -0.27426
0.526                  -0.657854       -0.271181
0.527                  -0.658465       -0.268105
0.528                  -0.659062        -0.26503
0.529                  -0.659645       -0.261957
0.53                   -0.660213       -0.258886
0.531                  -0.660767       -0.255818
0.532                  -0.661307       -0.252751
0.533                  -0.661833       -0.249687
0.534                  -0.662345       -0.246625
0.535                  -0.662843       -0.243565
0.536                  -0.663326       -0.240508
0.537                  -0.663796       -0.237453
0.538                  -0.664252         -0.2344
0.539                  -0.664694        -0.23135
0.54                   -0.665122       -0.228303
0.541                  -0.665537       -0.225258
0.542                  -0.665938       -0.222216
0.543                  -0.666325       -0.219176
0.544                  -0.666698       -0.216139
0.545                  -0.667058       -0.213105
0.546                  -0.667404       -0.210074
0.547                  -0.667737       -0.207046
0.548                  -0.668056       -0.204021
0.549                  -0.668362       -0.200999
0.55                   -0.668654        -0.19798
0.551                  -0.668933       -0.194964
0.552                  -0.669199       -0.191951
0.553                  -0.669452       -0.188941
0.554                  -0.669691       -0.185935
0.555                  -0.669917       -0.182932
0.556                   -0.67013       -0.179932
0.557                   -0.67033       -0.176935
0.558                  -0.670517       -0.173943
0.559                  -0.670691       -0.170953
0.56                   -0.670852       -0.167967
0.561                     -0.671       -0.164985
0.562                  -0.671135       -0.162006
0.563                  -0.671257       -0.159031
0.564                  -0.671367        -0.15606
0.565                  -0.671464       -0.153092
0.566                  -0.671548       -0.150128
0.567                  -0.671619       -0.147168
0.568                  -0.671678       -0.144212
0.569                  -0.671725        -0.14126
0.57                   -0.671758       -0.138312
0.571                   -0.67178       -0.135368
0.572                  -0.671789       -0.132428
0.573                  -0.671785       -0.129491
0.574                  -0.671769       -0.126559
0.575                  -0.671741       -0.123632
0.576                  -0.671701       -0.120708
0.577                  -0.671648       -0.117789
0.578                  -0.671584       -0.114874
0.579                  -0.671507       -0.111963
0.58                   -0.671418       -0.109056
0.581                  -0.671317       -0.106154
0.582                  -0.671204       -0.103257
0.583                  -0.671079       -0.100364
0.584                  -0.670942      -0.0974752
0.585                  -0.670794      -0.0945911
0.586                  -0.670633      -0.0917116
0.587                  -0.670461      -0.0888368
0.588                  -0.670277      -0.0859666
0.589                  -0.670081      -0.0831011
0.59                   -0.669874      -0.0802404
0.591                  -0.669655      -0.0773843
0.592                  -0.669425      -0.0745331
0.593                  -0.669183      -0.0716866
0.594                  -0.668929      -0.0688452
0.595                  -0.668664      -0.0660086
0.596                  -0.668388      -0.0631768
0.597                    -0.6681      -0.0603503
0.598                  -0.667801      -0.0575285
0.599                  -0.667491      -0.0547119
0.6                     -0.66717      -0.0519003
0.601                  -0.666837      -0.0490938
0.602                  -0.666494      -0.0462922
0.603                  -0.666139      -0.0434961
0.604                  -0.665773      -0.0407049
0.605                  -0.665396      -0.0379194
0.606                  -0.665009      -0.0351387
0.607                   -0.66461      -0.0323635
0.608                    -0.6642      -0.0295937
0.609                   -0.66378      -0.0268289
0.61                   -0.663349      -0.0240697
0.611                  -0.662907      -0.0213161
0.612                  -0.662454      -0.0185678
0.613                  -0.661991      -0.0158249
0.614                  -0.661517      -0.0130876
0.615                  -0.661033      -0.0103556
0.616                  -0.660538     -0.00762936
0.617                  -0.660033     -0.00490861
0.618                  -0.659517      -0.0021936
0.619                   -0.65899      0.00051596
0.62                   -0.658454      0.00321973
0.621                  -0.657907      0.00591782
0.622                   -0.65735      0.00861007
0.623                  -0.656782       0.0112967
0.624                  -0.656204       0.0139775
0.625                  -0.655617       0.0166524
0.626                  -0.655019       0.0193217
0.627                  -0.654411        0.021985
0.628                  -0.653793       0.0246426
0.629                  -0.653165       0.0272941
0.63                   -0.652527       0.0299398
0.631                  -0.651879       0.0325794
0.632                  -0.651221        0.035213
0.633                  -0.650554       0.0378407
0.634                  -0.649876       0.0404622
0.635                  -0.649189       0.0430778
0.636                  -0.648493       0.0456873
0.637                  -0.647786       0.0482908
0.638                   -0.64707        0.050888
0.639                  -0.646345       0.0534791
0.64                    -0.64561       0.0560639
0.641                  -0.644865       0.0586426
0.642                  -0.644111        0.061215
0.643                  -0.643347       0.0637813
0.644                  -0.642575       0.0663412
0.645                  -0.641792        0.068895
0.646                  -0.641001       0.0714422
0.647                    -0.6402       0.0739832
0.648                  -0.639391       0.0765179
0.649                  -0.638572       0.0790462
0.65                   -0.637743       0.0815682
0.651                  -0.636906       0.0840836
0.652                   -0.63606       0.0865925
0.653                  -0.635205       0.0890949
0.654                   -0.63434        0.091591
0.655                  -0.633467       0.0940807
0.656                  -0.632585       0.0965636
0.657                  -0.631694         0.09904
0.658                  -0.630795         0.10151
0.659                  -0.629886        0.103973
0.66                   -0.628969         0.10643
0.661                  -0.628043         0.10888
0.662                  -0.627108        0.111323
0.663                  -0.626165         0.11376
0.664                  -0.625214         0.11619
0.665                  -0.624254        0.118614
0.666                  -0.623285         0.12103
0.667                  -0.622308         0.12344
0.668                  -0.621322        0.125843
0.669                  -0.620328         0.12824
0.67                   -0.619326        0.130629
0.671                  -0.618315        0.133012
0.672                  -0.617297        0.135388
0.673                   -0.61627        0.137757
0.674                  -0.615235        0.140119
0.675                  -0.614191        0.142474
0.676                   -0.61314        0.144823
0.677                   -0.61208        0.147164
0.678                  -0.611013        0.149499
0.679                  -0.609937        0.151826
0.68                   -0.608854        0.154147
0.681                  -0.607763        0.156461
0.682                  -0.606663        0.158767
0.683                  -0.605556        0.161067
0.684                  -0.604442         0.16336
0.685                  -0.603319        0.165645
0.686                  -0.602189        0.167924
0.687                  -0.601051        0.170195
0.688                  -0.599905        0.172459
0.689                  -0.598752        0.174717
0.69                   -0.597591        0.176967
0.691                  -0.596423         0.17921
0.692                  -0.595247        0.181446
0.693                  -0.594064        0.183674
0.694                  -0.592874        0.185896
0.695                  -0.591676         0.18811
0.696                  -0.590471        0.190317
0.697                  -0.589258        0.192516
0.698                  -0.588038        0.194709
0.699                  -0.586811        0.196894
0.7                    -0.585577        0.199072
0.701                  -0.584335        0.201243
0.702                  -0.583087        0.203407
0.703                  -0.581831        0.205563
0.704                  -0.580569        0.207711
0.705                  -0.579299        0.209853
0.706                  -0.578023        0.211987
0.707                  -0.576739        0.214114
0.708                  -0.575449        0.216233
0.709                  -0.574151        0.218345
0.71                   -0.572847         0.22045
0.711                  -0.571536        0.222547
0.712                  -0.570219        0.224637
0.713                  -0.568895        0.226719
0.714                  -0.567564        0.228794
0.715                  -0.566226        0.230862
0.716                  -0.564882        0.232922
0.717                  -0.563531        0.234974
0.718                  -0.562174        0.237019
0.719                   -0.56081        0.239056
0.72                    -0.55944        0.241086
0.721                  -0.558063        0.243109
0.722                   -0.55668        0.245124
0.723                  -0.555291        0.247131
0.724                  -0.553895        0.249131
0.725                  -0.552493        0.251123
0.726                  -0.551085        0.253108
0.727                  -0.549671        0.255085
0.728                   -0.54825        0.257054
0.729                  -0.546824        0.259016
0.73                   -0.545391         0.26097
0.731                  -0.543952        0.262917
0.732                  -0.542507        0.264856
0.733                  -0.541056        0.266787
0.734                    -0.5396        0.268711
0.735                  -0.538137        0.270627
0.736                  -0.536668        0.272535
0.737                  -0.535194        0.274435
0.738                  -0.533714        0.276328
0.739                  -0.532228        0.278213
0.74                   -0.530736        0.280091
0.741                  -0.529239        0.281961
0.742                  -0.527736        0.283822
0.743                  -0.526227        0.285677
0.744                  -0.524712        0.287523
0.745                  -0.523193        0.289362
0.746                  -0.521667        0.291193
0.747                  -0.520136        0.293016
0.748                    -0.5186        0.294832
0.749                  -0.517058        0.296639
0.75                   -0.515511        0.298439
0.751                  -0.513958        0.300231
0.752                    -0.5124        0.302015
0.753                  -0.510837        0.303791
0.754                  -0.509269         0.30556
0.755                  -0.507695        0.307321
0.756                  -0.506116        0.309073
0.757                  -0.504533        0.310818
0.758                  -0.502943        0.312555
0.759                  -0.501349        0.314285
0.76                    -0.49975        0.316006
0.761                  -0.498146         0.31772
0.762                  -0.496537        0.319425
0.763                  -0.494923        0.321123
0.764                  -0.493304        0.322813
0.765                   -0.49168        0.324494
0.766                  -0.490051        0.326168
0.767                  -0.488417        0.327834
0.768                  -0.486779        0.329493
0.769                  -0.485136        0.331143
0.77                   -0.483488        0.332785
0.771                  -0.481836        0.334419
0.772                  -0.480179        0.336046
0.773                  -0.478517        0.337664
0.774                  -0.476851        0.339275
0.775                   -0.47518        0.340877
0.776                  -0.473505        0.342471
0.777                  -0.471825        0.344058
0.778                  -0.470141        0.345636
0.779                  -0.468452        0.347207
0.78                   -0.466759        0.348769
0.781                  -0.465062        0.350324
0.782                   -0.46336         0.35187
0.783                  -0.461654        0.353409
0.784                  -0.459944        0.354939
0.785                   -0.45823        0.356462
0.786                  -0.456511        0.357976
0.787                  -0.454789        0.359483
0.788                  -0.453062        0.360981
0.789                  -0.451331        0.362471
0.79                   -0.449596        0.363954
0.791                  -0.447858        0.365428
0.792                  -0.446115        0.366894
0.793                  -0.444368        0.368352
0.794                  -0.442618        0.369803
0.795                  -0.440863        0.371245
0.796                  -0.439105        0.372679
0.797                  -0.437342        0.374105
0.798                  -0.435576        0.375522
0.799                  -0.433807        0.376932
0.8                    -0.432034        0.378334
0.801                  -0.430256        0.379728
0.802                  -0.428476        0.381113
0.803                  -0.426691        0.382491
0.804                  -0.424903         0.38386
0.805                  -0.423112        0.385221
0.806                  -0.421317        0.386574
0.807                  -0.419519         0.38792
0.808                  -0.417717        0.389257
0.809                  -0.415911        0.390585
0.81                   -0.414103        0.391906
0.811                  -0.412291        0.393219
0.812                  -0.410475        0.394523
0.813                  -0.408657         0.39582
0.814                  -0.406835        0.397108
0.815                   -0.40501        0.398389
0.816                  -0.403181        0.399661
0.817                   -0.40135        0.400925
0.818                  -0.399515        0.402181
0.819                  -0.397677        0.403428
0.82                   -0.395837        0.404668
0.821                  -0.393993          0.4059
0.822                  -0.392146        0.407123
0.823                  -0.390296        0.408338
0.824                  -0.388444        0.409546
0.825                  -0.386588        0.410745
0.826                   -0.38473        0.411935
0.827                  -0.382868        0.413118
0.828                  -0.381004        0.414293
0.829                  -0.379137         0.41546
0.83                   -0.377268        0.416618
0.831                  -0.375395        0.417768
0.832                   -0.37352         0.41891
0.833                  -0.371643        0.420044
0.834                  -0.369762         0.42117
0.835                  -0.367879        0.422288
0.836                  -0.365994        0.423398
0.837                  -0.364106        0.424499
0.838                  -0.362215        0.425593
0.839                  -0.360323        0.426678
0.84                   -0.358427        0.427755
0.841                  -0.356529        0.428824
0.842                  -0.354629        0.429885
0.843                  -0.352727        0.430938
0.844                  -0.350822        0.431982
0.845                  -0.348915        0.433019
0.846                  -0.347006        0.434047
0.847                  -0.345094        0.435067
0.848                  -0.343181        0.436079
0.849                  -0.341265        0.437083
0.85                   -0.339347        0.438079
0.851                  -0.337427        0.439067
0.852                  -0.335505        0.440047
0.853                   -0.33358        0.441018
0.854                  -0.331654        0.441982
0.855                  -0.329726        0.442937
0.856                  -0.327796        0.443884
0.857                  -0.325864        0.444823
0.858                   -0.32393        0.445754
0.859                  -0.321995        0.446677
0.86                   -0.320057        0.447592
0.861                  -0.318118        0.448499
0.862                  -0.316177        0.449397
0.863                  -0.314234        0.450288
0.864                   -0.31229         0.45117
0.865                  -0.310344        0.452044
0.866                  -0.308396        0.452911
0.867                  -0.306447        0.453769
0.868                  -0.304496        0.454619
0.869                  -0.302543        0.455461
0.87                    -0.30059        0.456295
0.871                  -0.298634        0.457121
0.872                  -0.296677        0.457939
0.873                  -0.294719        0.458748
0.874                  -0.292759         0.45955
0.875                  -0.290798        0.460344
0.876                  -0.288836        0.461129
0.877                  -0.286872        0.461907
0.878                  -0.284907        0.462676
0.879                  -0.282941        0.463438
0.88                   -0.280974        0.464191
0.881                  -0.279005        0.464937
0.882                  -0.277035        0.465674
0.883                  -0.275064        0.466403
0.884                  -0.273092        0.467124
0.885                  -0.271119        0.467838
0.886                  -0.269145        0.468543
0.887                   -0.26717         0.46924
0.888                  -0.265194         0.46993
0.889                  -0.263217        0.470611
0.89                   -0.261239        0.471284
0.891                  -0.259261        0.471949
0.892                  -0.257281        0.472607
0.893                    -0.2553        0.473256
0.894                  -0.253319        0.473898
0.895                  -0.251337        0.474531
0.896                  -0.249354        0.475156
0.897                  -0.247371        0.475774
0.898                  -0.245387        0.476384
0.899                  -0.243402        0.476985
0.9                    -0.241416        0.477579
0.901                   -0.23943        0.478165
0.902                  -0.237444        0.478742
0.903                  -0.235456        0.479312
0.904                  -0.233469        0.479874
0.905                  -0.231481        0.480428
0.906                  -0.229492        0.480975
0.907                  -0.227503        0.481513
0.908                  -0.225513        0.482043
0.909                  -0.223524        0.482566
0.91                   -0.221534        0.483081
0.911                  -0.219543        0.483587
0.912                  -0.217552        0.484086
0.913                  -0.215561        0.484577
0.914                   -0.21357        0.485061
0.915                  -0.211578        0.485536
0.916                  -0.209587        0.486004
0.917                  -0.207595        0.486463
0.918                  -0.205603        0.486915
0.919                  -0.203611         0.48736
0.92                   -0.201619        0.487796
0.921                  -0.199627        0.488224
0.922                  -0.197635        0.488645
0.923                  -0.195643        0.489058
0.924                  -0.193651        0.489463
0.925                  -0.191659        0.489861
0.926                  -0.189667         0.49025
0.927                  -0.187675        0.490632
0.928                  -0.185684        0.491007
0.929                  -0.183692        0.491373
0.93                   -0.181701        0.491732
0.931                  -0.179711        0.492083
0.932                   -0.17772        0.492426
0.933                  -0.175729        0.492762
0.934                   -0.17374         0.49309
0.935                   -0.17175         0.49341
0.936                  -0.169761        0.493723
0.937                  -0.167772        0.494028
0.938                  -0.165783        0.494325
0.939                  -0.163795        0.494615
0.94                   -0.161808        0.494897
0.941                  -0.159821        0.495171
0.942                  -0.157834        0.495438
0.943                  -0.155848        0.495697
0.944                  -0.153863        0.495949
0.945                  -0.151878        0.496193
0.946                  -0.149894        0.496429
0.947                  -0.147911        0.496658
0.948                  -0.145928        0.496879
0.949                  -0.143946        0.497093
0.95                   -0.141965        0.497299
0.951                  -0.139984        0.497498
0.952                  -0.138005        0.497689
0.953                  -0.136026        0.497873
0.954                  -0.134048        0.498049
0.955                  -0.132071        0.498218
0.956                  -0.130095        0.498379
0.957                  -0.128119        0.498533
0.958                  -0.126145        0.498679
0.959                  -0.124172        0.498818
0.96                     -0.1222         0.49895
0.961                  -0.120228        0.499074
0.962                  -0.118258         0.49919
0.963                  -0.116289          0.4993
0.964                  -0.114321        0.499402
0.965                  -0.112354        0.499496
0.966                  -0.110388        0.499583
0.967                  -0.108423        0.499663
0.968                   -0.10646        0.499735
0.969                  -0.104498          0.4998
0.97                   -0.102537        0.499858
0.971                  -0.100577        0.499909
0.972                 -0.0986191        0.499952
0.973                  -0.096662        0.499988
0.974                 -0.0947063        0.500016
0.975                 -0.0927522        0.500038
0.976                 -0.0907993        0.500052
0.977                 -0.0888479        0.500059
0.978                  -0.086898        0.500059
0.979                 -0.0849496        0.500051
0.98                  -0.0830026        0.500036
0.981                  -0.081057        0.500014
0.982                 -0.0791132        0.499985
0.983                 -0.0771708        0.499949
0.984                   -0.07523        0.499906
0.985                 -0.0732908        0.499855
0.986                 -0.0713534        0.499797
0.987                 -0.0694176        0.499733
0.988                 -0.0674835        0.499661
0.989                  -0.065551        0.499582
0.99                  -0.0636204        0.499496
0.991                 -0.0616914        0.499403
0.992                 -0.0597642        0.499303
0.993                 -0.0578389        0.499196
0.994                 -0.0559155        0.499082
0.995                 -0.0539938         0.49896
0.996                  -0.052074        0.498832
0.997                 -0.0501561        0.498697
0.998                 -0.0482403        0.498555
0.999                 -0.0463263        0.498406
1                     -0.0444142         0.49825
1.001                 -0.0425041        0.498087
1.002                 -0.0405962        0.497917
1.003                 -0.0386902        0.497741
1.004                 -0.0367862        0.497557
1.005                 -0.0348844        0.497367
1.006                 -0.0329846        0.497169
1.007                 -0.0310869        0.496965
1.008                 -0.0291915        0.496754
1.009                 -0.0272982        0.496536
1.01                   -0.025407        0.496312
1.011                 -0.0235181        0.496081
1.012                 -0.0216315        0.495842
1.013                  -0.019747        0.495598
1.014                 -0.0178649        0.495346
1.015                  -0.015985        0.495088
1.016                 -0.0141074        0.494823
1.017                 -0.0122323        0.494551
1.018                 -0.0103595        0.494273
1.019                -0.00848902        0.493987
1.02                 -0.00662099        0.493696
1.021                -0.00475537        0.493397
1.022                 -0.0028922        0.493092
1.023                -0.00103161        0.492781
1.024                 0.00082673        0.492463
1.025                 0.00268244        0.492138
1.026                  0.0045354        0.491807
1.027                 0.00638603        0.491469
1.028                  0.0082341        0.491124
1.029                  0.0100796        0.490774
1.03                   0.0119224        0.490416
1.031                  0.0137627        0.490052
1.032                  0.0156003        0.489682
1.033                  0.0174352        0.489305
1.034                  0.0192674        0.488922
1.035                  0.0210968        0.488532
1.036                  0.0229235        0.488136
1.037                  0.0247474        0.487734
1.038                  0.0265686        0.487325
1.039                  0.0283871         0.48691
1.04                   0.0302027        0.486489
1.041                  0.0320155        0.486061
1.042                  0.0338254        0.485627
1.043                  0.0356326        0.485186
1.044                  0.0374366         0.48474
1.045                   0.039238        0.484287
1.046                  0.0410364        0.483827
1.047                  0.0428318        0.483362
1.048                  0.0446242         0.48289
1.049                  0.0464136        0.482413
1.05                   0.0482001        0.481929
1.051                  0.0499835        0.481439
1.052                  0.0517639        0.480942
1.053                  0.0535413         0.48044
1.054                  0.0553155        0.479931
1.055                  0.0570866        0.479417
1.056                  0.0588547        0.478896
1.057                  0.0606197        0.478369
1.058                  0.0623814        0.477836
1.059                    0.06414        0.477297
1.06                   0.0658954        0.476753
1.061                  0.0676477        0.476202
1.062                  0.0693967        0.475645
1.063                  0.0711425        0.475082
1.064                  0.0728849        0.474513
1.065                  0.0746241        0.473939
1.066                    0.07636        0.473358
1.067                  0.0780926        0.472772
1.068                  0.0798221        0.472179
1.069                  0.0815479        0.471581
1.07                   0.0832705        0.470977
1.071                  0.0849897        0.470367
1.072                  0.0867056        0.469752
1.073                  0.0884181         0.46913
1.074                  0.0901271        0.468503
1.075                  0.0918327         0.46787
1.076                  0.0935347        0.467231
1.077                  0.0952333        0.466587
1.078                  0.0969285        0.465937
1.079                  0.0986201        0.465281
1.08                    0.100308        0.464619
1.081                   0.101993        0.463952
1.082                   0.103674        0.463279
1.083                   0.105351        0.462601
1.084                   0.107025        0.461917
1.085                   0.108695        0.461227
1.086                   0.110362        0.460532
1.087                   0.112025        0.459831
1.088                   0.113684        0.459125
1.089                    0.11534        0.458414
1.09                    0.116992        0.457696
1.091                    0.11864        0.456974
1.092                   0.120284        0.456245
1.093                   0.121925        0.455512
1.094                   0.123562        0.454773
1.095                   0.125196        0.454028
1.096                   0.126825        0.453279
1.097                   0.128451        0.452523
1.098                   0.130073        0.451763
1.099                   0.131691        0.450997
1.1                     0.133305        0.450226
1.101                   0.134916         0.44945
1.102                   0.136522        0.448668
1.103                   0.138125        0.447881
1.104                   0.139724        0.447089
1.105                   0.141319        0.446291
1.106                    0.14291        0.445489
1.107                   0.144497        0.444681
1.108                    0.14608        0.443868
1.109                   0.147659         0.44305
1.11                    0.149234        0.442226
1.111                   0.150805        0.441398
1.112                   0.152373        0.440565
1.113                   0.153936        0.439726
1.114                   0.155495        0.438882
1.115                    0.15705        0.438034
1.116                   0.158601         0.43718
1.117                   0.160148        0.436321
1.118                   0.161691        0.435458
1.119                    0.16323        0.434589
1.12                    0.164764        0.433716
1.121                   0.166295        0.432837
1.122                   0.167821        0.431954
1.123                   0.169344        0.431065
1.124                   0.170862        0.430172
1.125                   0.172376        0.429274
1.126                   0.173885        0.428371
1.127                   0.175391        0.427464
1.128                   0.176892        0.426551
1.129                   0.178389        0.425634
1.13                    0.179882        0.424712
1.131                   0.181371        0.423785
1.132                   0.182855        0.422854
1.133                   0.184335        0.421918
1.134                   0.185811        0.420977
1.135                   0.187283        0.420031
1.136                    0.18875        0.419081
1.137                   0.190213        0.418126
1.138                   0.191671        0.417167
1.139                   0.193126        0.416203
1.14                    0.194575        0.415234
1.141                   0.196021        0.414261
1.142                   0.197462        0.413283
1.143                   0.198899        0.412301
1.144                   0.200331        0.411314
1.145                   0.201759        0.410323
1.146                   0.203183        0.409327
1.147                   0.204602        0.408327
1.148                   0.206016        0.407323
1.149                   0.207426        0.406314
1.15                    0.208832          0.4053
1.151                   0.210233        0.404283
1.152                    0.21163         0.40326
1.153                   0.213022        0.402234
1.154                    0.21441        0.401203
1.155                   0.215793        0.400168
1.156                   0.217172        0.399129
1.157                   0.218546        0.398085
1.158                   0.219916        0.397038
1.159                   0.221281        0.395986
1.16                    0.222641        0.394929
1.161                   0.223997        0.393869
1.162                   0.225349        0.392804
1.163                   0.226695        0.391736
1.164                   0.228037        0.390663
1.165                   0.229375        0.389586
1.166                   0.230708        0.388505
1.167                   0.232036         0.38742
1.168                   0.233359        0.386331
1.169                   0.234678        0.385237
1.17                    0.235993         0.38414
1.171                   0.237302        0.383039
1.172                   0.238607        0.381934
1.173                   0.239907        0.380825
1.174                   0.241203        0.379712
1.175                   0.242493        0.378595
1.176                   0.243779        0.377474
1.177                   0.245061        0.376349
1.178                   0.246337         0.37522
1.179                   0.247609        0.374088
1.18                    0.248876        0.372952
1.181                   0.250138        0.371811
1.182                   0.251396        0.370667
1.183                   0.252649         0.36952
1.184                   0.253897        0.368368
1.185                    0.25514        0.367213
1.186                   0.256378        0.366054
1.187                   0.257612        0.364892
1.188                    0.25884        0.363725
1.189                   0.260064        0.362556
1.19                    0.261283        0.361382
1.191                   0.262498        0.360205
1.192                   0.263707        0.359024
1.193                   0.264911         0.35784
1.194                   0.266111        0.356652
1.195                   0.267306         0.35546
1.196                   0.268495        0.354265
1.197                    0.26968        0.353067
1.198                    0.27086        0.351865
1.199                   0.272036        0.350659
1.2                     0.273206         0.34945
1.201                   0.274371        0.348238
1.202                   0.275531        0.347022
1.203                   0.276687        0.345803
1.204                   0.277837        0.344581
1.205                   0.278983        0.343355
1.206                   0.280123        0.342126
1.207                   0.281259        0.340893
1.208                   0.282389        0.339657
1.209                   0.283515        0.338418
1.21                    0.284636        0.337176
1.211                   0.285751         0.33593
1.212                   0.286862        0.334681
1.213                   0.287967        0.333429
1.214                   0.289068        0.332174
1.215                   0.290163        0.330915
1.216                   0.291254        0.329654
1.217                   0.292339        0.328389
1.218                    0.29342        0.327121
1.219                   0.294495         0.32585
1.22                    0.295566        0.324576
1.221                   0.296631        0.323299
1.222                   0.297691        0.322019
1.223                   0.298746        0.320736
1.224                   0.299796         0.31945
1.225                   0.300841        0.318161
1.226                   0.301881        0.316869
1.227                   0.302916        0.315574
1.228                   0.303946        0.314276
1.229                    0.30497        0.312975
1.23                     0.30599        0.311671
1.231                   0.307004        0.310364
1.232                   0.308013        0.309055
1.233                   0.309017        0.307742
1.234                   0.310016        0.306427
1.235                    0.31101        0.305109
1.236                   0.311998        0.303789
1.237                   0.312982        0.302465
1.238                    0.31396        0.301139
1.239                   0.314933         0.29981
1.24                    0.315901        0.298478
1.241                   0.316864        0.297144
1.242                   0.317822        0.295807
1.243                   0.318774        0.294467
1.244                   0.319721        0.293125
1.245                   0.320664         0.29178
1.246                     0.3216        0.290432
1.247                   0.322532        0.289082
1.248                   0.323458         0.28773
1.249                    0.32438        0.286375
1.25                    0.325295        0.285017
1.251                   0.326206        0.283657
1.252                   0.327112        0.282294
1.253                   0.328012        0.280929
1.254                   0.328907        0.279561
1.255                   0.329797        0.278191
1.256                   0.330681        0.276819
1.257                   0.331561        0.275444
1.258                   0.332435        0.274067
1.259                   0.333304        0.272687
1.26                    0.334167        0.271305
1.261                   0.335025        0.269921
1.262                   0.335878        0.268534
1.263                   0.336726        0.267146
1.264                   0.337568        0.265755
1.265                   0.338406        0.264361
1.266                   0.339237        0.262966
1.267                   0.340064        0.261568
1.268                   0.340885        0.260168
1.269                   0.341701        0.258766
1.27                    0.342512        0.257362
1.271                   0.343317        0.255955
1.272                   0.344117        0.254547
1.273                   0.344912        0.253136
1.274                   0.345701        0.251724
1.275                   0.346485        0.250309
1.276                   0.347264        0.248892
1.277                   0.348037        0.247473
1.278                   0.348805        0.246053
1.279                   0.349568         0.24463
1.28                    0.350325        0.243205
1.281                   0.351078        0.241778
1.282                   0.351824         0.24035
1.283                   0.352566        0.238919
1.284                   0.353302        0.237487
1.285                   0.354032        0.236052
1.286                   0.354757        0.234616
1.287                   0.355477        0.233178
1.288                   0.356192        0.231738
1.289                   0.356901        0.230297
1.29                    0.357605        0.228853
1.291                   0.358303        0.227408
1.292                   0.358996        0.225961
1.293                   0.359684        0.224512
1.294                   0.360366        0.223062
1.295                   0.361043         0.22161
1.296                   0.361715        0.220156
1.297                   0.362381        0.218701
1.298                   0.363042        0.217244
1.299                   0.363697        0.215785
1.3                     0.364347        0.214325
1.301                   0.364991        0.212863
1.302                    0.36563        0.211399
1.303                   0.366264        0.209934
1.304                   0.366892        0.208468
1.305                   0.367515           0.207
1.306                   0.368133         0.20553
1.307                   0.368745        0.204059
1.308                   0.369352        0.202587
1.309                   0.369953        0.201113
1.31                    0.370549        0.199638
1.311                   0.371139        0.198161
1.312                   0.371724        0.196683
1.313                   0.372304        0.195204
1.314                   0.372878        0.193723
1.315                   0.373447        0.192241
1.316                    0.37401        0.190757
1.317                   0.374568        0.189273
1.318                    0.37512        0.187787
1.319                   0.375667        0.186299
1.32                    0.376209        0.184811
1.321                   0.376745        0.183321
1.322                   0.377275         0.18183
1.323                   0.377801        0.180338
1.324                   0.378321        0.178845
1.325                   0.378835        0.177351
1.326                   0.379344        0.175855
1.327                   0.379847        0.174359
1.328                   0.380345        0.172861
1.329                   0.380838        0.171362
1.33                    0.381325        0.169862
1.331                   0.381807        0.168361
1.332                   0.382283        0.166859
1.333                   0.382754        0.165357
1.334                   0.383219        0.163853
1.335                   0.383679        0.162348
1.336                   0.384133        0.160842
1.337                   0.384582        0.159335
1.338                   0.385026        0.157828
1.339                   0.385464        0.156319
1.34                    0.385896         0.15481
1.341                   0.386324          0.1533
1.342                   0.386745        0.151789
1.343                   0.387162        0.150277
1.344                   0.387572        0.148764
1.345                   0.387978        0.147251
1.346                   0.388378        0.145736
1.347                   0.388772        0.144221
1.348                   0.389161        0.142706
1.349                   0.389544        0.141189
1.35                    0.389922        0.139672
1.351                   0.390295        0.138155
1.352                   0.390662        0.136636
1.353                   0.391024        0.135117
1.354                    0.39138        0.133597
1.355                   0.391731        0.132077
1.356                   0.392076        0.130556
1.357                   0.392416        0.129035
1.358                    0.39275        0.127513
1.359                   0.393079        0.125991
1.36                    0.393403        0.124468
1.361                   0.393721        0.122944
1.362                   0.394033         0.12142
1.363                    0.39434        0.119896
1.364                   0.394642        0.118371
1.365                   0.394938        0.116846
1.366                   0.395229         0.11532
1.367                   0.395514        0.113794
1.368                   0.395794        0.112268
1.369                   0.396069        0.110741
1.37                    0.396338        0.109214
1.371                   0.396601        0.107687
1.372                   0.396859        0.106159
1.373                   0.397112        0.104631
1.374                   0.397359        0.103103
1.375                   0.397601        0.101575
1.376                   0.397837        0.100046
1.377                   0.398068       0.0985175
1.378                   0.398293       0.0969885
1.379                   0.398513       0.0954594
1.38                    0.398728       0.0939302
1.381                   0.398937       0.0924008
1.382                   0.399141       0.0908713
1.383                   0.399339       0.0893417
1.384                   0.399532       0.0878121
1.385                   0.399719       0.0862824
1.386                   0.399901       0.0847527
1.387                   0.400078        0.083223
1.388                   0.400249       0.0816932
1.389                   0.400414       0.0801635
1.39                    0.400575       0.0786339
1.391                    0.40073       0.0771043
1.392                   0.400879       0.0755747
1.393                   0.401023       0.0740453
1.394                   0.401162        0.072516
1.395                   0.401295       0.0709868
1.396                   0.401423       0.0694578
1.397                   0.401545       0.0679289
1.398                   0.401662       0.0664002
1.399                   0.401774       0.0648717
1.4                      0.40188       0.0633435
1.401                   0.401981       0.0618155
1.402                   0.402076       0.0602877
1.403                   0.402166       0.0587603
1.404                   0.402251       0.0572331
1.405                    0.40233       0.0557062
1.406                   0.402404       0.0541797
1.407                   0.402473       0.0526535
1.408                   0.402536       0.0511277
1.409                   0.402594       0.0496023
1.41                    0.402646       0.0480773
1.411                   0.402693       0.0465527
1.412                   0.402735       0.0450285
1.413                   0.402772       0.0435049
1.414                   0.402803       0.0419816
1.415                   0.402828       0.0404589
1.416                   0.402849       0.0389367
1.417                   0.402864        0.037415
1.418                   0.402873       0.0358939
1.419                   0.402878       0.0343734
1.42                    0.402877       0.0328534
1.421                    0.40287        0.031334
1.422                   0.402859       0.0298153
1.423                   0.402842       0.0282972
1.424                   0.402819       0.0267798
1.425                   0.402792        0.025263
1.426                   0.402759       0.0237469
1.427                   0.402721       0.0222316
1.428                   0.402677        0.020717
1.429                   0.402628       0.0192031
1.43                    0.402574         0.01769
1.431                   0.402515       0.0161776
1.432                    0.40245       0.0146661
1.433                    0.40238       0.0131554
1.434                   0.402305       0.0116456
1.435                   0.402225       0.0101366
1.436                   0.402139      0.00862843
1.437                   0.402048       0.0071212
1.438                   0.401952      0.00561487
1.439                    0.40185      0.00410948
1.44                    0.401743      0.00260503
1.441                   0.401631      0.00110154
1.442                   0.401514    -0.000400957
1.443                   0.401392     -0.00190246
1.444                   0.401264     -0.00340294
1.445                   0.401131     -0.00490239
1.446                   0.400993     -0.00640078
1.447                    0.40085     -0.00789811
1.448                   0.400702     -0.00939434
1.449                   0.400548      -0.0108895
1.45                    0.400389      -0.0123835
1.451                   0.400225      -0.0138763
1.452                   0.400056       -0.015368
1.453                   0.399881      -0.0168585
1.454                   0.399702      -0.0183479
1.455                   0.399517       -0.019836
1.456                   0.399327      -0.0213228
1.457                   0.399132      -0.0228085
1.458                   0.398932      -0.0242928
1.459                   0.398727      -0.0257759
1.46                    0.398517      -0.0272577
1.461                   0.398301      -0.0287381
1.462                   0.398081      -0.0302173
1.463                   0.397855       -0.031695
1.464                   0.397624      -0.0331714
1.465                   0.397388      -0.0346464
1.466                   0.397147        -0.03612
1.467                   0.396901      -0.0375922
1.468                    0.39665      -0.0390629
1.469                   0.396393      -0.0405322
1.47                    0.396132          -0.042
1.471                   0.395866      -0.0434663
1.472                   0.395594      -0.0449311
1.473                   0.395318      -0.0463943
1.474                   0.395037       -0.047856
1.475                    0.39475      -0.0493162
1.476                   0.394459      -0.0507747
1.477                   0.394162      -0.0522317
1.478                    0.39386      -0.0536871
1.479                   0.393554      -0.0551408
1.48                    0.393242      -0.0565929
1.481                   0.392926      -0.0580433
1.482                   0.392605       -0.059492
1.483                   0.392278       -0.060939
1.484                   0.391947      -0.0623843
1.485                    0.39161      -0.0638279
1.486                   0.391269      -0.0652697
1.487                   0.390923      -0.0667097
1.488                   0.390572       -0.068148
1.489                   0.390216      -0.0695845
1.49                    0.389855      -0.0710191
1.491                   0.389489      -0.0724519
1.492                   0.389118      -0.0738828
1.493                   0.388743      -0.0753119
1.494                   0.388362      -0.0767391
1.495                   0.387977      -0.0781644
1.496                   0.387587      -0.0795878
1.497                   0.387192      -0.0810092
1.498                   0.386792      -0.0824287
1.499                   0.386387      -0.0838462
1.5                     0.385978      -0.0852617
1.501                   0.385563      -0.0866752
1.502                   0.385144      -0.0880867
1.503                    0.38472      -0.0894962
1.504                   0.384292      -0.0909036
1.505                   0.383858       -0.092309
1.506                    0.38342      -0.0937122
1.507                   0.382977      -0.0951134
1.508                   0.382529      -0.0965124
1.509                   0.382077      -0.0979093
1.51                     0.38162      -0.0993041
1.511                   0.381158       -0.100697
1.512                   0.380691       -0.102087
1.513                    0.38022       -0.103475
1.514                   0.379744       -0.104861
1.515                   0.379263       -0.106245
1.516                   0.378778       -0.107627
1.517                   0.378288       -0.109006
1.518                   0.377793       -0.110383
1.519                   0.377294       -0.111757
1.52                     0.37679        -0.11313
1.521                   0.376281         -0.1145
1.522                   0.375768       -0.115868
1.523                   0.375251       -0.117233
1.524                   0.374728       -0.118596
1.525                   0.374201       -0.119957
1.526                    0.37367       -0.121315
1.527                   0.373134        -0.12267
1.528                   0.372594       -0.124024
1.529                   0.372049       -0.125375
1.53                    0.371499       -0.126723
1.531                   0.370945       -0.128069
1.532                   0.370386       -0.129413
1.533                   0.369823       -0.130753
1.534                   0.369256       -0.132092
1.535                   0.368684       -0.133428
1.536                   0.368107       -0.134761
1.537                   0.367527       -0.136092
1.538                   0.366941        -0.13742
1.539                   0.366352       -0.138746
1.54                    0.365758       -0.140069
1.541                   0.365159       -0.141389
1.542                   0.364556       -0.142707
1.543                   0.363949       -0.144022
1.544                   0.363337       -0.145334
1.545                   0.362721       -0.146644
1.546                   0.362101       -0.147951
1.547                   0.361477       -0.149255
1.548                   0.360848       -0.150556
1.549                   0.360214       -0.151855
1.55                    0.359577       -0.153151
1.551                   0.358935       -0.154444
1.552                   0.358289       -0.155735
1.553                   0.357639       -0.157022
1.554                   0.356984       -0.158307
1.555                   0.356326       -0.159589
1.556                   0.355663       -0.160868
1.557                   0.354996       -0.162145
1.558                   0.354324       -0.163418
1.559                   0.353649       -0.164689
1.56                    0.352969       -0.165956
1.561                   0.352286       -0.167221
1.562                   0.351598       -0.168483
1.563                   0.350906       -0.169742
1.564                   0.350209       -0.170998
1.565                   0.349509       -0.172251
1.566                   0.348805       -0.173501
1.567                   0.348096       -0.174747
1.568                   0.347384       -0.175991
1.569                   0.346668       -0.177232
1.57                    0.345947        -0.17847
1.571                   0.345223       -0.179705
1.572                   0.344494       -0.180937
1.573                   0.343762       -0.182166
1.574                   0.343025       -0.183392
1.575                   0.342285       -0.184614
1.576                    0.34154       -0.185834
1.577                   0.340792        -0.18705
1.578                    0.34004       -0.188263
1.579                   0.339283       -0.189473
1.58                    0.338523        -0.19068
1.581                    0.33776       -0.191884
1.582                   0.336992       -0.193084
1.583                    0.33622       -0.194282
1.584                   0.335445       -0.195476
1.585                   0.334665       -0.196667
1.586                   0.333882       -0.197855
1.587                   0.333095       -0.199039
1.588                   0.332305        -0.20022
1.589                    0.33151       -0.201398
1.59                    0.330712       -0.202573
1.591                    0.32991       -0.203744
1.592                   0.329105       -0.204913
1.593                   0.328295       -0.206077
1.594                   0.327482       -0.207239
1.595                   0.326665       -0.208397
1.596                   0.325845       -0.209552
1.597                   0.325021       -0.210703
1.598                   0.324193       -0.211851
1.599                   0.323362       -0.212996
1.6                     0.322527       -0.214137
1.601                   0.321689       -0.215275
1.602                   0.320847        -0.21641
1.603                   0.320001       -0.217541
1.604                   0.319152       -0.218668
1.605                   0.318299       -0.219793
1.606                   0.317443       -0.220913
1.607                   0.316583       -0.222031
1.608                    0.31572       -0.223144
1.609                   0.314853       -0.224255
1.61                    0.313983       -0.225362
1.611                    0.31311       -0.226465
1.612                   0.312233       -0.227565
1.613                   0.311352       -0.228661
1.614                   0.310468       -0.229754
1.615                   0.309581       -0.230843
1.616                    0.30869       -0.231929
1.617                   0.307797       -0.233011
1.618                   0.306899       -0.234089
1.619                   0.305999       -0.235164
1.62                    0.305095       -0.236236
1.621                   0.304188       -0.237304
1.622                   0.303277       -0.238368
1.623                   0.302363       -0.239428
1.624                   0.301446       -0.240485
1.625                   0.300526       -0.241539
1.626                   0.299603       -0.242588
1.627                   0.298676       -0.243634
1.628                   0.297746       -0.244677
1.629                   0.296813       -0.245715
1.63                    0.295877        -0.24675
1.631                   0.294938       -0.247782
1.632                   0.293996       -0.248809
1.633                    0.29305       -0.249833
1.634                   0.292102       -0.250853
1.635                    0.29115        -0.25187
1.636                   0.290195       -0.252883
1.637                   0.289238       -0.253892
1.638                   0.288277       -0.254897
1.639                   0.287313       -0.255899
1.64                    0.286346       -0.256896
1.641                   0.285377        -0.25789
1.642                   0.284404       -0.258881
1.643                   0.283428       -0.259867
1.644                   0.282449        -0.26085
1.645                   0.281468       -0.261829
1.646                   0.280483       -0.262804
1.647                   0.279496       -0.263775
1.648                   0.278506       -0.264742
1.649                   0.277513       -0.265706
1.65                    0.276517       -0.266666
1.651                   0.275518       -0.267622
1.652                   0.274517       -0.268574
1.653                   0.273513       -0.269522
1.654                   0.272505       -0.270467
1.655                   0.271496       -0.271407
1.656                   0.270483       -0.272344
1.657                   0.269468       -0.273277
1.658                    0.26845       -0.274206
1.659                   0.267429       -0.275131
1.66                    0.266406       -0.276052
1.661                   0.265379       -0.276969
1.662                   0.264351       -0.277882
1.663                   0.263319       -0.278792
1.664                   0.262285       -0.279697
1.665                   0.261249       -0.280599
1.666                    0.26021       -0.281496
1.667                   0.259168        -0.28239
1.668                   0.258124        -0.28328
1.669                   0.257077       -0.284166
1.67                    0.256027       -0.285048
1.671                   0.254976       -0.285926
1.672                   0.253921         -0.2868
1.673                   0.252864        -0.28767
1.674                   0.251805       -0.288536
1.675                   0.250743       -0.289398
1.676                   0.249679       -0.290256
1.677                   0.248613        -0.29111
1.678                   0.247544        -0.29196
1.679                   0.246472       -0.292806
1.68                    0.245398       -0.293648
1.681                   0.244322       -0.294486
1.682                   0.243244        -0.29532
1.683                   0.242163        -0.29615
1.684                    0.24108       -0.296977
1.685                   0.239995       -0.297799
1.686                   0.238907       -0.298617
1.687                   0.237817       -0.299431
1.688                   0.236725       -0.300241
1.689                   0.235631       -0.301046
1.69                    0.234534       -0.301848
1.691                   0.233436       -0.302646
1.692                   0.232335        -0.30344
1.693                   0.231231        -0.30423
1.694                   0.230126       -0.305015
1.695                   0.229019       -0.305797
1.696                   0.227909       -0.306575
1.697                   0.226798       -0.307348
1.698                   0.225684       -0.308118
1.699                   0.224568       -0.308883
1.7                      0.22345       -0.309644
1.701                   0.222331       -0.310402
1.702                   0.221209       -0.311155
1.703                   0.220085       -0.311904
1.704                   0.218959       -0.312649
1.705                   0.217831        -0.31339
1.706                   0.216701       -0.314126
1.707                   0.215569       -0.314859
1.708                   0.214436       -0.315588
1.709                     0.2133       -0.316312
1.71                    0.212162       -0.317033
1.711                   0.211023       -0.317749
1.712                   0.209882       -0.318461
1.713                   0.208738       -0.319169
1.714                   0.207593       -0.319873
1.715                   0.206447       -0.320573
1.716                   0.205298       -0.321269
1.717                   0.204147       -0.321961
1.718                   0.202995       -0.322648
1.719                   0.201841       -0.323332
1.72                    0.200685       -0.324011
1.721                   0.199528       -0.324686
1.722                   0.198368       -0.325357
1.723                   0.197207       -0.326024
1.724                   0.196045       -0.326687
1.725                    0.19488       -0.327346
1.726                   0.193714          -0.328
1.727                   0.192547       -0.328651
1.728                   0.191377       -0.329297
1.729                   0.190206       -0.329939
1.73                    0.189034       -0.330577
1.731                   0.187859       -0.331211
1.732                   0.186684       -0.331841
1.733                   0.185506       -0.332466
1.734                   0.184327       -0.333088
1.735                   0.183147       -0.333705
1.736                   0.181965       -0.334318
1.737                   0.180782       -0.334927
1.738                   0.179597       -0.335532
1.739                    0.17841       -0.336133
1.74                    0.177222        -0.33673
1.741                   0.176033       -0.337322
1.742                   0.174842        -0.33791
1.743                    0.17365       -0.338495
1.744                   0.172456       -0.339075
1.745                   0.171261       -0.339651
1.746                   0.170065       -0.340222
1.747                   0.168867        -0.34079
1.748                   0.167668       -0.341353
1.749                   0.166467       -0.341913
1.75                    0.165265       -0.342468
1.751                   0.164062       -0.343019
1.752                   0.162857       -0.343566
1.753                   0.161652       -0.344109
1.754                   0.160444       -0.344647
1.755                   0.159236       -0.345182
1.756                   0.158027       -0.345712
1.757                   0.156816       -0.346238
1.758                   0.155604        -0.34676
1.759                    0.15439       -0.347278
1.76                    0.153176       -0.347792
1.761                    0.15196       -0.348301
1.762                   0.150743       -0.348806
1.763                   0.149525       -0.349308
1.764                   0.148306       -0.349805
1.765                   0.147086       -0.350298
1.766                   0.145865       -0.350787
1.767                   0.144642       -0.351271
1.768                   0.143418       -0.351752
1.769                   0.142194       -0.352228
1.77                    0.140968         -0.3527
1.771                   0.139741       -0.353168
1.772                   0.138513       -0.353632
1.773                   0.137284       -0.354092
1.774                   0.136054       -0.354548
1.775                   0.134823       -0.354999
1.776                   0.133591       -0.355447
1.777                   0.132358        -0.35589
1.778                   0.131125       -0.356329
1.779                    0.12989       -0.356764
1.78                    0.128654       -0.357195
1.781                   0.127417       -0.357622
1.782                    0.12618       -0.358044
1.783                   0.124941       -0.358462
1.784                   0.123701       -0.358877
1.785                   0.122461       -0.359287
1.786                    0.12122       -0.359693
1.787                   0.119978       -0.360095
1.788                   0.118735       -0.360493
1.789                   0.117491       -0.360886
1.79                    0.116246       -0.361276
1.791                   0.115001       -0.361661
1.792                   0.113755       -0.362042
1.793                   0.112508       -0.362419
1.794                    0.11126       -0.362792
1.795                   0.110011       -0.363161
1.796                   0.108762       -0.363526
1.797                   0.107512       -0.363887
1.798                   0.106261       -0.364243
1.799                    0.10501       -0.364595
1.8                     0.103757       -0.364944
1.801                   0.102504       -0.365288
1.802                   0.101251       -0.365628
1.803                  0.0999962       -0.365964
1.804                  0.0987413       -0.366296
1.805                  0.0974859       -0.366623
1.806                  0.0962295       -0.366947
1.807                  0.0949726       -0.367266
1.808                  0.0937149       -0.367581
1.809                  0.0924567       -0.367893
1.81                    0.091198         -0.3682
1.811                  0.0899386       -0.368503
1.812                  0.0886787       -0.368802
1.813                  0.0874182       -0.369096
1.814                   0.086157       -0.369387
1.815                  0.0848956       -0.369674
1.816                  0.0836335       -0.369956
1.817                  0.0823707       -0.370235
1.818                  0.0811076       -0.370509
1.819                  0.0798439       -0.370779
1.82                   0.0785799       -0.371045
1.821                  0.0773152       -0.371307
1.822                  0.0760501       -0.371565
1.823                  0.0747846       -0.371819
1.824                  0.0735186       -0.372068
1.825                   0.072252       -0.372314
1.826                   0.070985       -0.372555
1.827                  0.0697177       -0.372793
1.828                  0.0684501       -0.373026
1.829                  0.0671818       -0.373255
1.83                   0.0659133        -0.37348
1.831                  0.0646446       -0.373701
1.832                  0.0633752       -0.373918
1.833                  0.0621057       -0.374131
1.834                  0.0608355        -0.37434
1.835                  0.0595653       -0.374545
1.836                  0.0582946       -0.374745
1.837                  0.0570239       -0.374942
1.838                  0.0557525       -0.375134
1.839                  0.0544809       -0.375323
1.84                   0.0532092       -0.375507
1.841                   0.051937       -0.375687
1.842                  0.0506646       -0.375863
1.843                   0.049392       -0.376035
1.844                  0.0481192       -0.376203
1.845                   0.046846       -0.376367
1.846                  0.0455727       -0.376527
1.847                  0.0442991       -0.376683
1.848                  0.0430254       -0.376834
1.849                  0.0417515       -0.376982
1.85                   0.0404773       -0.377125
1.851                   0.039203       -0.377265
1.852                  0.0379285         -0.3774
1.853                  0.0366538       -0.377531
1.854                  0.0353791       -0.377659
1.855                  0.0341042       -0.377782
1.856                  0.0328292       -0.377901
1.857                   0.031554       -0.378016
1.858                  0.0302787       -0.378127
1.859                  0.0290034       -0.378234
1.86                   0.0277279       -0.378337
1.861                  0.0264524       -0.378435
1.862                  0.0251768        -0.37853
1.863                  0.0239011       -0.378621
1.864                  0.0226255       -0.378707
1.865                  0.0213497        -0.37879
1.866                   0.020074       -0.378868
1.867                  0.0187982       -0.378942
1.868                  0.0175223       -0.379013
1.869                  0.0162466       -0.379079
1.87                   0.0149707       -0.379141
1.871                   0.013695       -0.379199
1.872                  0.0124192       -0.379253
1.873                  0.0111436       -0.379303
1.874                 0.00986803       -0.379349
1.875                 0.00859241       -0.379391
1.876                 0.00731689       -0.379428
1.877                 0.00604133       -0.379462
1.878                 0.00476609       -0.379492
1.879                 0.00349082       -0.379517
1.88                  0.00221572       -0.379539
1.881                0.000940609       -0.379556
1.882               -0.000334315        -0.37957
1.883                -0.00160903       -0.379579
1.884                -0.00288354       -0.379584
1.885                  -0.004158       -0.379585
1.886                -0.00543232       -0.379582
1.887                -0.00670647       -0.379575
1.888                -0.00798036       -0.379564
1.889                -0.00925407       -0.379549
1.89                  -0.0105276        -0.37953
1.891                 -0.0118009       -0.379507
1.892                  -0.013074        -0.37948
1.893                 -0.0143468       -0.379448
1.894                 -0.0156194       -0.379413
1.895                 -0.0168917       -0.379373
1.896                 -0.0181638        -0.37933
1.897                 -0.0194355       -0.379282
1.898                  -0.020707        -0.37923
1.899                 -0.0219782       -0.379175
1.9                   -0.0232492       -0.379115
1.901                 -0.0245196       -0.379051
1.902                 -0.0257899       -0.378983
1.903                 -0.0270598       -0.378911
1.904                 -0.0283293       -0.378835
1.905                 -0.0295986       -0.378755
1.906                 -0.0308673        -0.37867
1.907                 -0.0321358       -0.378582
1.908                 -0.0334039        -0.37849
1.909                 -0.0346715       -0.378393
1.91                  -0.0359388       -0.378293
1.911                 -0.0372055       -0.378188
1.912                 -0.0384719       -0.378079
1.913                 -0.0397378       -0.377967
1.914                 -0.0410033        -0.37785
1.915                 -0.0422683       -0.377729
1.916                 -0.0435329       -0.377604
1.917                 -0.0447969       -0.377475
1.918                 -0.0460604       -0.377341
1.919                 -0.0473235       -0.377204
1.92                  -0.0485859       -0.377063
1.921                  -0.049848       -0.376917
1.922                 -0.0511094       -0.376768
1.923                 -0.0523703       -0.376614
1.924                 -0.0536307       -0.376457
1.925                 -0.0548905       -0.376295
1.926                 -0.0561496       -0.376129
1.927                 -0.0574082       -0.375959
1.928                 -0.0586661       -0.375785
1.929                 -0.0599235       -0.375607
1.93                  -0.0611802       -0.375425
1.931                 -0.0624363       -0.375238
1.932                 -0.0636917       -0.375048
1.933                 -0.0649464       -0.374854
1.934                 -0.0662005       -0.374655
1.935                  -0.067454       -0.374452
1.936                 -0.0687065       -0.374246
1.937                 -0.0699586       -0.374035
1.938                 -0.0712097        -0.37382
1.939                 -0.0724603       -0.373601
1.94                  -0.0737101       -0.373378
1.941                 -0.0749591        -0.37315
1.942                 -0.0762073       -0.372919
1.943                 -0.0774547       -0.372683
1.944                 -0.0787014       -0.372444
1.945                 -0.0799472         -0.3722
1.946                 -0.0811923       -0.371953
1.947                 -0.0824364       -0.371701
1.948                 -0.0836797       -0.371445
1.949                 -0.0849222       -0.371185
1.95                  -0.0861638        -0.37092
1.951                 -0.0874046       -0.370652
1.952                 -0.0886443        -0.37038
1.953                 -0.0898833       -0.370103
1.954                 -0.0911212       -0.369823
1.955                 -0.0923583       -0.369538
1.956                 -0.0935944       -0.369249
1.957                 -0.0948295       -0.368956
1.958                 -0.0960637       -0.368659
1.959                 -0.0972969       -0.368358
1.96                   -0.098529       -0.368053
1.961                 -0.0997601       -0.367743
1.962                   -0.10099        -0.36743
1.963                  -0.102219       -0.367112
1.964                  -0.103447        -0.36679
1.965                  -0.104674       -0.366464
1.966                    -0.1059       -0.366134
1.967                  -0.107125         -0.3658
1.968                  -0.108349       -0.365462
1.969                  -0.109571        -0.36512
1.97                   -0.110793       -0.364773
1.971                  -0.112013       -0.364423
1.972                  -0.113232       -0.364068
1.973                   -0.11445       -0.363709
1.974                  -0.115667       -0.363346
1.975                  -0.116882       -0.362979
1.976                  -0.118096       -0.362608
1.977                  -0.119309       -0.362233
1.978                  -0.120521       -0.361854
1.979                  -0.121732        -0.36147
1.98                   -0.122941       -0.361083
1.981                  -0.124149       -0.360691
1.982                  -0.125355       -0.360295
1.983                  -0.126561       -0.359895
1.984                  -0.127765       -0.359491
1.985                  -0.128967       -0.359083
1.986                  -0.130168        -0.35867
1.987                  -0.131368       -0.358254
1.988                  -0.132567       -0.357834
1.989                  -0.133764       -0.357409
1.99                   -0.134959        -0.35698
1.991                  -0.136153       -0.356547
1.992                  -0.137346        -0.35611
1.993                  -0.138537       -0.355669
1.994                  -0.139727       -0.355224
1.995                  -0.140915       -0.354775
1.996                  -0.142102       -0.354321
1.997                  -0.143287       -0.353864
1.998                   -0.14447       -0.353402
1.999                  -0.145652       -0.352936
2                      -0.146833       -0.352467
