! TOUCHSTONE file generated by CST MICROWAVE STUDIO
! Date and time: Sat Aug  1 23:57:47 2026
! Project name: Sonda-Coaxial_21mm_DisifixB_v2_Alchol.cst
! Parameters = {h_recipiente=20; l_conector=50; r_arandela=35; r_ext=10.5; r_int=3; r_recipiente=100; z_recipiente=-80}
! Header version: 2018
! Port assignment regex: !\s*Touchstone port\s*([0-9]+)\s*=\s*(CST MWS port|CST DS port)\s*([0-9]+|Zmin|Zmax)\s*\(\"(.*)\"\)(\s*mode\s*([0-9]+))?.*
! Touchstone port assignment:
! Touchstone port 1 = CST MWS port 1 ("")
# GHz S RI R 50
0.001                   0.971411     -0.00618647
0.002                   0.971381      -0.0123713
0.003                   0.971331      -0.0185528
0.004                   0.971261      -0.0247293
0.005                    0.97117      -0.0308994
0.006                   0.971058      -0.0370615
0.007                   0.970924      -0.0432141
0.008                   0.970767       -0.049356
0.009                   0.970586       -0.055486
0.01                     0.97038      -0.0616028
0.011                   0.970149      -0.0677056
0.012                   0.969892      -0.0737933
0.013                   0.969606      -0.0798653
0.014                   0.969292      -0.0859207
0.015                   0.968949      -0.0919591
0.016                   0.968574      -0.0979801
0.017                   0.968168       -0.103983
0.018                   0.967729       -0.109968
0.019                   0.967256       -0.115935
0.02                     0.96675       -0.121883
0.021                   0.966207       -0.127812
0.022                   0.965629       -0.133723
0.023                   0.965014       -0.139616
0.024                   0.964361        -0.14549
0.025                   0.963671       -0.151346
0.026                   0.962942       -0.157184
0.027                   0.962174       -0.163004
0.028                   0.961367       -0.168806
0.029                    0.96052       -0.174591
0.03                    0.959634       -0.180358
0.031                   0.958707       -0.186109
0.032                   0.957739       -0.191842
0.033                   0.956732       -0.197558
0.034                   0.955683       -0.203258
0.035                   0.954594       -0.208942
0.036                   0.953464        -0.21461
0.037                   0.952293       -0.220261
0.038                   0.951082       -0.225896
0.039                    0.94983       -0.231516
0.04                    0.948537        -0.23712
0.041                   0.947204       -0.242708
0.042                    0.94583        -0.24828
0.043                   0.944416       -0.253837
0.044                   0.942962       -0.259378
0.045                   0.941469       -0.264904
0.046                   0.939935       -0.270415
0.047                   0.938362        -0.27591
0.048                   0.936749       -0.281389
0.049                   0.935097       -0.286853
0.05                    0.933407       -0.292301
0.051                   0.931677       -0.297733
0.052                   0.929909        -0.30315
0.053                   0.928103        -0.30855
0.054                   0.926258       -0.313935
0.055                   0.924376       -0.319304
0.056                   0.922456       -0.324656
0.057                   0.920498       -0.329992
0.058                   0.918504       -0.335312
0.059                   0.916472       -0.340615
0.06                    0.914404       -0.345901
0.061                   0.912299       -0.351171
0.062                   0.910158       -0.356423
0.063                   0.907981       -0.361658
0.064                   0.905768       -0.366876
0.065                   0.903519       -0.372076
0.066                   0.901236       -0.377259
0.067                   0.898917       -0.382423
0.068                   0.896563        -0.38757
0.069                   0.894175       -0.392698
0.07                    0.891752       -0.397808
0.071                   0.889296         -0.4029
0.072                   0.886805       -0.407972
0.073                   0.884281       -0.413026
0.074                   0.881723        -0.41806
0.075                   0.879132       -0.423075
0.076                   0.876509        -0.42807
0.077                   0.873852       -0.433046
0.078                   0.871163       -0.438001
0.079                   0.868442       -0.442936
0.08                    0.865689       -0.447852
0.081                   0.862904       -0.452746
0.082                   0.860087        -0.45762
0.083                   0.857239       -0.462473
0.084                    0.85436       -0.467304
0.085                    0.85145       -0.472115
0.086                   0.848509       -0.476904
0.087                   0.845538       -0.481671
0.088                   0.842537       -0.486416
0.089                   0.839506       -0.491139
0.09                    0.836445        -0.49584
0.091                   0.833355       -0.500519
0.092                   0.830236       -0.505175
0.093                   0.827087       -0.509808
0.094                    0.82391       -0.514418
0.095                   0.820704       -0.519005
0.096                    0.81747       -0.523568
0.097                   0.814208       -0.528108
0.098                   0.810918       -0.532624
0.099                     0.8076       -0.537117
0.1                     0.804255       -0.541585
0.101                   0.800883       -0.546029
0.102                   0.797484       -0.550448
0.103                   0.794058       -0.554843
0.104                   0.790606       -0.559214
0.105                   0.787127       -0.563559
0.106                   0.783623       -0.567879
0.107                   0.780092       -0.572174
0.108                   0.776537       -0.576444
0.109                   0.772956       -0.580688
0.11                     0.76935       -0.584907
0.111                   0.765719       -0.589099
0.112                   0.762064       -0.593266
0.113                   0.758384       -0.597406
0.114                    0.75468        -0.60152
0.115                   0.750953       -0.605608
0.116                   0.747202       -0.609669
0.117                   0.743427       -0.613704
0.118                    0.73963       -0.617711
0.119                   0.735809       -0.621691
0.12                    0.731966       -0.625644
0.121                     0.7281       -0.629571
0.122                   0.724212       -0.633469
0.123                   0.720303       -0.637341
0.124                   0.716371       -0.641184
0.125                   0.712418          -0.645
0.126                   0.708444       -0.648788
0.127                   0.704449       -0.652548
0.128                   0.700433       -0.656279
0.129                   0.696397       -0.659983
0.13                     0.69234       -0.663658
0.131                   0.688264       -0.667304
0.132                   0.684168       -0.670923
0.133                   0.680052       -0.674512
0.134                   0.675917       -0.678073
0.135                   0.671764       -0.681604
0.136                    0.66759       -0.685108
0.137                   0.663399       -0.688581
0.138                    0.65919       -0.692025
0.139                   0.654962       -0.695441
0.14                    0.650716       -0.698827
0.141                   0.646454       -0.702183
0.142                   0.642173       -0.705511
0.143                   0.637876       -0.708808
0.144                   0.633561       -0.712076
0.145                    0.62923       -0.715313
0.146                   0.624883       -0.718521
0.147                    0.62052       -0.721699
0.148                   0.616141       -0.724847
0.149                   0.611746       -0.727966
0.15                    0.607336       -0.731053
0.151                   0.602911       -0.734111
0.152                   0.598471       -0.737138
0.153                   0.594016       -0.740136
0.154                   0.589547       -0.743102
0.155                   0.585063       -0.746039
0.156                   0.580566       -0.748945
0.157                   0.576055        -0.75182
0.158                   0.571531       -0.754665
0.159                   0.566993       -0.757479
0.16                    0.562443       -0.760262
0.161                   0.557879       -0.763015
0.162                   0.553304       -0.765737
0.163                   0.548716       -0.768428
0.164                   0.544117       -0.771088
0.165                   0.539505       -0.773717
0.166                   0.534882       -0.776315
0.167                   0.530248       -0.778883
0.168                   0.525602       -0.781419
0.169                   0.520946       -0.783925
0.17                     0.51628       -0.786399
0.171                   0.511603       -0.788842
0.172                   0.506916       -0.791254
0.173                   0.502219       -0.793635
0.174                   0.497512       -0.795985
0.175                   0.492797       -0.798304
0.176                   0.488072       -0.800591
0.177                   0.483338       -0.802848
0.178                   0.478596       -0.805073
0.179                   0.473845       -0.807267
0.18                    0.469086        -0.80943
0.181                   0.464319       -0.811562
0.182                   0.459544       -0.813662
0.183                   0.454762       -0.815731
0.184                   0.449973       -0.817769
0.185                   0.445176       -0.819776
0.186                   0.440373       -0.821752
0.187                   0.435563       -0.823696
0.188                   0.430747       -0.825609
0.189                   0.425925       -0.827491
0.19                    0.421097       -0.829342
0.191                   0.416263       -0.831162
0.192                   0.411424       -0.832951
0.193                    0.40658       -0.834708
0.194                   0.401731       -0.836435
0.195                   0.396877        -0.83813
0.196                   0.392018       -0.839795
0.197                   0.387155       -0.841428
0.198                   0.382288        -0.84303
0.199                   0.377417       -0.844602
0.2                     0.372543       -0.846142
0.201                   0.367665       -0.847652
0.202                   0.362784        -0.84913
0.203                     0.3579       -0.850578
0.204                   0.353013       -0.851995
0.205                   0.348124       -0.853382
0.206                   0.343232       -0.854737
0.207                   0.338338       -0.856062
0.208                   0.333442       -0.857356
0.209                   0.328545        -0.85862
0.21                    0.323646       -0.859853
0.211                   0.318746       -0.861055
0.212                   0.313844       -0.862228
0.213                   0.308942       -0.863369
0.214                   0.304039       -0.864481
0.215                   0.299136       -0.865562
0.216                   0.294232       -0.866613
0.217                   0.289329       -0.867633
0.218                   0.284425       -0.868624
0.219                   0.279522       -0.869584
0.22                     0.27462       -0.870515
0.221                   0.269718       -0.871416
0.222                   0.264817       -0.872286
0.223                   0.259917       -0.873127
0.224                   0.255019       -0.873938
0.225                   0.250122        -0.87472
0.226                   0.245228       -0.875471
0.227                   0.240334       -0.876194
0.228                   0.235443       -0.876886
0.229                   0.230555        -0.87755
0.23                    0.225669       -0.878184
0.231                   0.220785       -0.878789
0.232                   0.215905       -0.879365
0.233                   0.211027       -0.879911
0.234                   0.206153       -0.880429
0.235                   0.201283       -0.880917
0.236                   0.196415       -0.881377
0.237                   0.191552       -0.881808
0.238                   0.186693       -0.882211
0.239                   0.181838       -0.882584
0.24                    0.176987        -0.88293
0.241                   0.172141       -0.883246
0.242                   0.167299       -0.883535
0.243                   0.162462       -0.883795
0.244                   0.157631       -0.884027
0.245                   0.152804       -0.884231
0.246                   0.147983       -0.884407
0.247                   0.143168       -0.884555
0.248                   0.138358       -0.884675
0.249                   0.133554       -0.884768
0.25                    0.128757       -0.884833
0.251                   0.123965       -0.884871
0.252                    0.11918       -0.884881
0.253                   0.114402       -0.884864
0.254                    0.10963       -0.884819
0.255                   0.104865       -0.884748
0.256                   0.100107       -0.884649
0.257                  0.0953562       -0.884524
0.258                  0.0906127       -0.884372
0.259                   0.085877       -0.884193
0.26                   0.0811487       -0.883988
0.261                  0.0764287       -0.883756
0.262                   0.071716       -0.883498
0.263                   0.067012       -0.883213
0.264                  0.0623158       -0.882903
0.265                  0.0576283       -0.882566
0.266                  0.0529493       -0.882203
0.267                   0.048279       -0.881815
0.268                  0.0436176       -0.881401
0.269                  0.0389651       -0.880961
0.27                   0.0343218       -0.880496
0.271                  0.0296878       -0.880005
0.272                  0.0250629       -0.879489
0.273                  0.0204481       -0.878948
0.274                  0.0158428       -0.878382
0.275                   0.011247       -0.877791
0.276                 0.00666147       -0.877175
0.277                 0.00208577       -0.876535
0.278                -0.00247936        -0.87587
0.279                -0.00703423        -0.87518
0.28                  -0.0115787       -0.874467
0.281                 -0.0161127       -0.873729
0.282                 -0.0206356       -0.872967
0.283                  -0.025148       -0.872181
0.284                 -0.0296492       -0.871371
0.285                 -0.0341393       -0.870538
0.286                 -0.0386183        -0.86968
0.287                  -0.043086         -0.8688
0.288                  -0.047542       -0.867896
0.289                 -0.0519865       -0.866969
0.29                  -0.0564194       -0.866018
0.291                 -0.0608405       -0.865045
0.292                 -0.0652495       -0.864049
0.293                 -0.0696465        -0.86303
0.294                 -0.0740314       -0.861989
0.295                 -0.0784042       -0.860925
0.296                 -0.0827646       -0.859838
0.297                 -0.0871122        -0.85873
0.298                 -0.0914477       -0.857599
0.299                 -0.0957699       -0.856447
0.3                     -0.10008       -0.855273
0.301                  -0.104377       -0.854076
0.302                  -0.108661       -0.852859
0.303                  -0.112931        -0.85162
0.304                  -0.117189       -0.850359
0.305                  -0.121433       -0.849078
0.306                  -0.125664       -0.847775
0.307                  -0.129881       -0.846451
0.308                  -0.134085       -0.845107
0.309                  -0.138275       -0.843741
0.31                   -0.142452       -0.842356
0.311                  -0.146614        -0.84095
0.312                  -0.150763       -0.839523
0.313                  -0.154898       -0.838077
0.314                  -0.159018        -0.83661
0.315                  -0.163124       -0.835124
0.316                  -0.167216       -0.833617
0.317                  -0.171294       -0.832092
0.318                  -0.175357       -0.830546
0.319                  -0.179406       -0.828981
0.32                    -0.18344       -0.827397
0.321                  -0.187459       -0.825794
0.322                  -0.191464       -0.824172
0.323                  -0.195454       -0.822531
0.324                  -0.199429       -0.820872
0.325                  -0.203388       -0.819194
0.326                  -0.207333       -0.817497
0.327                  -0.211263       -0.815782
0.328                  -0.215177       -0.814049
0.329                  -0.219076       -0.812298
0.33                    -0.22296       -0.810529
0.331                  -0.226829       -0.808742
0.332                  -0.230682       -0.806937
0.333                  -0.234519       -0.805115
0.334                  -0.238341       -0.803276
0.335                  -0.242147       -0.801419
0.336                  -0.245938       -0.799545
0.337                  -0.249712       -0.797654
0.338                  -0.253471       -0.795747
0.339                  -0.257214       -0.793822
0.34                   -0.260941       -0.791881
0.341                  -0.264652       -0.789924
0.342                  -0.268347        -0.78795
0.343                  -0.272026        -0.78596
0.344                  -0.275688       -0.783954
0.345                  -0.279335       -0.781932
0.346                  -0.282965       -0.779894
0.347                  -0.286579       -0.777841
0.348                  -0.290176       -0.775772
0.349                  -0.293757       -0.773687
0.35                   -0.297321       -0.771587
0.351                  -0.300869       -0.769473
0.352                  -0.304401       -0.767343
0.353                  -0.307915       -0.765198
0.354                  -0.311414       -0.763038
0.355                  -0.314895       -0.760864
0.356                   -0.31836       -0.758675
0.357                  -0.321808       -0.756472
0.358                  -0.325239       -0.754255
0.359                  -0.328653       -0.752023
0.36                   -0.332051       -0.749778
0.361                  -0.335431       -0.747519
0.362                  -0.338795       -0.745246
0.363                  -0.342141       -0.742959
0.364                  -0.345471       -0.740659
0.365                  -0.348783       -0.738345
0.366                  -0.352079       -0.736019
0.367                  -0.355357       -0.733679
0.368                  -0.358618       -0.731326
0.369                  -0.361862       -0.728961
0.37                   -0.365089       -0.726582
0.371                  -0.368298       -0.724191
0.372                  -0.371491       -0.721788
0.373                  -0.374665       -0.719372
0.374                  -0.377823       -0.716944
0.375                  -0.380964       -0.714504
0.376                  -0.384086       -0.712052
0.377                  -0.387192       -0.709588
0.378                  -0.390281       -0.707113
0.379                  -0.393351       -0.704626
0.38                   -0.396405       -0.702127
0.381                  -0.399441       -0.699617
0.382                  -0.402459       -0.697096
0.383                   -0.40546       -0.694564
0.384                  -0.408444        -0.69202
0.385                   -0.41141       -0.689466
0.386                  -0.414358       -0.686901
0.387                  -0.417289       -0.684326
0.388                  -0.420203        -0.68174
0.389                  -0.423098       -0.679144
0.39                   -0.425977       -0.676537
0.391                  -0.428837        -0.67392
0.392                   -0.43168       -0.671293
0.393                  -0.434506       -0.668657
0.394                  -0.437314        -0.66601
0.395                  -0.440104       -0.663354
0.396                  -0.442876       -0.660688
0.397                  -0.445632       -0.658013
0.398                  -0.448369       -0.655329
0.399                  -0.451088       -0.652635
0.4                    -0.453791       -0.649932
0.401                  -0.456475       -0.647221
0.402                  -0.459142         -0.6445
0.403                  -0.461791       -0.641771
0.404                  -0.464422       -0.639033
0.405                  -0.467036       -0.636286
0.406                  -0.469632       -0.633531
0.407                  -0.472211       -0.630768
0.408                  -0.474772       -0.627997
0.409                  -0.477315       -0.625218
0.41                    -0.47984        -0.62243
0.411                  -0.482348       -0.619635
0.412                  -0.484838       -0.616832
0.413                  -0.487311       -0.614022
0.414                  -0.489766       -0.611204
0.415                  -0.492203       -0.608378
0.416                  -0.494623       -0.605545
0.417                  -0.497025       -0.602706
0.418                   -0.49941       -0.599859
0.419                  -0.501777       -0.597004
0.42                   -0.504126       -0.594144
0.421                  -0.506458       -0.591276
0.422                  -0.508772       -0.588402
0.423                  -0.511069       -0.585521
0.424                  -0.513348       -0.582634
0.425                   -0.51561        -0.57974
0.426                  -0.517854        -0.57684
0.427                  -0.520081       -0.573935
0.428                   -0.52229       -0.571023
0.429                  -0.524481       -0.568105
0.43                   -0.526656       -0.565181
0.431                  -0.528812       -0.562252
0.432                  -0.530952       -0.559317
0.433                  -0.533074       -0.556376
0.434                  -0.535178        -0.55343
0.435                  -0.537265       -0.550479
0.436                  -0.539335       -0.547522
0.437                  -0.541388       -0.544561
0.438                  -0.543423       -0.541594
0.439                   -0.54544       -0.538623
0.44                   -0.547441       -0.535646
0.441                  -0.549424       -0.532665
0.442                   -0.55139       -0.529679
0.443                  -0.553339       -0.526689
0.444                  -0.555271       -0.523695
0.445                  -0.557185       -0.520695
0.446                  -0.559082       -0.517692
0.447                  -0.560963       -0.514685
0.448                  -0.562825       -0.511673
0.449                  -0.564671       -0.508658
0.45                     -0.5665       -0.505639
0.451                  -0.568312       -0.502616
0.452                  -0.570107       -0.499589
0.453                  -0.571884       -0.496558
0.454                  -0.573645       -0.493524
0.455                  -0.575389       -0.490487
0.456                  -0.577116       -0.487447
0.457                  -0.578826       -0.484403
0.458                  -0.580519       -0.481356
0.459                  -0.582196       -0.478306
0.46                   -0.583855       -0.475253
0.461                  -0.585498       -0.472197
0.462                  -0.587124       -0.469138
0.463                  -0.588733       -0.466076
0.464                  -0.590326       -0.463012
0.465                  -0.591902       -0.459946
0.466                  -0.593461       -0.456877
0.467                  -0.595004       -0.453805
0.468                   -0.59653       -0.450732
0.469                  -0.598039       -0.447656
0.47                   -0.599533       -0.444577
0.471                  -0.601009       -0.441498
0.472                  -0.602469       -0.438415
0.473                  -0.603913       -0.435332
0.474                  -0.605341       -0.432246
0.475                  -0.606751       -0.429159
0.476                  -0.608146        -0.42607
0.477                  -0.609524       -0.422979
0.478                  -0.610887       -0.419887
0.479                  -0.612233       -0.416793
0.48                   -0.613562       -0.413699
0.481                  -0.614876       -0.410602
0.482                  -0.616173       -0.407505
0.483                  -0.617455       -0.404407
0.484                   -0.61872       -0.401308
0.485                  -0.619969       -0.398208
0.486                  -0.621203       -0.395107
0.487                   -0.62242       -0.392005
0.488                  -0.623621       -0.388902
0.489                  -0.624807       -0.385799
0.49                   -0.625977       -0.382695
0.491                  -0.627131       -0.379591
0.492                  -0.628269       -0.376486
0.493                  -0.629391       -0.373382
0.494                  -0.630498       -0.370276
0.495                  -0.631589       -0.367171
0.496                  -0.632665       -0.364065
0.497                  -0.633725        -0.36096
0.498                  -0.634769       -0.357854
0.499                  -0.635798       -0.354749
0.5                    -0.636812       -0.351643
0.501                   -0.63781       -0.348538
0.502                  -0.638792       -0.345434
0.503                   -0.63976       -0.342329
0.504                  -0.640712       -0.339225
0.505                  -0.641649       -0.336121
0.506                   -0.64257       -0.333018
0.507                  -0.643477       -0.329916
0.508                  -0.644368       -0.326814
0.509                  -0.645244       -0.323713
0.51                   -0.646105       -0.320613
0.511                  -0.646951       -0.317514
0.512                  -0.647782       -0.314416
0.513                  -0.648598       -0.311318
0.514                  -0.649399       -0.308222
0.515                  -0.650185       -0.305127
0.516                  -0.650957       -0.302033
0.517                  -0.651713       -0.298941
0.518                  -0.652455       -0.295849
0.519                  -0.653182       -0.292759
0.52                   -0.653895       -0.289671
0.521                  -0.654593       -0.286584
0.522                  -0.655276       -0.283498
0.523                  -0.655945       -0.280415
0.524                  -0.656599       -0.277333
0.525                  -0.657239       -0.274252
0.526                  -0.657864       -0.271174
0.527                  -0.658475       -0.268097
0.528                  -0.659072       -0.265022
0.529                  -0.659655       -0.261949
0.53                   -0.660223       -0.258878
0.531                  -0.660777        -0.25581
0.532                  -0.661317       -0.252743
0.533                  -0.661842       -0.249679
0.534                  -0.662354       -0.246616
0.535                  -0.662852       -0.243556
0.536                  -0.663335       -0.240499
0.537                  -0.663805       -0.237444
0.538                  -0.664261       -0.234391
0.539                  -0.664703       -0.231341
0.54                   -0.665131       -0.228293
0.541                  -0.665545       -0.225248
0.542                  -0.665946       -0.222206
0.543                  -0.666332       -0.219166
0.544                  -0.666706        -0.21613
0.545                  -0.667065       -0.213096
0.546                  -0.667411       -0.210064
0.547                  -0.667744       -0.207036
0.548                  -0.668063       -0.204011
0.549                  -0.668369       -0.200989
0.55                   -0.668661       -0.197969
0.551                   -0.66894       -0.194953
0.552                  -0.669205        -0.19194
0.553                  -0.669458       -0.188931
0.554                  -0.669697       -0.185924
0.555                  -0.669923       -0.182921
0.556                  -0.670136       -0.179921
0.557                  -0.670336       -0.176925
0.558                  -0.670522       -0.173932
0.559                  -0.670696       -0.170942
0.56                   -0.670857       -0.167957
0.561                  -0.671005       -0.164974
0.562                   -0.67114       -0.161995
0.563                  -0.671262        -0.15902
0.564                  -0.671371       -0.156049
0.565                  -0.671468       -0.153081
0.566                  -0.671552       -0.150117
0.567                  -0.671623       -0.147157
0.568                  -0.671682       -0.144201
0.569                  -0.671728       -0.141249
0.57                   -0.671762       -0.138301
0.571                  -0.671783       -0.135357
0.572                  -0.671792       -0.132416
0.573                  -0.671788        -0.12948
0.574                  -0.671772       -0.126548
0.575                  -0.671744        -0.12362
0.576                  -0.671703       -0.120697
0.577                  -0.671651       -0.117777
0.578                  -0.671586       -0.114862
0.579                  -0.671509       -0.111951
0.58                    -0.67142       -0.109045
0.581                  -0.671319       -0.106143
0.582                  -0.671205       -0.103245
0.583                   -0.67108       -0.100352
0.584                  -0.670943      -0.0974638
0.585                  -0.670795      -0.0945797
0.586                  -0.670634      -0.0917004
0.587                  -0.670461      -0.0888254
0.588                  -0.670277      -0.0859553
0.589                  -0.670081      -0.0830898
0.59                   -0.669874      -0.0802291
0.591                  -0.669655      -0.0773731
0.592                  -0.669424      -0.0745218
0.593                  -0.669182      -0.0716755
0.594                  -0.668929      -0.0688339
0.595                  -0.668663      -0.0659974
0.596                  -0.668387      -0.0631658
0.597                  -0.668099      -0.0603391
0.598                    -0.6678      -0.0575174
0.599                   -0.66749      -0.0547007
0.6                    -0.667168      -0.0518892
0.601                  -0.666836      -0.0490828
0.602                  -0.666492      -0.0462814
0.603                  -0.666137      -0.0434853
0.604                  -0.665771      -0.0406943
0.605                  -0.665394      -0.0379086
0.606                  -0.665006      -0.0351281
0.607                  -0.664607      -0.0323529
0.608                  -0.664198       -0.029583
0.609                  -0.663777      -0.0268185
0.61                   -0.663346      -0.0240593
0.611                  -0.662904      -0.0213057
0.612                  -0.662451      -0.0185575
0.613                  -0.661988      -0.0158145
0.614                  -0.661514      -0.0130774
0.615                  -0.661029      -0.0103456
0.616                  -0.660534     -0.00761938
0.617                  -0.660028     -0.00489866
0.618                  -0.659512     -0.00218367
0.619                  -0.658986     0.000525559
0.62                   -0.658449      0.00322945
0.621                  -0.657902      0.00592722
0.622                  -0.657345      0.00861959
0.623                  -0.656777       0.0113062
0.624                  -0.656199       0.0139869
0.625                  -0.655611       0.0166617
0.626                  -0.655013       0.0193308
0.627                  -0.654405       0.0219942
0.628                  -0.653787       0.0246515
0.629                  -0.653159       0.0273029
0.63                   -0.652521       0.0299485
0.631                  -0.651873        0.032588
0.632                  -0.651215       0.0352214
0.633                  -0.650547       0.0378491
0.634                   -0.64987       0.0404707
0.635                  -0.649183        0.043086
0.636                  -0.648486       0.0456954
0.637                   -0.64778       0.0482987
0.638                  -0.647063       0.0508959
0.639                  -0.646338       0.0534867
0.64                   -0.645603       0.0560716
0.641                  -0.644858       0.0586501
0.642                  -0.644104       0.0612225
0.643                   -0.64334       0.0637885
0.644                  -0.642567       0.0663485
0.645                  -0.641785        0.068902
0.646                  -0.640994       0.0714491
0.647                  -0.640193         0.07399
0.648                  -0.639383       0.0765247
0.649                  -0.638564       0.0790528
0.65                   -0.637736       0.0815745
0.651                  -0.636898       0.0840898
0.652                  -0.636052       0.0865987
0.653                  -0.635196        0.089101
0.654                  -0.634332       0.0915969
0.655                  -0.633459       0.0940864
0.656                  -0.632577       0.0965692
0.657                  -0.631686       0.0990456
0.658                  -0.630786        0.101515
0.659                  -0.629878        0.103978
0.66                    -0.62896        0.106435
0.661                  -0.628034        0.108885
0.662                    -0.6271        0.111328
0.663                  -0.626157        0.113765
0.664                  -0.625205        0.116195
0.665                  -0.624245        0.118618
0.666                  -0.623276        0.121035
0.667                  -0.622299        0.123444
0.668                  -0.621313        0.125847
0.669                  -0.620319        0.128243
0.67                   -0.619317        0.130633
0.671                  -0.618306        0.133015
0.672                  -0.617287        0.135391
0.673                   -0.61626         0.13776
0.674                  -0.615225        0.140122
0.675                  -0.614182        0.142477
0.676                   -0.61313        0.144826
0.677                  -0.612071        0.147167
0.678                  -0.611003        0.149502
0.679                  -0.609928        0.151829
0.68                   -0.608844         0.15415
0.681                  -0.607753        0.156463
0.682                  -0.606654         0.15877
0.683                  -0.605547        0.161069
0.684                  -0.604432        0.163361
0.685                   -0.60331        0.165647
0.686                  -0.602179        0.167925
0.687                  -0.601041        0.170196
0.688                  -0.599896        0.172461
0.689                  -0.598743        0.174718
0.69                   -0.597582        0.176968
0.691                  -0.596414         0.17921
0.692                  -0.595238        0.181446
0.693                  -0.594055        0.183674
0.694                  -0.592864        0.185896
0.695                  -0.591666         0.18811
0.696                  -0.590461        0.190317
0.697                  -0.589249        0.192516
0.698                  -0.588029        0.194709
0.699                  -0.586802        0.196894
0.7                    -0.585567        0.199072
0.701                  -0.584326        0.201242
0.702                  -0.583078        0.203406
0.703                  -0.581822        0.205562
0.704                  -0.580559         0.20771
0.705                   -0.57929        0.209852
0.706                  -0.578013        0.211986
0.707                   -0.57673        0.214112
0.708                  -0.575439        0.216232
0.709                  -0.574142        0.218343
0.71                   -0.572838        0.220448
0.711                  -0.571527        0.222545
0.712                   -0.57021        0.224635
0.713                  -0.568886        0.226717
0.714                  -0.567555        0.228792
0.715                  -0.566217        0.230859
0.716                  -0.564873        0.232919
0.717                  -0.563522        0.234971
0.718                  -0.562165        0.237016
0.719                  -0.560801        0.239053
0.72                   -0.559431        0.241083
0.721                  -0.558055        0.243105
0.722                  -0.556672         0.24512
0.723                  -0.555282        0.247127
0.724                  -0.553887        0.249127
0.725                  -0.552485        0.251119
0.726                  -0.551077        0.253104
0.727                  -0.549663         0.25508
0.728                  -0.548242         0.25705
0.729                  -0.546816        0.259012
0.73                   -0.545383        0.260966
0.731                  -0.543944        0.262912
0.732                  -0.542499        0.264851
0.733                  -0.541049        0.266782
0.734                  -0.539592        0.268705
0.735                  -0.538129        0.270621
0.736                  -0.536661         0.27253
0.737                  -0.535187         0.27443
0.738                  -0.533706        0.276323
0.739                  -0.532221        0.278208
0.74                   -0.530729        0.280085
0.741                  -0.529232        0.281955
0.742                  -0.527729        0.283817
0.743                   -0.52622        0.285671
0.744                  -0.524706        0.287517
0.745                  -0.523186        0.289356
0.746                  -0.521661        0.291187
0.747                   -0.52013         0.29301
0.748                  -0.518593        0.294825
0.749                  -0.517052        0.296632
0.75                   -0.515505        0.298432
0.751                  -0.513952        0.300224
0.752                  -0.512395        0.302008
0.753                  -0.510831        0.303784
0.754                  -0.509263        0.305553
0.755                   -0.50769        0.307313
0.756                  -0.506111        0.309066
0.757                  -0.504527        0.310811
0.758                  -0.502938        0.312548
0.759                  -0.501344        0.314277
0.76                   -0.499745        0.315998
0.761                  -0.498141        0.317712
0.762                  -0.496532        0.319417
0.763                  -0.494918        0.321115
0.764                  -0.493299        0.322805
0.765                  -0.491675        0.324487
0.766                  -0.490047         0.32616
0.767                  -0.488413        0.327826
0.768                  -0.486775        0.329484
0.769                  -0.485132        0.331135
0.77                   -0.483484        0.332777
0.771                  -0.481832        0.334411
0.772                  -0.480175        0.336037
0.773                  -0.478514        0.337656
0.774                  -0.476848        0.339266
0.775                  -0.475177        0.340868
0.776                  -0.473502        0.342463
0.777                  -0.471822        0.344049
0.778                  -0.470138        0.345628
0.779                   -0.46845        0.347198
0.78                   -0.466757        0.348761
0.781                   -0.46506        0.350315
0.782                  -0.463358        0.351862
0.783                  -0.461652          0.3534
0.784                  -0.459942        0.354931
0.785                  -0.458228        0.356453
0.786                   -0.45651        0.357967
0.787                  -0.454787        0.359474
0.788                  -0.453061        0.360972
0.789                   -0.45133        0.362463
0.79                   -0.449595        0.363945
0.791                  -0.447857        0.365419
0.792                  -0.446114        0.366885
0.793                  -0.444367        0.368344
0.794                  -0.442617        0.369794
0.795                  -0.440863        0.371236
0.796                  -0.439104         0.37267
0.797                  -0.437342        0.374096
0.798                  -0.435576        0.375513
0.799                  -0.433807        0.376923
0.8                    -0.432034        0.378325
0.801                  -0.430257        0.379719
0.802                  -0.428476        0.381104
0.803                  -0.426692        0.382482
0.804                  -0.424904        0.383851
0.805                  -0.423113        0.385212
0.806                  -0.421318        0.386566
0.807                   -0.41952        0.387911
0.808                  -0.417718        0.389248
0.809                  -0.415913        0.390577
0.81                   -0.414104        0.391897
0.811                  -0.412292         0.39321
0.812                  -0.410477        0.394515
0.813                  -0.408659        0.395811
0.814                  -0.406837          0.3971
0.815                  -0.405012         0.39838
0.816                  -0.403184        0.399652
0.817                  -0.401352        0.400916
0.818                  -0.399518        0.402172
0.819                   -0.39768         0.40342
0.82                    -0.39584         0.40466
0.821                  -0.393996        0.405891
0.822                  -0.392149        0.407115
0.823                    -0.3903         0.40833
0.824                  -0.388447        0.409537
0.825                  -0.386592        0.410736
0.826                  -0.384733        0.411927
0.827                  -0.382872         0.41311
0.828                  -0.381008        0.414285
0.829                  -0.379141        0.415451
0.83                   -0.377272         0.41661
0.831                    -0.3754         0.41776
0.832                  -0.373525        0.418903
0.833                  -0.371647        0.420037
0.834                  -0.369767        0.421162
0.835                  -0.367884         0.42228
0.836                  -0.365999         0.42339
0.837                  -0.364111        0.424492
0.838                  -0.362221        0.425585
0.839                  -0.360328         0.42667
0.84                   -0.358433        0.427748
0.841                  -0.356535        0.428817
0.842                  -0.354635        0.429878
0.843                  -0.352733         0.43093
0.844                  -0.350828        0.431975
0.845                  -0.348921        0.433012
0.846                  -0.347012         0.43404
0.847                    -0.3451         0.43506
0.848                  -0.343187        0.436073
0.849                  -0.341271        0.437077
0.85                   -0.339353        0.438073
0.851                  -0.337433        0.439061
0.852                  -0.335511         0.44004
0.853                  -0.333587        0.441012
0.854                  -0.331661        0.441976
0.855                  -0.329733        0.442931
0.856                  -0.327803        0.443878
0.857                  -0.325871        0.444817
0.858                  -0.323938        0.445748
0.859                  -0.322002        0.446672
0.86                   -0.320065        0.447586
0.861                  -0.318125        0.448493
0.862                  -0.316185        0.449392
0.863                  -0.314242        0.450283
0.864                  -0.312298        0.451165
0.865                  -0.310352         0.45204
0.866                  -0.308404        0.452906
0.867                  -0.306455        0.453764
0.868                  -0.304504        0.454614
0.869                  -0.302552        0.455456
0.87                   -0.300598        0.456291
0.871                  -0.298642        0.457117
0.872                  -0.296685        0.457935
0.873                  -0.294727        0.458744
0.874                  -0.292768        0.459546
0.875                  -0.290807         0.46034
0.876                  -0.288844        0.461126
0.877                  -0.286881        0.461903
0.878                  -0.284916        0.462673
0.879                   -0.28295        0.463434
0.88                   -0.280982        0.464188
0.881                  -0.279014        0.464934
0.882                  -0.277044        0.465671
0.883                  -0.275073          0.4664
0.884                  -0.273101        0.467122
0.885                  -0.271128        0.467835
0.886                  -0.269154        0.468541
0.887                  -0.267179        0.469238
0.888                  -0.265203        0.469928
0.889                  -0.263226        0.470609
0.89                   -0.261249        0.471282
0.891                   -0.25927        0.471948
0.892                   -0.25729        0.472605
0.893                   -0.25531        0.473255
0.894                  -0.253328        0.473896
0.895                  -0.251346         0.47453
0.896                  -0.249364        0.475155
0.897                   -0.24738        0.475773
0.898                  -0.245396        0.476383
0.899                  -0.243411        0.476985
0.9                    -0.241426        0.477578
0.901                   -0.23944        0.478164
0.902                  -0.237453        0.478742
0.903                  -0.235466        0.479312
0.904                  -0.233478        0.479874
0.905                   -0.23149        0.480429
0.906                  -0.229501        0.480975
0.907                  -0.227512        0.481513
0.908                  -0.225523        0.482044
0.909                  -0.223533        0.482567
0.91                   -0.221543        0.483081
0.911                  -0.219552        0.483588
0.912                  -0.217562        0.484088
0.913                  -0.215571        0.484579
0.914                  -0.213579        0.485062
0.915                  -0.211588        0.485538
0.916                  -0.209596        0.486005
0.917                  -0.207604        0.486465
0.918                  -0.205613        0.486917
0.919                   -0.20362        0.487362
0.92                   -0.201628        0.487798
0.921                  -0.199636        0.488227
0.922                  -0.197644        0.488648
0.923                  -0.195652        0.489061
0.924                   -0.19366        0.489466
0.925                  -0.191668        0.489864
0.926                  -0.189676        0.490253
0.927                  -0.187685        0.490636
0.928                  -0.185693         0.49101
0.929                  -0.183701        0.491376
0.93                    -0.18171        0.491735
0.931                  -0.179719        0.492087
0.932                  -0.177729         0.49243
0.933                  -0.175738        0.492766
0.934                  -0.173748        0.493094
0.935                  -0.171759        0.493414
0.936                  -0.169769        0.493727
0.937                   -0.16778        0.494032
0.938                  -0.165792         0.49433
0.939                  -0.163804        0.494619
0.94                   -0.161816        0.494902
0.941                  -0.159829        0.495176
0.942                  -0.157842        0.495443
0.943                  -0.155857        0.495702
0.944                  -0.153871        0.495954
0.945                  -0.151886        0.496198
0.946                  -0.149902        0.496435
0.947                  -0.147919        0.496664
0.948                  -0.145936        0.496885
0.949                  -0.143954        0.497099
0.95                   -0.141973        0.497305
0.951                  -0.139992        0.497504
0.952                  -0.138012        0.497696
0.953                  -0.136033        0.497879
0.954                  -0.134055        0.498056
0.955                  -0.132078        0.498225
0.956                  -0.130102        0.498386
0.957                  -0.128127         0.49854
0.958                  -0.126152        0.498686
0.959                  -0.124179        0.498825
0.96                   -0.122206        0.498957
0.961                  -0.120235        0.499081
0.962                  -0.118265        0.499198
0.963                  -0.116295        0.499307
0.964                  -0.114327        0.499409
0.965                   -0.11236        0.499504
0.966                  -0.110394        0.499591
0.967                   -0.10843        0.499671
0.968                  -0.106466        0.499743
0.969                  -0.104504        0.499808
0.97                   -0.102543        0.499866
0.971                  -0.100583        0.499917
0.972                 -0.0986246         0.49996
0.973                 -0.0966675        0.499996
0.974                 -0.0947118        0.500025
0.975                 -0.0927574        0.500046
0.976                 -0.0908044        0.500061
0.977                 -0.0888529        0.500067
0.978                 -0.0869028        0.500067
0.979                 -0.0849542         0.50006
0.98                  -0.0830071        0.500045
0.981                 -0.0810614        0.500023
0.982                 -0.0791175        0.499994
0.983                  -0.077175        0.499958
0.984                  -0.075234        0.499915
0.985                 -0.0732948        0.499864
0.986                 -0.0713572        0.499807
0.987                 -0.0694213        0.499742
0.988                  -0.067487         0.49967
0.989                 -0.0655544        0.499591
0.99                  -0.0636237        0.499505
0.991                 -0.0616946        0.499412
0.992                 -0.0597673        0.499312
0.993                 -0.0578419        0.499205
0.994                 -0.0559183        0.499091
0.995                 -0.0539965         0.49897
0.996                 -0.0520767        0.498842
0.997                 -0.0501585        0.498707
0.998                 -0.0482425        0.498565
0.999                 -0.0463284        0.498416
1                     -0.0444162         0.49826
1.001                 -0.0425061        0.498097
1.002                 -0.0405979        0.497927
1.003                 -0.0386917        0.497751
1.004                 -0.0367876        0.497567
1.005                 -0.0348856        0.497377
1.006                 -0.0329858        0.497179
1.007                  -0.031088        0.496975
1.008                 -0.0291923        0.496764
1.009                 -0.0272989        0.496547
1.01                  -0.0254077        0.496322
1.011                 -0.0235185        0.496091
1.012                 -0.0216316        0.495853
1.013                 -0.0197472        0.495608
1.014                 -0.0178648        0.495356
1.015                  -0.015985        0.495098
1.016                 -0.0141072        0.494833
1.017                  -0.012232        0.494561
1.018                 -0.0103589        0.494283
1.019                 -0.0084884        0.493998
1.02                 -0.00662009        0.493706
1.021                -0.00475443        0.493408
1.022                -0.00289099        0.493103
1.023                -0.00103024        0.492791
1.024                0.000828019        0.492473
1.025                 0.00268401        0.492148
1.026                 0.00453723        0.491817
1.027                 0.00638802        0.491479
1.028                 0.00823624        0.491135
1.029                  0.0100818        0.490784
1.03                   0.0119247        0.490426
1.031                  0.0137652        0.490062
1.032                  0.0156028        0.489692
1.033                  0.0174377        0.489315
1.034                  0.0192702        0.488932
1.035                  0.0210997        0.488542
1.036                  0.0229266        0.488146
1.037                  0.0247508        0.487744
1.038                  0.0265722        0.487335
1.039                  0.0283908         0.48692
1.04                   0.0302064        0.486498
1.041                  0.0320195         0.48607
1.042                  0.0338294        0.485636
1.043                  0.0356366        0.485196
1.044                   0.037441        0.484749
1.045                  0.0392425        0.484296
1.046                  0.0410408        0.483837
1.047                  0.0428364        0.483371
1.048                   0.044629          0.4829
1.049                  0.0464185        0.482422
1.05                   0.0482052        0.481938
1.051                  0.0499888        0.481448
1.052                  0.0517693        0.480951
1.053                  0.0535466        0.480449
1.054                   0.055321         0.47994
1.055                  0.0570923        0.479425
1.056                  0.0588605        0.478905
1.057                  0.0606255        0.478378
1.058                  0.0623875        0.477845
1.059                  0.0641463        0.477306
1.06                   0.0659018        0.476761
1.061                  0.0676541         0.47621
1.062                  0.0694032        0.475653
1.063                  0.0711491         0.47509
1.064                  0.0728916        0.474521
1.065                  0.0746311        0.473947
1.066                  0.0763671        0.473366
1.067                  0.0780998        0.472779
1.068                  0.0798293        0.472187
1.069                  0.0815553        0.471589
1.07                   0.0832781        0.470984
1.071                  0.0849974        0.470374
1.072                  0.0867133        0.469759
1.073                  0.0884258        0.469137
1.074                  0.0901349         0.46851
1.075                  0.0918406        0.467877
1.076                  0.0935428        0.467238
1.077                  0.0952415        0.466593
1.078                  0.0969368        0.465943
1.079                  0.0986284        0.465287
1.08                    0.100317        0.464625
1.081                   0.102001        0.463958
1.082                   0.103682        0.463285
1.083                    0.10536        0.462607
1.084                   0.107034        0.461923
1.085                   0.108704        0.461233
1.086                   0.110371        0.460538
1.087                   0.112034        0.459837
1.088                   0.113693        0.459131
1.089                   0.115349        0.458419
1.09                    0.117001        0.457701
1.091                   0.118649        0.456979
1.092                   0.120294         0.45625
1.093                   0.121935        0.455516
1.094                   0.123572        0.454777
1.095                   0.125205        0.454033
1.096                   0.126835        0.453283
1.097                   0.128461        0.452528
1.098                   0.130083        0.451767
1.099                   0.131701        0.451001
1.1                     0.133315         0.45023
1.101                   0.134926        0.449453
1.102                   0.136532        0.448671
1.103                   0.138135        0.447884
1.104                   0.139734        0.447092
1.105                   0.141329        0.446294
1.106                    0.14292        0.445491
1.107                   0.144507        0.444684
1.108                    0.14609         0.44387
1.109                   0.147669        0.443052
1.11                    0.149245        0.442229
1.111                   0.150816          0.4414
1.112                   0.152383        0.440567
1.113                   0.153946        0.439728
1.114                   0.155506        0.438884
1.115                   0.157061        0.438035
1.116                   0.158612        0.437181
1.117                   0.160159        0.436323
1.118                   0.161702        0.435459
1.119                    0.16324         0.43459
1.12                    0.164775        0.433716
1.121                   0.166306        0.432838
1.122                   0.167832        0.431954
1.123                   0.169354        0.431066
1.124                   0.170873        0.430172
1.125                   0.172386        0.429274
1.126                   0.173896        0.428371
1.127                   0.175402        0.427463
1.128                   0.176903        0.426551
1.129                     0.1784        0.425633
1.13                    0.179893        0.424711
1.131                   0.181382        0.423784
1.132                   0.182866        0.422853
1.133                   0.184346        0.421916
1.134                   0.185822        0.420975
1.135                   0.187293         0.42003
1.136                   0.188761        0.419079
1.137                   0.190223        0.418124
1.138                   0.191682        0.417165
1.139                   0.193136          0.4162
1.14                    0.194586        0.415232
1.141                   0.196032        0.414258
1.142                   0.197473         0.41328
1.143                   0.198909        0.412298
1.144                   0.200342        0.411311
1.145                   0.201769         0.41032
1.146                   0.203193        0.409324
1.147                   0.204612        0.408324
1.148                   0.206027        0.407319
1.149                   0.207437         0.40631
1.15                    0.208842        0.405296
1.151                   0.210244        0.404278
1.152                    0.21164        0.403256
1.153                   0.213032         0.40223
1.154                    0.21442        0.401199
1.155                   0.215803        0.400164
1.156                   0.217182        0.399124
1.157                   0.218556         0.39808
1.158                   0.219925        0.397033
1.159                    0.22129         0.39598
1.16                    0.222651        0.394924
1.161                   0.224007        0.393863
1.162                   0.225358        0.392799
1.163                   0.226705         0.39173
1.164                   0.228047        0.390657
1.165                   0.229384         0.38958
1.166                   0.230717        0.388499
1.167                   0.232045        0.387413
1.168                   0.233368        0.386324
1.169                   0.234687        0.385231
1.17                    0.236001        0.384133
1.171                   0.237311        0.383032
1.172                   0.238616        0.381927
1.173                   0.239916        0.380818
1.174                   0.241211        0.379704
1.175                   0.242502        0.378587
1.176                   0.243788        0.377466
1.177                   0.245069        0.376341
1.178                   0.246345        0.375213
1.179                   0.247617         0.37408
1.18                    0.248884        0.372943
1.181                   0.250146        0.371803
1.182                   0.251404        0.370659
1.183                   0.252656        0.369511
1.184                   0.253904         0.36836
1.185                   0.255147        0.367205
1.186                   0.256385        0.366046
1.187                   0.257619        0.364883
1.188                   0.258847        0.363717
1.189                   0.260071        0.362547
1.19                     0.26129        0.361373
1.191                   0.262504        0.360196
1.192                   0.263713        0.359015
1.193                   0.264918         0.35783
1.194                   0.266117        0.356642
1.195                   0.267312        0.355451
1.196                   0.268501        0.354256
1.197                   0.269686        0.353057
1.198                   0.270866        0.351855
1.199                   0.272041        0.350649
1.2                     0.273211         0.34944
1.201                   0.274376        0.348228
1.202                   0.275536        0.347012
1.203                   0.276691        0.345793
1.204                   0.277842         0.34457
1.205                   0.278987        0.343344
1.206                   0.280127        0.342115
1.207                   0.281263        0.340882
1.208                   0.282393        0.339646
1.209                   0.283519        0.338407
1.21                    0.284639        0.337165
1.211                   0.285755        0.335919
1.212                   0.286865         0.33467
1.213                    0.28797        0.333418
1.214                   0.289071        0.332163
1.215                   0.290166        0.330904
1.216                   0.291257        0.329643
1.217                   0.292342        0.328378
1.218                   0.293422         0.32711
1.219                   0.294498        0.325839
1.22                    0.295568        0.324565
1.221                   0.296633        0.323288
1.222                   0.297693        0.322008
1.223                   0.298748        0.320724
1.224                   0.299798        0.319438
1.225                   0.300842        0.318149
1.226                   0.301882        0.316857
1.227                   0.302917        0.315562
1.228                   0.303946        0.314264
1.229                   0.304971        0.312963
1.23                     0.30599        0.311659
1.231                   0.307004        0.310353
1.232                   0.308013        0.309043
1.233                   0.309017        0.307731
1.234                   0.310016        0.306416
1.235                   0.311009        0.305098
1.236                   0.311998        0.303777
1.237                   0.312981        0.302453
1.238                   0.313959        0.301127
1.239                   0.314932        0.299798
1.24                      0.3159        0.298466
1.241                   0.316863        0.297132
1.242                    0.31782        0.295795
1.243                   0.318772        0.294456
1.244                   0.319719        0.293113
1.245                   0.320661        0.291768
1.246                   0.321598        0.290421
1.247                   0.322529        0.289071
1.248                   0.323456        0.287718
1.249                   0.324377        0.286363
1.25                    0.325292        0.285005
1.251                   0.326203        0.283645
1.252                   0.327108        0.282283
1.253                   0.328008        0.280917
1.254                   0.328903         0.27955
1.255                   0.329793         0.27818
1.256                   0.330677        0.276807
1.257                   0.331556        0.275433
1.258                    0.33243        0.274056
1.259                   0.333299        0.272676
1.26                    0.334162        0.271294
1.261                    0.33502         0.26991
1.262                   0.335873        0.268524
1.263                   0.336721        0.267135
1.264                   0.337563        0.265744
1.265                     0.3384        0.264351
1.266                   0.339232        0.262955
1.267                   0.340058        0.261557
1.268                   0.340879        0.260158
1.269                   0.341695        0.258756
1.27                    0.342505        0.257351
1.271                    0.34331        0.255945
1.272                    0.34411        0.254537
1.273                   0.344905        0.253126
1.274                   0.345694        0.251714
1.275                   0.346478        0.250299
1.276                   0.347256        0.248882
1.277                    0.34803        0.247464
1.278                   0.348798        0.246043
1.279                    0.34956         0.24462
1.28                    0.350317        0.243196
1.281                   0.351069        0.241769
1.282                   0.351816        0.240341
1.283                   0.352557         0.23891
1.284                   0.353293        0.237478
1.285                   0.354023        0.236043
1.286                   0.354749        0.234607
1.287                   0.355468         0.23317
1.288                   0.356182         0.23173
1.289                   0.356892        0.230288
1.29                    0.357595        0.228845
1.291                   0.358294          0.2274
1.292                   0.358987        0.225953
1.293                   0.359674        0.224505
1.294                   0.360356        0.223054
1.295                   0.361033        0.221602
1.296                   0.361704        0.220149
1.297                    0.36237        0.218694
1.298                   0.363031        0.217237
1.299                   0.363686        0.215778
1.3                     0.364336        0.214318
1.301                    0.36498        0.212856
1.302                   0.365619        0.211393
1.303                   0.366253        0.209928
1.304                   0.366881        0.208462
1.305                   0.367504        0.206994
1.306                   0.368121        0.205525
1.307                   0.368733        0.204054
1.308                    0.36934        0.202581
1.309                   0.369941        0.201108
1.31                    0.370537        0.199633
1.311                   0.371127        0.198156
1.312                   0.371712        0.196678
1.313                   0.372292        0.195199
1.314                   0.372866        0.193718
1.315                   0.373434        0.192237
1.316                   0.373997        0.190753
1.317                   0.374555        0.189269
1.318                   0.375108        0.187783
1.319                   0.375654        0.186296
1.32                    0.376196        0.184808
1.321                   0.376732        0.183318
1.322                   0.377263        0.181827
1.323                   0.377788        0.180335
1.324                   0.378307        0.178842
1.325                   0.378822        0.177348
1.326                   0.379331        0.175853
1.327                   0.379834        0.174356
1.328                   0.380332        0.172859
1.329                   0.380825         0.17136
1.33                    0.381312        0.169861
1.331                   0.381793         0.16836
1.332                   0.382269        0.166858
1.333                    0.38274        0.165356
1.334                   0.383205        0.163852
1.335                   0.383665        0.162347
1.336                    0.38412        0.160842
1.337                   0.384569        0.159335
1.338                   0.385012        0.157828
1.339                    0.38545         0.15632
1.34                    0.385883         0.15481
1.341                    0.38631          0.1533
1.342                   0.386732         0.15179
1.343                   0.387148        0.150278
1.344                   0.387559        0.148765
1.345                   0.387964        0.147252
1.346                   0.388364        0.145738
1.347                   0.388758        0.144223
1.348                   0.389147        0.142708
1.349                   0.389531        0.141192
1.35                    0.389909        0.139675
1.351                   0.390281        0.138157
1.352                   0.390648        0.136639
1.353                    0.39101         0.13512
1.354                   0.391366        0.133601
1.355                   0.391717        0.132081
1.356                   0.392062         0.13056
1.357                   0.392402        0.129039
1.358                   0.392737        0.127517
1.359                   0.393066        0.125995
1.36                    0.393389        0.124472
1.361                   0.393707        0.122949
1.362                    0.39402        0.121425
1.363                   0.394327        0.119901
1.364                   0.394629        0.118377
1.365                   0.394925        0.116852
1.366                   0.395216        0.115326
1.367                   0.395501          0.1138
1.368                   0.395781        0.112274
1.369                   0.396056        0.110748
1.37                    0.396325        0.109221
1.371                   0.396588        0.107694
1.372                   0.396847        0.106166
1.373                   0.397099        0.104639
1.374                   0.397346        0.103111
1.375                   0.397588        0.101583
1.376                   0.397825        0.100054
1.377                   0.398056       0.0985256
1.378                   0.398281       0.0969968
1.379                   0.398501       0.0954679
1.38                    0.398716       0.0939388
1.381                   0.398925       0.0924096
1.382                   0.399129       0.0908803
1.383                   0.399327        0.089351
1.384                    0.39952       0.0878215
1.385                   0.399708        0.086292
1.386                    0.39989       0.0847625
1.387                   0.400066       0.0832329
1.388                   0.400238       0.0817034
1.389                   0.400403       0.0801739
1.39                    0.400564       0.0786444
1.391                   0.400719        0.077115
1.392                   0.400869       0.0755856
1.393                   0.401013       0.0740564
1.394                   0.401152       0.0725272
1.395                   0.401285       0.0709982
1.396                   0.401413       0.0694693
1.397                   0.401535       0.0679406
1.398                   0.401653       0.0664121
1.399                   0.401764       0.0648838
1.4                     0.401871       0.0633557
1.401                   0.401972       0.0618279
1.402                   0.402067       0.0603003
1.403                   0.402158        0.058773
1.404                   0.402243        0.057246
1.405                   0.402322       0.0557192
1.406                   0.402396       0.0541929
1.407                   0.402465       0.0526668
1.408                   0.402528       0.0511412
1.409                   0.402586       0.0496159
1.41                    0.402639        0.048091
1.411                   0.402686       0.0465666
1.412                   0.402728       0.0450426
1.413                   0.402765        0.043519
1.414                   0.402796       0.0419959
1.415                   0.402822       0.0404733
1.416                   0.402842       0.0389512
1.417                   0.402857       0.0374297
1.418                   0.402867       0.0359087
1.419                   0.402872       0.0343882
1.42                    0.402871       0.0328684
1.421                   0.402865       0.0313491
1.422                   0.402853       0.0298305
1.423                   0.402837       0.0283125
1.424                   0.402815       0.0267952
1.425                   0.402787       0.0252785
1.426                   0.402755       0.0237625
1.427                   0.402717       0.0222473
1.428                   0.402673       0.0207328
1.429                   0.402625        0.019219
1.43                    0.402571       0.0177059
1.431                   0.402512       0.0161937
1.432                   0.402447       0.0146823
1.433                   0.402378       0.0131716
1.434                   0.402303       0.0116618
1.435                   0.402222       0.0101529
1.436                   0.402137      0.00864484
1.437                   0.402046      0.00713767
1.438                    0.40195       0.0056314
1.439                   0.401849      0.00412606
1.44                    0.401742      0.00262167
1.441                   0.401631      0.00111823
1.442                   0.401514    -0.000384226
1.443                   0.401392     -0.00188569
1.444                   0.401264     -0.00338613
1.445                   0.401132     -0.00488554
1.446                   0.400994     -0.00638391
1.447                   0.400851      -0.0078812
1.448                   0.400703     -0.00937741
1.449                   0.400549      -0.0108725
1.45                    0.400391      -0.0123665
1.451                   0.400227      -0.0138593
1.452                   0.400058       -0.015351
1.453                   0.399884      -0.0168415
1.454                   0.399704      -0.0183309
1.455                    0.39952       -0.019819
1.456                    0.39933      -0.0213059
1.457                   0.399136      -0.0227915
1.458                   0.398936      -0.0242759
1.459                   0.398731       -0.025759
1.46                    0.398521      -0.0272408
1.461                   0.398305      -0.0287212
1.462                   0.398085      -0.0302004
1.463                    0.39786      -0.0316782
1.464                   0.397629      -0.0331546
1.465                   0.397393      -0.0346296
1.466                   0.397153      -0.0361033
1.467                   0.396907      -0.0375755
1.468                   0.396656      -0.0390463
1.469                     0.3964      -0.0405156
1.47                    0.396139      -0.0419835
1.471                   0.395873      -0.0434498
1.472                   0.395602      -0.0449147
1.473                   0.395325       -0.046378
1.474                   0.395044      -0.0478398
1.475                   0.394758         -0.0493
1.476                   0.394467      -0.0507587
1.477                    0.39417      -0.0522157
1.478                   0.393869      -0.0536712
1.479                   0.393563       -0.055125
1.48                    0.393252      -0.0565771
1.481                   0.392935      -0.0580276
1.482                   0.392614      -0.0594765
1.483                   0.392288      -0.0609236
1.484                   0.391957       -0.062369
1.485                   0.391621      -0.0638127
1.486                    0.39128      -0.0652546
1.487                   0.390934      -0.0666948
1.488                   0.390583      -0.0681332
1.489                   0.390227      -0.0695698
1.49                    0.389867      -0.0710046
1.491                   0.389501      -0.0724375
1.492                   0.389131      -0.0738686
1.493                   0.388755      -0.0752978
1.494                   0.388375      -0.0767252
1.495                    0.38799      -0.0781506
1.496                     0.3876      -0.0795741
1.497                   0.387205      -0.0809957
1.498                   0.386805      -0.0824154
1.499                   0.386401       -0.083833
1.5                     0.385992      -0.0852487
1.501                   0.385578      -0.0866624
1.502                   0.385159      -0.0880741
1.503                   0.384735      -0.0894838
1.504                   0.384306      -0.0908914
1.505                   0.383873      -0.0922969
1.506                   0.383435      -0.0937003
1.507                   0.382992      -0.0951017
1.508                   0.382545      -0.0965009
1.509                   0.382093       -0.097898
1.51                    0.381636       -0.099293
1.511                   0.381174       -0.100686
1.512                   0.380707       -0.102076
1.513                   0.380236       -0.103465
1.514                   0.379761       -0.104851
1.515                    0.37928       -0.106235
1.516                   0.378795       -0.107617
1.517                   0.378305       -0.108996
1.518                   0.377811       -0.110374
1.519                   0.377312       -0.111748
1.52                    0.376808       -0.113121
1.521                     0.3763       -0.114491
1.522                   0.375787       -0.115859
1.523                   0.375269       -0.117225
1.524                   0.374747       -0.118588
1.525                    0.37422       -0.119949
1.526                   0.373689       -0.121307
1.527                   0.373153       -0.122663
1.528                   0.372613       -0.124017
1.529                   0.372068       -0.125368
1.53                    0.371518       -0.126717
1.531                   0.370965       -0.128063
1.532                   0.370406       -0.129407
1.533                   0.369843       -0.130748
1.534                   0.369276       -0.132087
1.535                   0.368704       -0.133423
1.536                   0.368128       -0.134757
1.537                   0.367547       -0.136088
1.538                   0.366962       -0.137416
1.539                   0.366372       -0.138742
1.54                    0.365778       -0.140065
1.541                    0.36518       -0.141386
1.542                   0.364577       -0.142704
1.543                    0.36397       -0.144019
1.544                   0.363358       -0.145332
1.545                   0.362743       -0.146642
1.546                   0.362122       -0.147949
1.547                   0.361498       -0.149253
1.548                   0.360869       -0.150555
1.549                   0.360236       -0.151854
1.55                    0.359598       -0.153151
1.551                   0.358957       -0.154444
1.552                   0.358311       -0.155735
1.553                   0.357661       -0.157023
1.554                   0.357006       -0.158308
1.555                   0.356347        -0.15959
1.556                   0.355685        -0.16087
1.557                   0.355017       -0.162147
1.558                   0.354346        -0.16342
1.559                   0.353671       -0.164691
1.56                    0.352991       -0.165959
1.561                   0.352307       -0.167224
1.562                   0.351619       -0.168486
1.563                   0.350927       -0.169746
1.564                   0.350231       -0.171002
1.565                   0.349531       -0.172255
1.566                   0.348827       -0.173505
1.567                   0.348118       -0.174753
1.568                   0.347406       -0.175997
1.569                   0.346689       -0.177238
1.57                    0.345969       -0.178477
1.571                   0.345244       -0.179712
1.572                   0.344516       -0.180944
1.573                   0.343783       -0.182173
1.574                   0.343047       -0.183399
1.575                   0.342306       -0.184622
1.576                   0.341562       -0.185842
1.577                   0.340813       -0.187059
1.578                   0.340061       -0.188272
1.579                   0.339305       -0.189482
1.58                    0.338545        -0.19069
1.581                   0.337781       -0.191894
1.582                   0.337013       -0.193095
1.583                   0.336241       -0.194292
1.584                   0.335465       -0.195487
1.585                   0.334686       -0.196678
1.586                   0.333903       -0.197866
1.587                   0.333116       -0.199051
1.588                   0.332325       -0.200233
1.589                    0.33153       -0.201411
1.59                    0.330732       -0.202586
1.591                    0.32993       -0.203758
1.592                   0.329124       -0.204926
1.593                   0.328315       -0.206091
1.594                   0.327502       -0.207253
1.595                   0.326685       -0.208411
1.596                   0.325864       -0.209567
1.597                    0.32504       -0.210718
1.598                   0.324212       -0.211867
1.599                   0.323381       -0.213012
1.6                     0.322546       -0.214153
1.601                   0.321707       -0.215292
1.602                   0.320865       -0.216426
1.603                   0.320019       -0.217558
1.604                   0.319169       -0.218686
1.605                   0.318316        -0.21981
1.606                    0.31746       -0.220931
1.607                     0.3166       -0.222049
1.608                   0.315737       -0.223163
1.609                    0.31487       -0.224274
1.61                    0.313999       -0.225381
1.611                   0.313125       -0.226484
1.612                   0.312248       -0.227585
1.613                   0.311368       -0.228681
1.614                   0.310483       -0.229774
1.615                   0.309596       -0.230864
1.616                   0.308705        -0.23195
1.617                   0.307811       -0.233032
1.618                   0.306913       -0.234111
1.619                   0.306013       -0.235186
1.62                    0.305108       -0.236258
1.621                   0.304201       -0.237326
1.622                    0.30329        -0.23839
1.623                   0.302376       -0.239451
1.624                   0.301459       -0.240508
1.625                   0.300538       -0.241562
1.626                   0.299615       -0.242612
1.627                   0.298688       -0.243658
1.628                   0.297758       -0.244701
1.629                   0.296824       -0.245739
1.63                    0.295888       -0.246775
1.631                   0.294948       -0.247806
1.632                   0.294006       -0.248834
1.633                    0.29306       -0.249858
1.634                   0.292111       -0.250879
1.635                   0.291159       -0.251895
1.636                   0.290204       -0.252908
1.637                   0.289246       -0.253918
1.638                   0.288285       -0.254923
1.639                    0.28732       -0.255925
1.64                    0.286353       -0.256923
1.641                   0.285383       -0.257917
1.642                    0.28441       -0.258907
1.643                   0.283434       -0.259894
1.644                   0.282455       -0.260877
1.645                   0.281473       -0.261856
1.646                   0.280488       -0.262831
1.647                   0.279501       -0.263802
1.648                    0.27851        -0.26477
1.649                   0.277516       -0.265734
1.65                     0.27652       -0.266694
1.651                   0.275521        -0.26765
1.652                   0.274519       -0.268602
1.653                   0.273514        -0.26955
1.654                   0.272507       -0.270495
1.655                   0.271497       -0.271436
1.656                   0.270484       -0.272372
1.657                   0.269468       -0.273305
1.658                   0.268449       -0.274234
1.659                   0.267428       -0.275159
1.66                    0.266405       -0.276081
1.661                   0.265378       -0.276998
1.662                   0.264349       -0.277911
1.663                   0.263317       -0.278821
1.664                   0.262283       -0.279726
1.665                   0.261246       -0.280628
1.666                   0.260206       -0.281526
1.667                   0.259164       -0.282419
1.668                   0.258119       -0.283309
1.669                   0.257072       -0.284195
1.67                    0.256022       -0.285077
1.671                    0.25497       -0.285955
1.672                   0.253915       -0.286829
1.673                   0.252858       -0.287699
1.674                   0.251798       -0.288565
1.675                   0.250736       -0.289427
1.676                   0.249671       -0.290285
1.677                   0.248604       -0.291139
1.678                   0.247534       -0.291989
1.679                   0.246463       -0.292835
1.68                    0.245388       -0.293677
1.681                   0.244312       -0.294515
1.682                   0.243233       -0.295349
1.683                   0.242152       -0.296179
1.684                   0.241068       -0.297005
1.685                   0.239982       -0.297827
1.686                   0.238894       -0.298645
1.687                   0.237804       -0.299459
1.688                   0.236711       -0.300269
1.689                   0.235617       -0.301075
1.69                     0.23452       -0.301876
1.691                    0.23342       -0.302674
1.692                   0.232319       -0.303468
1.693                   0.231215       -0.304257
1.694                    0.23011       -0.305043
1.695                   0.229002       -0.305825
1.696                   0.227892       -0.306602
1.697                    0.22678       -0.307375
1.698                   0.225666       -0.308144
1.699                    0.22455        -0.30891
1.7                     0.223431       -0.309671
1.701                   0.222311       -0.310428
1.702                   0.221189       -0.311181
1.703                   0.220064        -0.31193
1.704                   0.218938       -0.312674
1.705                    0.21781       -0.313415
1.706                   0.216679       -0.314152
1.707                   0.215547       -0.314884
1.708                   0.214413       -0.315612
1.709                   0.213277       -0.316337
1.71                    0.212139       -0.317057
1.711                   0.210999       -0.317773
1.712                   0.209857       -0.318485
1.713                   0.208714       -0.319193
1.714                   0.207568       -0.319896
1.715                   0.206421       -0.320596
1.716                   0.205272       -0.321291
1.717                   0.204121       -0.321983
1.718                   0.202968        -0.32267
1.719                   0.201814       -0.323353
1.72                    0.200657       -0.324032
1.721                   0.199499       -0.324707
1.722                    0.19834       -0.325377
1.723                   0.197178       -0.326044
1.724                   0.196015       -0.326707
1.725                   0.194851       -0.327365
1.726                   0.193684       -0.328019
1.727                   0.192516       -0.328669
1.728                   0.191346       -0.329315
1.729                   0.190175       -0.329957
1.73                    0.189002       -0.330594
1.731                   0.187827       -0.331228
1.732                   0.186651       -0.331857
1.733                   0.185474       -0.332482
1.734                   0.184295       -0.333103
1.735                   0.183114        -0.33372
1.736                   0.181931       -0.334333
1.737                   0.180748       -0.334942
1.738                   0.179562       -0.335546
1.739                   0.178376       -0.336146
1.74                    0.177187       -0.336742
1.741                   0.175998       -0.337335
1.742                   0.174807       -0.337922
1.743                   0.173614       -0.338506
1.744                    0.17242       -0.339086
1.745                   0.171225       -0.339661
1.746                   0.170028       -0.340232
1.747                    0.16883       -0.340799
1.748                    0.16763       -0.341362
1.749                    0.16643       -0.341921
1.75                    0.165227       -0.342476
1.751                   0.164024       -0.343026
1.752                   0.162819       -0.343573
1.753                   0.161613       -0.344115
1.754                   0.160406       -0.344653
1.755                   0.159198       -0.345187
1.756                   0.157988       -0.345716
1.757                   0.156777       -0.346242
1.758                   0.155564       -0.346763
1.759                   0.154351       -0.347281
1.76                    0.153136       -0.347794
1.761                    0.15192       -0.348303
1.762                   0.150703       -0.348808
1.763                   0.149485       -0.349308
1.764                   0.148266       -0.349805
1.765                   0.147046       -0.350297
1.766                   0.145824       -0.350785
1.767                   0.144601       -0.351269
1.768                   0.143378       -0.351749
1.769                   0.142153       -0.352225
1.77                    0.140927       -0.352697
1.771                     0.1397       -0.353164
1.772                   0.138472       -0.353627
1.773                   0.137243       -0.354087
1.774                   0.136013       -0.354542
1.775                   0.134782       -0.354993
1.776                    0.13355       -0.355439
1.777                   0.132317       -0.355882
1.778                   0.131083        -0.35632
1.779                   0.129848       -0.356755
1.78                    0.128613       -0.357185
1.781                   0.127376       -0.357611
1.782                   0.126138       -0.358033
1.783                     0.1249       -0.358451
1.784                    0.12366       -0.358864
1.785                    0.12242       -0.359274
1.786                   0.121179       -0.359679
1.787                   0.119937        -0.36008
1.788                   0.118694       -0.360477
1.789                    0.11745        -0.36087
1.79                    0.116206       -0.361259
1.791                    0.11496       -0.361644
1.792                   0.113714       -0.362024
1.793                   0.112467       -0.362401
1.794                   0.111219       -0.362773
1.795                   0.109971       -0.363141
1.796                   0.108722       -0.363505
1.797                   0.107472       -0.363865
1.798                   0.106221       -0.364221
1.799                    0.10497       -0.364573
1.8                     0.103718       -0.364921
1.801                   0.102465       -0.365264
1.802                   0.101212       -0.365603
1.803                  0.0999577       -0.365939
1.804                   0.098703        -0.36627
1.805                  0.0974474       -0.366597
1.806                  0.0961915        -0.36692
1.807                  0.0949349       -0.367238
1.808                  0.0936776       -0.367553
1.809                  0.0924197       -0.367864
1.81                   0.0911612        -0.36817
1.811                  0.0899023       -0.368472
1.812                  0.0886427       -0.368771
1.813                  0.0873824       -0.369065
1.814                  0.0861217       -0.369355
1.815                  0.0848605       -0.369641
1.816                  0.0835988       -0.369923
1.817                  0.0823364         -0.3702
1.818                  0.0810737       -0.370474
1.819                  0.0798104       -0.370743
1.82                   0.0785467       -0.371009
1.821                  0.0772825        -0.37127
1.822                  0.0760177       -0.371528
1.823                  0.0747526       -0.371781
1.824                   0.073487        -0.37203
1.825                   0.072221       -0.372275
1.826                  0.0709546       -0.372516
1.827                  0.0696877       -0.372752
1.828                  0.0684205       -0.372985
1.829                  0.0671528       -0.373214
1.83                   0.0658849       -0.373438
1.831                  0.0646164       -0.373659
1.832                  0.0633478       -0.373875
1.833                  0.0620787       -0.374087
1.834                  0.0608093       -0.374296
1.835                  0.0595394         -0.3745
1.836                  0.0582695         -0.3747
1.837                  0.0569992       -0.374896
1.838                  0.0557286       -0.375088
1.839                  0.0544575       -0.375276
1.84                   0.0531864       -0.375459
1.841                   0.051915       -0.375639
1.842                  0.0506432       -0.375815
1.843                  0.0493714       -0.375986
1.844                   0.048099       -0.376154
1.845                  0.0468265       -0.376317
1.846                  0.0455538       -0.376476
1.847                   0.044281       -0.376632
1.848                  0.0430079       -0.376783
1.849                  0.0417346        -0.37693
1.85                   0.0404612       -0.377073
1.851                  0.0391877       -0.377212
1.852                  0.0379139       -0.377347
1.853                    0.03664       -0.377478
1.854                   0.035366       -0.377605
1.855                  0.0340918       -0.377728
1.856                  0.0328176       -0.377846
1.857                  0.0315431       -0.377961
1.858                  0.0302686       -0.378071
1.859                  0.0289941       -0.378178
1.86                   0.0277195        -0.37828
1.861                  0.0264447       -0.378379
1.862                  0.0251699       -0.378473
1.863                  0.0238951       -0.378563
1.864                  0.0226202        -0.37865
1.865                  0.0213454       -0.378732
1.866                  0.0200704        -0.37881
1.867                  0.0187955       -0.378884
1.868                  0.0175205       -0.378954
1.869                  0.0162456        -0.37902
1.87                   0.0149707       -0.379082
1.871                  0.0136958        -0.37914
1.872                  0.0124209       -0.379194
1.873                  0.0111462       -0.379243
1.874                 0.00987146       -0.379289
1.875                 0.00859675       -0.379331
1.876                 0.00732216       -0.379368
1.877                  0.0060476       -0.379402
1.878                 0.00477319       -0.379431
1.879                 0.00349884       -0.379457
1.88                  0.00222465       -0.379478
1.881                0.000950555       -0.379495
1.882               -0.000323352       -0.379509
1.883                -0.00159715       -0.379518
1.884                -0.00287082       -0.379523
1.885                -0.00414436       -0.379524
1.886                -0.00541766       -0.379521
1.887                 -0.0066908       -0.379514
1.888                -0.00796377       -0.379503
1.889                -0.00923646       -0.379488
1.89                  -0.0105091       -0.379469
1.891                 -0.0117813       -0.379446
1.892                 -0.0130535       -0.379419
1.893                 -0.0143253       -0.379387
1.894                 -0.0155968       -0.379352
1.895                 -0.0168682       -0.379313
1.896                 -0.0181393       -0.379269
1.897                 -0.0194101       -0.379222
1.898                 -0.0206805        -0.37917
1.899                 -0.0219507       -0.379115
1.9                   -0.0232206       -0.379055
1.901                 -0.0244901       -0.378991
1.902                 -0.0257594       -0.378924
1.903                 -0.0270284       -0.378852
1.904                 -0.0282968       -0.378776
1.905                  -0.029565       -0.378696
1.906                 -0.0308328       -0.378612
1.907                 -0.0321002       -0.378524
1.908                 -0.0333673       -0.378432
1.909                 -0.0346339       -0.378336
1.91                  -0.0359001       -0.378235
1.911                 -0.0371659       -0.378131
1.912                 -0.0384313       -0.378023
1.913                 -0.0396963        -0.37791
1.914                 -0.0409607       -0.377794
1.915                 -0.0422247       -0.377673
1.916                 -0.0434882       -0.377549
1.917                 -0.0447513        -0.37742
1.918                 -0.0460139       -0.377287
1.919                 -0.0472759       -0.377151
1.92                  -0.0485374        -0.37701
1.921                 -0.0497984       -0.376865
1.922                  -0.051059       -0.376716
1.923                 -0.0523188       -0.376563
1.924                 -0.0535782       -0.376406
1.925                  -0.054837       -0.376245
1.926                 -0.0560951       -0.376079
1.927                 -0.0573528        -0.37591
1.928                 -0.0586099       -0.375737
1.929                 -0.0598662       -0.375559
1.93                   -0.061122       -0.375378
1.931                 -0.0623771       -0.375192
1.932                 -0.0636316       -0.375002
1.933                 -0.0648854       -0.374809
1.934                 -0.0661385       -0.374611
1.935                  -0.067391       -0.374409
1.936                 -0.0686428       -0.374203
1.937                 -0.0698939       -0.373993
1.938                 -0.0711443       -0.373779
1.939                 -0.0723938        -0.37356
1.94                  -0.0736427       -0.373338
1.941                 -0.0748909       -0.373112
1.942                 -0.0761383       -0.372881
1.943                 -0.0773849       -0.372647
1.944                 -0.0786307       -0.372408
1.945                 -0.0798757       -0.372165
1.946                 -0.0811199       -0.371918
1.947                 -0.0823632       -0.371667
1.948                 -0.0836057       -0.371412
1.949                 -0.0848474       -0.371153
1.95                  -0.0860883        -0.37089
1.951                 -0.0873282       -0.370623
1.952                 -0.0885673       -0.370352
1.953                 -0.0898054       -0.370076
1.954                 -0.0910427       -0.369796
1.955                  -0.092279       -0.369513
1.956                 -0.0935144       -0.369225
1.957                 -0.0947488       -0.368933
1.958                 -0.0959823       -0.368637
1.959                 -0.0972149       -0.368337
1.96                  -0.0984463       -0.368033
1.961                 -0.0996768       -0.367725
1.962                  -0.100906       -0.367412
1.963                  -0.102135       -0.367096
1.964                  -0.103362       -0.366775
1.965                  -0.104589       -0.366451
1.966                  -0.105814       -0.366122
1.967                  -0.107038       -0.365789
1.968                  -0.108261       -0.365452
1.969                  -0.109483       -0.365111
1.97                   -0.110704       -0.364766
1.971                  -0.111924       -0.364417
1.972                  -0.113143       -0.364063
1.973                   -0.11436       -0.363706
1.974                  -0.115576       -0.363344
1.975                  -0.116791       -0.362979
1.976                  -0.118005       -0.362609
1.977                  -0.119218       -0.362235
1.978                  -0.120429       -0.361857
1.979                   -0.12164       -0.361475
1.98                   -0.122848       -0.361089
1.981                  -0.124056       -0.360698
1.982                  -0.125262       -0.360304
1.983                  -0.126467       -0.359906
1.984                  -0.127671       -0.359503
1.985                  -0.128873       -0.359096
1.986                  -0.130074       -0.358685
1.987                  -0.131274        -0.35827
1.988                  -0.132472       -0.357851
1.989                  -0.133669       -0.357428
1.99                   -0.134865       -0.357001
1.991                  -0.136059        -0.35657
1.992                  -0.137251       -0.356134
1.993                  -0.138442       -0.355695
1.994                  -0.139632       -0.355251
1.995                   -0.14082       -0.354803
1.996                  -0.142007       -0.354351
1.997                  -0.143192       -0.353895
1.998                  -0.144375       -0.353435
1.999                  -0.145557       -0.352971
2                      -0.146738       -0.352503
