! TOUCHSTONE file generated by CST MICROWAVE STUDIO
! Date and time: Sat Aug  1 23:57:45 2026
! Project name: Sonda-Coaxial_21mm_DisifixB_v2_Alchol.cst
! Parameters = {h_recipiente=20; l_conector=50; r_arandela=35; r_ext=10.5; r_int=3; r_recipiente=100; z_recipiente=-30}
! Header version: 2018
! Port assignment regex: !\s*Touchstone port\s*([0-9]+)\s*=\s*(CST MWS port|CST DS port)\s*([0-9]+|Zmin|Zmax)\s*\(\"(.*)\"\)(\s*mode\s*([0-9]+))?.*
! Touchstone port assignment:
! Touchstone port 1 = CST MWS port 1 ("")
# GHz S RI R 50
0.001                   0.948808     -0.00640797
0.002                   0.948804      -0.0128131
0.003                   0.948797      -0.0192125
0.004                   0.948787      -0.0256034
0.005                   0.948771      -0.0319831
0.006                    0.94875      -0.0383491
0.007                   0.948723      -0.0446989
0.008                   0.948686      -0.0510304
0.009                    0.94864      -0.0573415
0.01                    0.948581      -0.0636303
0.011                   0.948509      -0.0698952
0.012                   0.948422      -0.0761347
0.013                   0.948317      -0.0823476
0.014                   0.948192       -0.088533
0.015                   0.948046      -0.0946899
0.016                   0.947876       -0.100818
0.017                   0.947681       -0.106916
0.018                   0.947458       -0.112985
0.019                   0.947206       -0.119024
0.02                    0.946924       -0.125034
0.021                   0.946609       -0.131013
0.022                   0.946261       -0.136964
0.023                   0.945877       -0.142885
0.024                   0.945457       -0.148778
0.025                   0.944999       -0.154643
0.026                   0.944503        -0.16048
0.027                   0.943967        -0.16629
0.028                   0.943391       -0.172075
0.029                   0.942773       -0.177833
0.03                    0.942114       -0.183567
0.031                   0.941413       -0.189276
0.032                    0.94067       -0.194961
0.033                   0.939883       -0.200623
0.034                   0.939053       -0.206263
0.035                   0.938179       -0.211881
0.036                   0.937262       -0.217477
0.037                   0.936302       -0.223052
0.038                   0.935297       -0.228607
0.039                   0.934249       -0.234142
0.04                    0.933157       -0.239658
0.041                   0.932021       -0.245154
0.042                   0.930842       -0.250632
0.043                    0.92962       -0.256091
0.044                   0.928355       -0.261532
0.045                   0.927046       -0.266956
0.046                   0.925695       -0.272361
0.047                   0.924302        -0.27775
0.048                   0.922866       -0.283121
0.049                   0.921388       -0.288475
0.05                    0.919869       -0.293812
0.051                   0.918308       -0.299132
0.052                   0.916706       -0.304436
0.053                   0.915063       -0.309723
0.054                    0.91338       -0.314994
0.055                   0.911657       -0.320247
0.056                   0.909893       -0.325485
0.057                    0.90809       -0.330706
0.058                   0.906248        -0.33591
0.059                   0.904367       -0.341098
0.06                    0.902447       -0.346269
0.061                   0.900489       -0.351423
0.062                   0.898493       -0.356561
0.063                   0.896459       -0.361682
0.064                   0.894388       -0.366785
0.065                   0.892279       -0.371872
0.066                   0.890134       -0.376942
0.067                   0.887952       -0.381994
0.068                   0.885734       -0.387029
0.069                    0.88348       -0.392046
0.07                     0.88119       -0.397046
0.071                   0.878865       -0.402028
0.072                   0.876505       -0.406992
0.073                    0.87411       -0.411938
0.074                   0.871681       -0.416865
0.075                   0.869218       -0.421774
0.076                    0.86672       -0.426664
0.077                   0.864189       -0.431536
0.078                   0.861624       -0.436389
0.079                   0.859027       -0.441222
0.08                    0.856396       -0.446037
0.081                   0.853733       -0.450832
0.082                   0.851038       -0.455607
0.083                   0.848311       -0.460362
0.084                   0.845552       -0.465098
0.085                   0.842761       -0.469813
0.086                   0.839939       -0.474508
0.087                   0.837086       -0.479182
0.088                   0.834203       -0.483836
0.089                   0.831289       -0.488469
0.09                    0.828344        -0.49308
0.091                    0.82537       -0.497671
0.092                   0.822366        -0.50224
0.093                   0.819333       -0.506788
0.094                    0.81627       -0.511313
0.095                   0.813178       -0.515817
0.096                   0.810058       -0.520299
0.097                   0.806909       -0.524758
0.098                   0.803732       -0.529195
0.099                   0.800527       -0.533609
0.1                     0.797294       -0.538001
0.101                   0.794034       -0.542369
0.102                   0.790747       -0.546714
0.103                   0.787432       -0.551036
0.104                   0.784091       -0.555335
0.105                   0.780723        -0.55961
0.106                   0.777329       -0.563861
0.107                    0.77391       -0.568088
0.108                   0.770464       -0.572291
0.109                   0.766992        -0.57647
0.11                    0.763496       -0.580624
0.111                   0.759974       -0.584754
0.112                   0.756428       -0.588859
0.113                   0.752857       -0.592939
0.114                   0.749262       -0.596994
0.115                   0.745642       -0.601023
0.116                   0.741999       -0.605028
0.117                   0.738332       -0.609007
0.118                   0.734642       -0.612961
0.119                   0.730929       -0.616888
0.12                    0.727192        -0.62079
0.121                   0.723433       -0.624666
0.122                   0.719652       -0.628515
0.123                   0.715849       -0.632338
0.124                   0.712023       -0.636136
0.125                   0.708176       -0.639906
0.126                   0.704308       -0.643649
0.127                   0.700418       -0.647366
0.128                   0.696508       -0.651056
0.129                   0.692576       -0.654719
0.13                    0.688624       -0.658355
0.131                   0.684652       -0.661964
0.132                    0.68066       -0.665545
0.133                   0.676648       -0.669099
0.134                   0.672617       -0.672625
0.135                   0.668566       -0.676123
0.136                   0.664496       -0.679594
0.137                   0.660408       -0.683037
0.138                   0.656301       -0.686452
0.139                   0.652176       -0.689838
0.14                    0.648032       -0.693197
0.141                   0.643871       -0.696527
0.142                   0.639692       -0.699829
0.143                   0.635495       -0.703103
0.144                   0.631282       -0.706347
0.145                   0.627052       -0.709563
0.146                   0.622805       -0.712751
0.147                   0.618542        -0.71591
0.148                   0.614262        -0.71904
0.149                   0.609967       -0.722141
0.15                    0.605655       -0.725213
0.151                   0.601328       -0.728256
0.152                   0.596987       -0.731269
0.153                    0.59263       -0.734254
0.154                   0.588258       -0.737209
0.155                   0.583872       -0.740135
0.156                   0.579472       -0.743031
0.157                   0.575057       -0.745898
0.158                   0.570629       -0.748736
0.159                   0.566187       -0.751543
0.16                    0.561732       -0.754321
0.161                   0.557264        -0.75707
0.162                   0.552782       -0.759789
0.163                   0.548289       -0.762477
0.164                   0.543783       -0.765136
0.165                   0.539264       -0.767766
0.166                   0.534734       -0.770365
0.167                   0.530192       -0.772934
0.168                   0.525639       -0.775474
0.169                   0.521074       -0.777983
0.17                    0.516499       -0.780462
0.171                   0.511912       -0.782911
0.172                   0.507316        -0.78533
0.173                   0.502709       -0.787719
0.174                   0.498091       -0.790078
0.175                   0.493464       -0.792406
0.176                   0.488828       -0.794704
0.177                   0.484182       -0.796973
0.178                   0.479527        -0.79921
0.179                   0.474863       -0.801418
0.18                     0.47019       -0.803595
0.181                   0.465509       -0.805742
0.182                   0.460819       -0.807858
0.183                   0.456122       -0.809945
0.184                   0.451417          -0.812
0.185                   0.446703       -0.814026
0.186                   0.441984       -0.816021
0.187                   0.437256       -0.817986
0.188                   0.432522       -0.819921
0.189                   0.427782       -0.821825
0.19                    0.423034       -0.823699
0.191                   0.418281       -0.825542
0.192                   0.413521       -0.827356
0.193                   0.408756       -0.829139
0.194                   0.403985       -0.830891
0.195                   0.399209       -0.832614
0.196                   0.394428       -0.834306
0.197                   0.389642       -0.835968
0.198                   0.384851       -0.837599
0.199                   0.380056       -0.839201
0.2                     0.375256       -0.840772
0.201                   0.370453       -0.842313
0.202                   0.365645       -0.843824
0.203                   0.360834       -0.845304
0.204                    0.35602       -0.846755
0.205                   0.351202       -0.848176
0.206                   0.346382       -0.849566
0.207                   0.341559       -0.850927
0.208                   0.336733       -0.852257
0.209                   0.331904       -0.853558
0.21                    0.327074       -0.854829
0.211                   0.322242        -0.85607
0.212                   0.317407       -0.857281
0.213                   0.312572       -0.858462
0.214                   0.307735       -0.859613
0.215                   0.302897       -0.860735
0.216                   0.298058       -0.861828
0.217                   0.293218        -0.86289
0.218                   0.288378       -0.863923
0.219                   0.283537       -0.864927
0.22                    0.278697       -0.865901
0.221                   0.273856       -0.866846
0.222                   0.269016       -0.867761
0.223                   0.264176       -0.868647
0.224                   0.259337       -0.869504
0.225                   0.254498       -0.870332
0.226                   0.249661       -0.871131
0.227                   0.244824         -0.8719
0.228                    0.23999       -0.872641
0.229                   0.235157       -0.873353
0.23                    0.230326       -0.874036
0.231                   0.225496        -0.87469
0.232                   0.220669       -0.875315
0.233                   0.215844       -0.875912
0.234                   0.211022        -0.87648
0.235                   0.206202        -0.87702
0.236                   0.201386       -0.877531
0.237                   0.196572       -0.878014
0.238                   0.191762       -0.878468
0.239                   0.186955       -0.878894
0.24                    0.182152       -0.879293
0.241                   0.177353       -0.879663
0.242                   0.172557       -0.880005
0.243                   0.167766       -0.880319
0.244                   0.162979       -0.880606
0.245                   0.158196       -0.880864
0.246                   0.153418       -0.881095
0.247                   0.148646       -0.881299
0.248                   0.143877       -0.881475
0.249                   0.139115       -0.881623
0.25                    0.134357       -0.881745
0.251                   0.129605       -0.881839
0.252                   0.124859       -0.881906
0.253                   0.120118       -0.881946
0.254                   0.115384       -0.881959
0.255                   0.110655       -0.881945
0.256                   0.105933       -0.881904
0.257                   0.101218       -0.881837
0.258                  0.0965089       -0.881743
0.259                  0.0918065       -0.881623
0.26                   0.0871114       -0.881476
0.261                  0.0824232       -0.881303
0.262                  0.0777422       -0.881104
0.263                  0.0730688       -0.880879
0.264                  0.0684025       -0.880627
0.265                  0.0637443        -0.88035
0.266                  0.0590939       -0.880047
0.267                  0.0544515       -0.879719
0.268                  0.0498171       -0.879364
0.269                   0.045191       -0.878985
0.27                   0.0405733        -0.87858
0.271                   0.035964        -0.87815
0.272                  0.0313636       -0.877694
0.273                   0.026772       -0.877214
0.274                  0.0221895       -0.876708
0.275                   0.017616       -0.876178
0.276                  0.0130518       -0.875623
0.277                 0.00849676       -0.875043
0.278                 0.00395161       -0.874439
0.279               -0.000584189       -0.873811
0.28                 -0.00511009       -0.873158
0.281                 -0.0096262       -0.872481
0.282                 -0.0141322        -0.87178
0.283                 -0.0186279       -0.871055
0.284                 -0.0231134       -0.870307
0.285                 -0.0275886       -0.869534
0.286                  -0.032053       -0.868738
0.287                 -0.0365069       -0.867918
0.288                 -0.0409501       -0.867076
0.289                 -0.0453823       -0.866209
0.29                  -0.0498036        -0.86532
0.291                 -0.0542136       -0.864408
0.292                 -0.0586124       -0.863473
0.293                 -0.0629998       -0.862515
0.294                 -0.0673757       -0.861534
0.295                 -0.0717401       -0.860531
0.296                 -0.0760927       -0.859505
0.297                 -0.0804333       -0.858457
0.298                 -0.0847622       -0.857387
0.299                 -0.0890791       -0.856295
0.3                   -0.0933837       -0.855181
0.301                 -0.0976762       -0.854045
0.302                  -0.101956       -0.852887
0.303                  -0.106224       -0.851708
0.304                  -0.110479       -0.850507
0.305                  -0.114721       -0.849285
0.306                  -0.118951       -0.848042
0.307                  -0.123168       -0.846778
0.308                  -0.127371       -0.845492
0.309                  -0.131562       -0.844186
0.31                   -0.135739       -0.842859
0.311                  -0.139904       -0.841512
0.312                  -0.144055       -0.840144
0.313                  -0.148192       -0.838756
0.314                  -0.152316       -0.837348
0.315                  -0.156427       -0.835919
0.316                  -0.160523       -0.834471
0.317                  -0.164606       -0.833002
0.318                  -0.168675       -0.831514
0.319                   -0.17273       -0.830007
0.32                   -0.176771        -0.82848
0.321                  -0.180798       -0.826933
0.322                  -0.184811       -0.825368
0.323                  -0.188809       -0.823783
0.324                  -0.192793       -0.822179
0.325                  -0.196763       -0.820557
0.326                  -0.200718       -0.818916
0.327                  -0.204658       -0.817256
0.328                  -0.208584       -0.815578
0.329                  -0.212495       -0.813882
0.33                   -0.216391       -0.812167
0.331                  -0.220272       -0.810434
0.332                  -0.224138       -0.808684
0.333                   -0.22799       -0.806915
0.334                  -0.231826       -0.805129
0.335                  -0.235647       -0.803326
0.336                  -0.239452       -0.801505
0.337                  -0.243243       -0.799666
0.338                  -0.247018       -0.797811
0.339                  -0.250778       -0.795938
0.34                   -0.254522       -0.794049
0.341                   -0.25825       -0.792143
0.342                  -0.261963        -0.79022
0.343                   -0.26566       -0.788281
0.344                  -0.269342       -0.786325
0.345                  -0.273008       -0.784353
0.346                  -0.276658       -0.782365
0.347                  -0.280292        -0.78036
0.348                  -0.283909        -0.77834
0.349                  -0.287511       -0.776305
0.35                   -0.291098       -0.774253
0.351                  -0.294667       -0.772186
0.352                  -0.298221       -0.770104
0.353                  -0.301759       -0.768006
0.354                   -0.30528       -0.765894
0.355                  -0.308785       -0.763766
0.356                  -0.312273       -0.761623
0.357                  -0.315745       -0.759466
0.358                  -0.319201       -0.757294
0.359                   -0.32264       -0.755108
0.36                   -0.326063       -0.752907
0.361                  -0.329469       -0.750692
0.362                  -0.332859       -0.748463
0.363                  -0.336232        -0.74622
0.364                  -0.339588       -0.743963
0.365                  -0.342927       -0.741693
0.366                   -0.34625       -0.739408
0.367                  -0.349556       -0.737111
0.368                  -0.352845         -0.7348
0.369                  -0.356117       -0.732475
0.37                   -0.359373       -0.730138
0.371                  -0.362611       -0.727788
0.372                  -0.365832       -0.725424
0.373                  -0.369037       -0.723048
0.374                  -0.372224        -0.72066
0.375                  -0.375394       -0.718259
0.376                  -0.378548       -0.715845
0.377                  -0.381684        -0.71342
0.378                  -0.384803       -0.710982
0.379                  -0.387905       -0.708532
0.38                    -0.39099        -0.70607
0.381                  -0.394057       -0.703597
0.382                  -0.397107       -0.701112
0.383                   -0.40014       -0.698615
0.384                  -0.403156       -0.696108
0.385                  -0.406154       -0.693588
0.386                  -0.409135       -0.691058
0.387                  -0.412099       -0.688517
0.388                  -0.415046       -0.685964
0.389                  -0.417975       -0.683401
0.39                   -0.420887       -0.680828
0.391                  -0.423781       -0.678243
0.392                  -0.426658       -0.675649
0.393                  -0.429517       -0.673044
0.394                  -0.432359       -0.670428
0.395                  -0.435184       -0.667803
0.396                  -0.437991       -0.665168
0.397                  -0.440781       -0.662523
0.398                  -0.443553       -0.659868
0.399                  -0.446308       -0.657203
0.4                    -0.449045        -0.65453
0.401                  -0.451765       -0.651846
0.402                  -0.454467       -0.649154
0.403                  -0.457152       -0.646452
0.404                  -0.459819       -0.643741
0.405                  -0.462468       -0.641021
0.406                    -0.4651       -0.638293
0.407                  -0.467715       -0.635556
0.408                  -0.470312        -0.63281
0.409                  -0.472891       -0.630056
0.41                   -0.475453       -0.627293
0.411                  -0.477997       -0.624522
0.412                  -0.480524       -0.621743
0.413                  -0.483034       -0.618956
0.414                  -0.485525       -0.616161
0.415                  -0.487999       -0.613359
0.416                  -0.490456       -0.610548
0.417                  -0.492895        -0.60773
0.418                  -0.495316       -0.604905
0.419                   -0.49772       -0.602072
0.42                   -0.500107       -0.599232
0.421                  -0.502476       -0.596385
0.422                  -0.504827        -0.59353
0.423                  -0.507161       -0.590669
0.424                  -0.509477       -0.587801
0.425                  -0.511776       -0.584927
0.426                  -0.514058       -0.582045
0.427                  -0.516322       -0.579157
0.428                  -0.518568       -0.576263
0.429                  -0.520797       -0.573362
0.43                   -0.523008       -0.570456
0.431                  -0.525203       -0.567543
0.432                  -0.527379       -0.564624
0.433                  -0.529538       -0.561699
0.434                   -0.53168       -0.558769
0.435                  -0.533805       -0.555832
0.436                  -0.535912        -0.55289
0.437                  -0.538002       -0.549943
0.438                  -0.540074        -0.54699
0.439                  -0.542129       -0.544033
0.44                   -0.544167       -0.541069
0.441                  -0.546187       -0.538101
0.442                   -0.54819       -0.535128
0.443                  -0.550176        -0.53215
0.444                  -0.552145       -0.529167
0.445                  -0.554096       -0.526179
0.446                   -0.55603       -0.523187
0.447                  -0.557947        -0.52019
0.448                  -0.559847       -0.517189
0.449                  -0.561729       -0.514184
0.45                   -0.563595       -0.511174
0.451                  -0.565443       -0.508161
0.452                  -0.567275       -0.505143
0.453                  -0.569089       -0.502121
0.454                  -0.570886       -0.499096
0.455                  -0.572666       -0.496067
0.456                   -0.57443       -0.493034
0.457                  -0.576176       -0.489997
0.458                  -0.577905       -0.486957
0.459                  -0.579617       -0.483914
0.46                   -0.581313       -0.480867
0.461                  -0.582991       -0.477818
0.462                  -0.584653       -0.474765
0.463                  -0.586298       -0.471709
0.464                  -0.587926        -0.46865
0.465                  -0.589537       -0.465588
0.466                  -0.591132       -0.462524
0.467                  -0.592709       -0.459457
0.468                   -0.59427       -0.456387
0.469                  -0.595815       -0.453315
0.47                   -0.597343       -0.450241
0.471                  -0.598854       -0.447164
0.472                  -0.600349       -0.444085
0.473                  -0.601827       -0.441003
0.474                  -0.603288        -0.43792
0.475                  -0.604733       -0.434835
0.476                  -0.606162       -0.431748
0.477                  -0.607574       -0.428659
0.478                   -0.60897       -0.425568
0.479                  -0.610349       -0.422475
0.48                   -0.611713       -0.419381
0.481                  -0.613059       -0.416286
0.482                   -0.61439       -0.413189
0.483                  -0.615704       -0.410091
0.484                  -0.617002       -0.406991
0.485                  -0.618284       -0.403891
0.486                   -0.61955       -0.400789
0.487                    -0.6208       -0.397686
0.488                  -0.622033       -0.394582
0.489                  -0.623251       -0.391478
0.49                   -0.624453       -0.388373
0.491                  -0.625638       -0.385267
0.492                  -0.626808        -0.38216
0.493                  -0.627962       -0.379053
0.494                    -0.6291       -0.375945
0.495                  -0.630222       -0.372837
0.496                  -0.631328       -0.369728
0.497                  -0.632419        -0.36662
0.498                  -0.633494       -0.363511
0.499                  -0.634553       -0.360402
0.5                    -0.635597       -0.357293
0.501                  -0.636625       -0.354184
0.502                  -0.637637       -0.351075
0.503                  -0.638634       -0.347966
0.504                  -0.639616       -0.344857
0.505                  -0.640582       -0.341749
0.506                  -0.641532       -0.338641
0.507                  -0.642467       -0.335534
0.508                  -0.643387       -0.332427
0.509                  -0.644292        -0.32932
0.51                   -0.645181       -0.326215
0.511                  -0.646055        -0.32311
0.512                  -0.646914       -0.320006
0.513                  -0.647758       -0.316903
0.514                  -0.648587         -0.3138
0.515                    -0.6494       -0.310699
0.516                  -0.650199       -0.307598
0.517                  -0.650983       -0.304499
0.518                  -0.651752       -0.301401
0.519                  -0.652505       -0.298304
0.52                   -0.653244       -0.295209
0.521                  -0.653969       -0.292115
0.522                  -0.654678       -0.289022
0.523                  -0.655373       -0.285931
0.524                  -0.656053       -0.282841
0.525                  -0.656718       -0.279753
0.526                  -0.657369       -0.276667
0.527                  -0.658005       -0.273582
0.528                  -0.658627       -0.270499
0.529                  -0.659234       -0.267418
0.53                   -0.659826       -0.264339
0.531                  -0.660405       -0.261262
0.532                  -0.660969       -0.258187
0.533                  -0.661519       -0.255114
0.534                  -0.662054       -0.252043
0.535                  -0.662575       -0.248975
0.536                  -0.663082       -0.245908
0.537                  -0.663575       -0.242844
0.538                  -0.664054       -0.239783
0.539                  -0.664519       -0.236723
0.54                   -0.664969       -0.233667
0.541                  -0.665406       -0.230612
0.542                  -0.665829       -0.227561
0.543                  -0.666238       -0.224512
0.544                  -0.666633       -0.221465
0.545                  -0.667015       -0.218422
0.546                  -0.667382       -0.215381
0.547                  -0.667736       -0.212343
0.548                  -0.668076       -0.209308
0.549                  -0.668403       -0.206276
0.55                   -0.668716       -0.203247
0.551                  -0.669015       -0.200221
0.552                  -0.669302       -0.197198
0.553                  -0.669574       -0.194179
0.554                  -0.669833       -0.191162
0.555                  -0.670079       -0.188149
0.556                  -0.670312       -0.185139
0.557                  -0.670531       -0.182133
0.558                  -0.670737        -0.17913
0.559                   -0.67093        -0.17613
0.56                    -0.67111       -0.173134
0.561                  -0.671277       -0.170141
0.562                   -0.67143       -0.167152
0.563                  -0.671571       -0.164167
0.564                  -0.671699       -0.161185
0.565                  -0.671814       -0.158207
0.566                  -0.671916       -0.155233
0.567                  -0.672005       -0.152263
0.568                  -0.672081       -0.149296
0.569                  -0.672145       -0.146333
0.57                   -0.672196       -0.143375
0.571                  -0.672234        -0.14042
0.572                   -0.67226       -0.137469
0.573                  -0.672273       -0.134523
0.574                  -0.672274        -0.13158
0.575                  -0.672262       -0.128642
0.576                  -0.672238       -0.125708
0.577                  -0.672201       -0.122778
0.578                  -0.672153       -0.119853
0.579                  -0.672092       -0.116932
0.58                   -0.672018       -0.114015
0.581                  -0.671933       -0.111103
0.582                  -0.671835       -0.108194
0.583                  -0.671725       -0.105291
0.584                  -0.671604       -0.102392
0.585                   -0.67147      -0.0994979
0.586                  -0.671324      -0.0966081
0.587                  -0.671166      -0.0937232
0.588                  -0.670997      -0.0908426
0.589                  -0.670816      -0.0879669
0.59                   -0.670622       -0.085096
0.591                  -0.670418      -0.0822299
0.592                  -0.670201      -0.0793684
0.593                  -0.669973       -0.076512
0.594                  -0.669733      -0.0736604
0.595                  -0.669482      -0.0708138
0.596                  -0.669219      -0.0679723
0.597                  -0.668944      -0.0651355
0.598                  -0.668659       -0.062304
0.599                  -0.668362      -0.0594775
0.6                    -0.668053       -0.056656
0.601                  -0.667733      -0.0538396
0.602                  -0.667403      -0.0510286
0.603                   -0.66706      -0.0482227
0.604                  -0.666707      -0.0454221
0.605                  -0.666343      -0.0426267
0.606                  -0.665967      -0.0398367
0.607                  -0.665581      -0.0370519
0.608                  -0.665183      -0.0342726
0.609                  -0.664775      -0.0314986
0.61                   -0.664355      -0.0287301
0.611                  -0.663925       -0.025967
0.612                  -0.663484      -0.0232095
0.613                  -0.663033      -0.0204574
0.614                   -0.66257       -0.017711
0.615                  -0.662097        -0.01497
0.616                  -0.661614      -0.0122348
0.617                  -0.661119     -0.00950505
0.618                  -0.660615     -0.00678115
0.619                  -0.660099     -0.00406286
0.62                   -0.659574      -0.0013502
0.621                  -0.659037      0.00135633
0.622                  -0.658491      0.00405746
0.623                  -0.657934      0.00675256
0.624                  -0.657367       0.0094419
0.625                   -0.65679       0.0121256
0.626                  -0.656202        0.014803
0.627                  -0.655605       0.0174747
0.628                  -0.654997       0.0201404
0.629                   -0.65438       0.0228003
0.63                   -0.653752       0.0254539
0.631                  -0.653114       0.0281016
0.632                  -0.652466       0.0307433
0.633                  -0.651809       0.0333788
0.634                  -0.651142       0.0360084
0.635                  -0.650465       0.0386318
0.636                  -0.649778       0.0412491
0.637                  -0.649081       0.0438599
0.638                  -0.648375       0.0464649
0.639                  -0.647659       0.0490635
0.64                   -0.646934       0.0516558
0.641                  -0.646199       0.0542421
0.642                  -0.645454       0.0568218
0.643                    -0.6447       0.0593954
0.644                  -0.643937       0.0619624
0.645                  -0.643164       0.0645233
0.646                  -0.642382       0.0670777
0.647                  -0.641591       0.0696258
0.648                   -0.64079       0.0721674
0.649                  -0.639981       0.0747027
0.65                   -0.639162       0.0772311
0.651                  -0.638334       0.0797534
0.652                  -0.637497        0.082269
0.653                  -0.636651       0.0847782
0.654                  -0.635796       0.0872809
0.655                  -0.634932       0.0897768
0.656                  -0.634059       0.0922664
0.657                  -0.633177       0.0947491
0.658                  -0.632286       0.0972254
0.659                  -0.631387       0.0996948
0.66                   -0.630479        0.102158
0.661                  -0.629562        0.104614
0.662                  -0.628637        0.107064
0.663                  -0.627703        0.109506
0.664                   -0.62676        0.111942
0.665                  -0.625809        0.114371
0.666                  -0.624849        0.116794
0.667                  -0.623881         0.11921
0.668                  -0.622905        0.121618
0.669                   -0.62192         0.12402
0.67                   -0.620926        0.126416
0.671                  -0.619925        0.128804
0.672                  -0.618915        0.131185
0.673                  -0.617897         0.13356
0.674                  -0.616871        0.135927
0.675                  -0.615837        0.138288
0.676                  -0.614795        0.140642
0.677                  -0.613744        0.142988
0.678                  -0.612686        0.145328
0.679                   -0.61162        0.147661
0.68                   -0.610545        0.149986
0.681                  -0.609463        0.152305
0.682                  -0.608373        0.154617
0.683                  -0.607275        0.156921
0.684                   -0.60617        0.159219
0.685                  -0.605056        0.161509
0.686                  -0.603935        0.163793
0.687                  -0.602807        0.166069
0.688                   -0.60167        0.168338
0.689                  -0.600527          0.1706
0.69                   -0.599375        0.172854
0.691                  -0.598216        0.175102
0.692                   -0.59705        0.177342
0.693                  -0.595876        0.179575
0.694                  -0.594695        0.181801
0.695                  -0.593507         0.18402
0.696                  -0.592311        0.186231
0.697                  -0.591108        0.188436
0.698                  -0.589898        0.190632
0.699                   -0.58868        0.192822
0.7                    -0.587456        0.195004
0.701                  -0.586224        0.197179
0.702                  -0.584985        0.199347
0.703                  -0.583739        0.201507
0.704                  -0.582487         0.20366
0.705                  -0.581227        0.205806
0.706                   -0.57996        0.207944
0.707                  -0.578686        0.210075
0.708                  -0.577406        0.212199
0.709                  -0.576119        0.214315
0.71                   -0.574825        0.216424
0.711                  -0.573524        0.218525
0.712                  -0.572217        0.220619
0.713                  -0.570903        0.222705
0.714                  -0.569582        0.224784
0.715                  -0.568255        0.226855
0.716                  -0.566921        0.228919
0.717                   -0.56558        0.230976
0.718                  -0.564234        0.233025
0.719                   -0.56288        0.235066
0.72                   -0.561521          0.2371
0.721                  -0.560155        0.239127
0.722                  -0.558782        0.241145
0.723                  -0.557404        0.243157
0.724                  -0.556019        0.245161
0.725                  -0.554628        0.247157
0.726                   -0.55323        0.249145
0.727                  -0.551827        0.251126
0.728                  -0.550417          0.2531
0.729                  -0.549002        0.255066
0.73                    -0.54758        0.257024
0.731                  -0.546152        0.258974
0.732                  -0.544719        0.260917
0.733                  -0.543279        0.262853
0.734                  -0.541834         0.26478
0.735                  -0.540382          0.2667
0.736                  -0.538925        0.268613
0.737                  -0.537462        0.270517
0.738                  -0.535994        0.272414
0.739                  -0.534519        0.274304
0.74                   -0.533039        0.276185
0.741                  -0.531553        0.278059
0.742                  -0.530062        0.279925
0.743                  -0.528565        0.281784
0.744                  -0.527063        0.283635
0.745                  -0.525555        0.285478
0.746                  -0.524041        0.287313
0.747                  -0.522522        0.289141
0.748                  -0.520998         0.29096
0.749                  -0.519468        0.292773
0.75                   -0.517933        0.294577
0.751                  -0.516393        0.296373
0.752                  -0.514847        0.298162
0.753                  -0.513296        0.299943
0.754                  -0.511741        0.301716
0.755                  -0.510179        0.303482
0.756                  -0.508613        0.305239
0.757                  -0.507042        0.306989
0.758                  -0.505465        0.308731
0.759                  -0.503883        0.310465
0.76                   -0.502297        0.312191
0.761                  -0.500706         0.31391
0.762                  -0.499109         0.31562
0.763                  -0.497508        0.317323
0.764                  -0.495902        0.319018
0.765                  -0.494291        0.320705
0.766                  -0.492675        0.322384
0.767                  -0.491055        0.324056
0.768                  -0.489429        0.325719
0.769                  -0.487799        0.327375
0.77                   -0.486165        0.329023
0.771                  -0.484526        0.330662
0.772                  -0.482882        0.332294
0.773                  -0.481233        0.333918
0.774                  -0.479581        0.335535
0.775                  -0.477923        0.337143
0.776                  -0.476261        0.338743
0.777                  -0.474595        0.340336
0.778                  -0.472924         0.34192
0.779                  -0.471249        0.343497
0.78                    -0.46957        0.345066
0.781                  -0.467886        0.346627
0.782                  -0.466198        0.348179
0.783                  -0.464506        0.349724
0.784                   -0.46281        0.351261
0.785                  -0.461109         0.35279
0.786                  -0.459405        0.354311
0.787                  -0.457696        0.355825
0.788                  -0.455983         0.35733
0.789                  -0.454266        0.358827
0.79                   -0.452545        0.360316
0.791                   -0.45082        0.361798
0.792                  -0.449091        0.363271
0.793                  -0.447359        0.364737
0.794                  -0.445622        0.366194
0.795                  -0.443882        0.367644
0.796                  -0.442137        0.369085
0.797                  -0.440389        0.370519
0.798                  -0.438638        0.371944
0.799                  -0.436882        0.373362
0.8                    -0.435123        0.374771
0.801                   -0.43336        0.376173
0.802                  -0.431593        0.377567
0.803                  -0.429823        0.378952
0.804                   -0.42805         0.38033
0.805                  -0.426272          0.3817
0.806                  -0.424492        0.383061
0.807                  -0.422708        0.384415
0.808                   -0.42092        0.385761
0.809                  -0.419129        0.387098
0.81                   -0.417335        0.388428
0.811                  -0.415537         0.38975
0.812                  -0.413736        0.391063
0.813                  -0.411931        0.392369
0.814                  -0.410124        0.393667
0.815                  -0.408313        0.394956
0.816                  -0.406499        0.396238
0.817                  -0.404682        0.397512
0.818                  -0.402862        0.398777
0.819                  -0.401038        0.400035
0.82                   -0.399212        0.401284
0.821                  -0.397383        0.402526
0.822                   -0.39555        0.403759
0.823                  -0.393715        0.404985
0.824                  -0.391876        0.406202
0.825                  -0.390035        0.407412
0.826                  -0.388191        0.408613
0.827                  -0.386344        0.409807
0.828                  -0.384494        0.410992
0.829                  -0.382641         0.41217
0.83                   -0.380786        0.413339
0.831                  -0.378927        0.414501
0.832                  -0.377067        0.415654
0.833                  -0.375203        0.416799
0.834                  -0.373337        0.417937
0.835                  -0.371468        0.419066
0.836                  -0.369596        0.420187
0.837                  -0.367723        0.421301
0.838                  -0.365846        0.422406
0.839                  -0.363967        0.423503
0.84                   -0.362086        0.424592
0.841                  -0.360202        0.425674
0.842                  -0.358316        0.426747
0.843                  -0.356427        0.427812
0.844                  -0.354536        0.428869
0.845                  -0.352643        0.429918
0.846                  -0.350747        0.430959
0.847                  -0.348849        0.431993
0.848                  -0.346949        0.433018
0.849                  -0.345047        0.434035
0.85                   -0.343142        0.435044
0.851                  -0.341236        0.436045
0.852                  -0.339327        0.437038
0.853                  -0.337417        0.438023
0.854                  -0.335504        0.439001
0.855                  -0.333589         0.43997
0.856                  -0.331672        0.440931
0.857                  -0.329753        0.441884
0.858                  -0.327833        0.442829
0.859                   -0.32591        0.443766
0.86                   -0.323986        0.444695
0.861                  -0.322059        0.445616
0.862                  -0.320131         0.44653
0.863                  -0.318201        0.447435
0.864                  -0.316269        0.448332
0.865                  -0.314336        0.449221
0.866                  -0.312401        0.450102
0.867                  -0.310464        0.450976
0.868                  -0.308526        0.451841
0.869                  -0.306585        0.452698
0.87                   -0.304644        0.453548
0.871                  -0.302701        0.454389
0.872                  -0.300756        0.455223
0.873                   -0.29881        0.456048
0.874                  -0.296862        0.456866
0.875                  -0.294913        0.457675
0.876                  -0.292962        0.458477
0.877                   -0.29101         0.45927
0.878                  -0.289057        0.460056
0.879                  -0.287102        0.460834
0.88                   -0.285146        0.461604
0.881                  -0.283189        0.462366
0.882                  -0.281231         0.46312
0.883                  -0.279271        0.463866
0.884                   -0.27731        0.464604
0.885                  -0.275348        0.465334
0.886                  -0.273385        0.466057
0.887                  -0.271421        0.466771
0.888                  -0.269456        0.467477
0.889                  -0.267489        0.468176
0.89                   -0.265522        0.468867
0.891                  -0.263553         0.46955
0.892                  -0.261584        0.470224
0.893                  -0.259614        0.470891
0.894                  -0.257642        0.471551
0.895                   -0.25567        0.472202
0.896                  -0.253697        0.472845
0.897                  -0.251724        0.473481
0.898                  -0.249749        0.474108
0.899                  -0.247774        0.474728
0.9                    -0.245798         0.47534
0.901                  -0.243821        0.475944
0.902                  -0.241844         0.47654
0.903                  -0.239865        0.477129
0.904                  -0.237887        0.477709
0.905                  -0.235907        0.478282
0.906                  -0.233927        0.478847
0.907                  -0.231947        0.479404
0.908                  -0.229966        0.479954
0.909                  -0.227984        0.480495
0.91                   -0.226003        0.481029
0.911                   -0.22402        0.481555
0.912                  -0.222037        0.482073
0.913                  -0.220054        0.482583
0.914                  -0.218071        0.483085
0.915                  -0.216087         0.48358
0.916                  -0.214103        0.484067
0.917                  -0.212118        0.484546
0.918                  -0.210133        0.485018
0.919                  -0.208148        0.485481
0.92                   -0.206163        0.485937
0.921                  -0.204178        0.486386
0.922                  -0.202193        0.486826
0.923                  -0.200207        0.487259
0.924                  -0.198222        0.487684
0.925                  -0.196236        0.488101
0.926                   -0.19425        0.488511
0.927                  -0.192264        0.488913
0.928                  -0.190279        0.489307
0.929                  -0.188293        0.489694
0.93                   -0.186308        0.490073
0.931                  -0.184322        0.490444
0.932                  -0.182337        0.490807
0.933                  -0.180351        0.491163
0.934                  -0.178366        0.491511
0.935                  -0.176382        0.491852
0.936                  -0.174397        0.492185
0.937                  -0.172413         0.49251
0.938                  -0.170429        0.492828
0.939                  -0.168445        0.493138
0.94                   -0.166462        0.493441
0.941                  -0.164479        0.493735
0.942                  -0.162496        0.494023
0.943                  -0.160514        0.494303
0.944                  -0.158532        0.494575
0.945                  -0.156551        0.494839
0.946                   -0.15457        0.495096
0.947                   -0.15259        0.495346
0.948                   -0.15061        0.495588
0.949                  -0.148631        0.495822
0.95                   -0.146652        0.496049
0.951                  -0.144674        0.496268
0.952                  -0.142697         0.49648
0.953                   -0.14072        0.496685
0.954                  -0.138744        0.496882
0.955                  -0.136769        0.497071
0.956                  -0.134795        0.497253
0.957                  -0.132821        0.497427
0.958                  -0.130848        0.497594
0.959                  -0.128876        0.497754
0.96                   -0.126905        0.497906
0.961                  -0.124935        0.498051
0.962                  -0.122965        0.498188
0.963                  -0.120997        0.498318
0.964                  -0.119029        0.498441
0.965                  -0.117063        0.498556
0.966                  -0.115097        0.498663
0.967                  -0.113133        0.498764
0.968                  -0.111169        0.498857
0.969                  -0.109207        0.498942
0.97                   -0.107246        0.499021
0.971                  -0.105286        0.499092
0.972                  -0.103327        0.499156
0.973                  -0.101369        0.499212
0.974                 -0.0994124        0.499261
0.975                 -0.0974571        0.499303
0.976                  -0.095503        0.499337
0.977                 -0.0935502        0.499364
0.978                 -0.0915987        0.499384
0.979                 -0.0896485        0.499397
0.98                  -0.0876997        0.499403
0.981                 -0.0857523        0.499401
0.982                 -0.0838062        0.499392
0.983                 -0.0818617        0.499376
0.984                 -0.0799184        0.499353
0.985                 -0.0779768        0.499322
0.986                 -0.0760366        0.499284
0.987                 -0.0740979         0.49924
0.988                 -0.0721609        0.499188
0.989                 -0.0702254        0.499129
0.99                  -0.0682914        0.499062
0.991                 -0.0663591        0.498989
0.992                 -0.0644284        0.498909
0.993                 -0.0624994        0.498821
0.994                  -0.060572        0.498726
0.995                 -0.0586464        0.498625
0.996                 -0.0567226        0.498516
0.997                 -0.0548004          0.4984
0.998                 -0.0528801        0.498278
0.999                 -0.0509617        0.498148
1                      -0.049045        0.498011
1.001                 -0.0471301        0.497867
1.002                 -0.0452172        0.497716
1.003                 -0.0433062        0.497559
1.004                  -0.041397        0.497394
1.005                   -0.03949        0.497222
1.006                 -0.0375848        0.497044
1.007                 -0.0356816        0.496858
1.008                 -0.0337804        0.496666
1.009                 -0.0318813        0.496466
1.01                  -0.0299841         0.49626
1.011                 -0.0280891        0.496047
1.012                 -0.0261963        0.495827
1.013                 -0.0243056        0.495601
1.014                 -0.0224169        0.495367
1.015                 -0.0205306        0.495127
1.016                 -0.0186464         0.49488
1.017                 -0.0167644        0.494626
1.018                 -0.0148847        0.494365
1.019                 -0.0130072        0.494097
1.02                  -0.0111321        0.493823
1.021                -0.00925913        0.493542
1.022                -0.00738865        0.493255
1.023                -0.00552046         0.49296
1.024                 -0.0036547        0.492659
1.025                -0.00179128        0.492351
1.026                6.97935e-05        0.492037
1.027                 0.00192825        0.491716
1.028                 0.00378431        0.491388
1.029                 0.00563783        0.491054
1.03                   0.0074889        0.490713
1.031                  0.0093374        0.490365
1.032                  0.0111834        0.490011
1.033                  0.0130268        0.489651
1.034                  0.0148676        0.489284
1.035                  0.0167058         0.48891
1.036                  0.0185414         0.48853
1.037                  0.0203743        0.488143
1.038                  0.0222045         0.48775
1.039                  0.0240321         0.48735
1.04                   0.0258568        0.486944
1.041                  0.0276789        0.486531
1.042                   0.029498        0.486112
1.043                  0.0313146        0.485687
1.044                  0.0331283        0.485255
1.045                  0.0349392        0.484817
1.046                  0.0367472        0.484372
1.047                  0.0385524        0.483921
1.048                  0.0403546        0.483464
1.049                   0.042154           0.483
1.05                   0.0439504         0.48253
1.051                  0.0457439        0.482054
1.052                  0.0475343        0.481572
1.053                  0.0493219        0.481083
1.054                  0.0511063        0.480588
1.055                  0.0528879        0.480087
1.056                  0.0546664        0.479579
1.057                  0.0564417        0.479066
1.058                  0.0582139        0.478546
1.059                  0.0599831         0.47802
1.06                   0.0617492        0.477488
1.061                   0.063512         0.47695
1.062                  0.0652717        0.476405
1.063                  0.0670283        0.475855
1.064                  0.0687817        0.475299
1.065                  0.0705317        0.474736
1.066                  0.0722786        0.474167
1.067                  0.0740222        0.473593
1.068                  0.0757625        0.473012
1.069                  0.0774995        0.472425
1.07                   0.0792332        0.471833
1.071                  0.0809635        0.471234
1.072                  0.0826907         0.47063
1.073                  0.0844142        0.470019
1.074                  0.0861345        0.469403
1.075                  0.0878513        0.468781
1.076                  0.0895647        0.468152
1.077                  0.0912746        0.467519
1.078                  0.0929812        0.466879
1.079                  0.0946842        0.466233
1.08                   0.0963837        0.465582
1.081                  0.0980796        0.464924
1.082                   0.099772        0.464261
1.083                   0.101461        0.463592
1.084                   0.103146        0.462918
1.085                   0.104828        0.462238
1.086                   0.106506        0.461552
1.087                    0.10818         0.46086
1.088                   0.109851        0.460163
1.089                   0.111518         0.45946
1.09                    0.113182        0.458751
1.091                   0.114842        0.458037
1.092                   0.116498        0.457317
1.093                    0.11815        0.456592
1.094                   0.119799        0.455861
1.095                   0.121444        0.455125
1.096                   0.123085        0.454383
1.097                   0.124722        0.453635
1.098                   0.126355        0.452882
1.099                   0.127985        0.452124
1.1                     0.129611         0.45136
1.101                   0.131233        0.450591
1.102                   0.132851        0.449816
1.103                   0.134465        0.449036
1.104                   0.136075         0.44825
1.105                   0.137681         0.44746
1.106                   0.139284        0.446663
1.107                   0.140882        0.445862
1.108                   0.142476        0.445055
1.109                   0.144067        0.444243
1.11                    0.145653        0.443426
1.111                   0.147236        0.442603
1.112                   0.148814        0.441775
1.113                   0.150388        0.440942
1.114                   0.151959        0.440104
1.115                   0.153525        0.439261
1.116                   0.155087        0.438412
1.117                   0.156645        0.437558
1.118                   0.158199          0.4367
1.119                   0.159748        0.435836
1.12                    0.161294        0.434967
1.121                   0.162835        0.434093
1.122                   0.164372        0.433214
1.123                   0.165905         0.43233
1.124                   0.167434        0.431441
1.125                   0.168959        0.430547
1.126                   0.170479        0.429648
1.127                   0.171995        0.428744
1.128                   0.173507        0.427835
1.129                   0.175014        0.426922
1.13                    0.176517        0.426003
1.131                   0.178016         0.42508
1.132                   0.179511        0.424151
1.133                   0.181001        0.423218
1.134                   0.182487         0.42228
1.135                   0.183968        0.421338
1.136                   0.185445         0.42039
1.137                   0.186918        0.419438
1.138                   0.188386        0.418481
1.139                    0.18985         0.41752
1.14                     0.19131        0.416553
1.141                   0.192765        0.415582
1.142                   0.194215        0.414607
1.143                   0.195661        0.413627
1.144                   0.197103        0.412642
1.145                    0.19854        0.411653
1.146                   0.199973        0.410659
1.147                   0.201401         0.40966
1.148                   0.202824        0.408657
1.149                   0.204243         0.40765
1.15                    0.205658        0.406638
1.151                   0.207068        0.405621
1.152                   0.208473          0.4046
1.153                   0.209874        0.403575
1.154                    0.21127        0.402546
1.155                   0.212662        0.401511
1.156                   0.214049        0.400473
1.157                   0.215431         0.39943
1.158                   0.216808        0.398383
1.159                   0.218181        0.397332
1.16                     0.21955        0.396276
1.161                   0.220913        0.395216
1.162                   0.222272        0.394152
1.163                   0.223626        0.393084
1.164                   0.224976        0.392011
1.165                   0.226321        0.390934
1.166                   0.227661        0.389854
1.167                   0.228996        0.388768
1.168                   0.230326        0.387679
1.169                   0.231652        0.386586
1.17                    0.232973        0.385489
1.171                   0.234289        0.384387
1.172                   0.235601        0.383282
1.173                   0.236907        0.382173
1.174                   0.238209        0.381059
1.175                   0.239506        0.379942
1.176                   0.240798        0.378821
1.177                   0.242086        0.377695
1.178                   0.243368        0.376566
1.179                   0.244645        0.375433
1.18                    0.245918        0.374296
1.181                   0.247186        0.373155
1.182                   0.248449        0.372011
1.183                   0.249707        0.370862
1.184                    0.25096         0.36971
1.185                   0.252208        0.368554
1.186                   0.253452        0.367394
1.187                    0.25469        0.366231
1.188                   0.255923        0.365064
1.189                   0.257152        0.363893
1.19                    0.258375        0.362719
1.191                   0.259594         0.36154
1.192                   0.260807        0.360359
1.193                   0.262016        0.359173
1.194                   0.263219        0.357984
1.195                   0.264418        0.356792
1.196                   0.265611        0.355596
1.197                     0.2668        0.354396
1.198                   0.267983        0.353193
1.199                   0.269162        0.351987
1.2                     0.270335        0.350777
1.201                   0.271504        0.349563
1.202                   0.272667        0.348347
1.203                   0.273825        0.347126
1.204                   0.274978        0.345903
1.205                   0.276127        0.344676
1.206                    0.27727        0.343446
1.207                   0.278408        0.342212
1.208                    0.27954        0.340975
1.209                   0.280668        0.339735
1.21                    0.281791        0.338491
1.211                   0.282908        0.337245
1.212                   0.284021        0.335995
1.213                   0.285128        0.334742
1.214                    0.28623        0.333486
1.215                   0.287327        0.332226
1.216                   0.288419        0.330964
1.217                   0.289505        0.329698
1.218                   0.290587         0.32843
1.219                   0.291663        0.327158
1.22                    0.292734        0.325883
1.221                     0.2938        0.324605
1.222                   0.294861        0.323325
1.223                   0.295917        0.322041
1.224                   0.296967        0.320754
1.225                   0.298012        0.319464
1.226                   0.299052        0.318172
1.227                   0.300087        0.316876
1.228                   0.301117        0.315578
1.229                   0.302141        0.314277
1.23                     0.30316        0.312973
1.231                   0.304174        0.311666
1.232                   0.305183        0.310356
1.233                   0.306186        0.309044
1.234                   0.307184        0.307728
1.235                   0.308177         0.30641
1.236                   0.309165         0.30509
1.237                   0.310147        0.303766
1.238                   0.311124         0.30244
1.239                   0.312096        0.301111
1.24                    0.313063         0.29978
1.241                   0.314024        0.298446
1.242                    0.31498        0.297109
1.243                   0.315931         0.29577
1.244                   0.316876        0.294429
1.245                   0.317816        0.293084
1.246                   0.318751        0.291738
1.247                   0.319681        0.290388
1.248                   0.320605        0.289037
1.249                   0.321524        0.287683
1.25                    0.322437        0.286326
1.251                   0.323346        0.284967
1.252                   0.324249        0.283605
1.253                   0.325146        0.282242
1.254                   0.326039        0.280875
1.255                   0.326926        0.279507
1.256                   0.327807        0.278136
1.257                   0.328684        0.276763
1.258                   0.329555        0.275388
1.259                    0.33042         0.27401
1.26                    0.331281         0.27263
1.261                   0.332136        0.271248
1.262                   0.332985        0.269864
1.263                   0.333829        0.268478
1.264                   0.334668        0.267089
1.265                   0.335502        0.265698
1.266                    0.33633        0.264305
1.267                   0.337153        0.262911
1.268                    0.33797        0.261513
1.269                   0.338782        0.260114
1.27                    0.339589        0.258713
1.271                    0.34039         0.25731
1.272                   0.341186        0.255905
1.273                   0.341977        0.254498
1.274                   0.342762        0.253089
1.275                   0.343542        0.251678
1.276                   0.344316        0.250265
1.277                   0.345086         0.24885
1.278                   0.345849        0.247434
1.279                   0.346608        0.246015
1.28                     0.34736        0.244595
1.281                   0.348108        0.243172
1.282                    0.34885        0.241748
1.283                   0.349587        0.240323
1.284                   0.350318        0.238895
1.285                   0.351044        0.237466
1.286                   0.351765        0.236035
1.287                    0.35248        0.234602
1.288                    0.35319        0.233168
1.289                   0.353894        0.231731
1.29                    0.354593        0.230294
1.291                   0.355287        0.228854
1.292                   0.355975        0.227413
1.293                   0.356658        0.225971
1.294                   0.357335        0.224526
1.295                   0.358007        0.223081
1.296                   0.358674        0.221634
1.297                   0.359335        0.220185
1.298                   0.359991        0.218734
1.299                   0.360641        0.217283
1.3                     0.361286         0.21583
1.301                   0.361926        0.214375
1.302                    0.36256        0.212919
1.303                   0.363189        0.211462
1.304                   0.363812        0.210003
1.305                    0.36443        0.208543
1.306                   0.365042        0.207081
1.307                    0.36565        0.205618
1.308                   0.366251        0.204154
1.309                   0.366848        0.202688
1.31                    0.367439        0.201222
1.311                   0.368024        0.199754
1.312                   0.368604        0.198285
1.313                   0.369179        0.196814
1.314                   0.369748        0.195342
1.315                   0.370312        0.193869
1.316                   0.370871        0.192395
1.317                   0.371424         0.19092
1.318                   0.371972        0.189444
1.319                   0.372514        0.187967
1.32                    0.373051        0.186488
1.321                   0.373583        0.185009
1.322                   0.374109        0.183528
1.323                   0.374629        0.182046
1.324                   0.375145        0.180564
1.325                   0.375655         0.17908
1.326                   0.376159        0.177595
1.327                   0.376659         0.17611
1.328                   0.377152        0.174623
1.329                   0.377641        0.173136
1.33                    0.378124        0.171647
1.331                   0.378601        0.170158
1.332                   0.379074        0.168668
1.333                   0.379541        0.167177
1.334                   0.380002        0.165685
1.335                   0.380458        0.164193
1.336                   0.380909        0.162699
1.337                   0.381354        0.161205
1.338                   0.381794         0.15971
1.339                   0.382229        0.158214
1.34                    0.382658        0.156718
1.341                   0.383082         0.15522
1.342                     0.3835        0.153723
1.343                   0.383914        0.152224
1.344                   0.384321        0.150725
1.345                   0.384724        0.149225
1.346                   0.385121        0.147724
1.347                   0.385512        0.146223
1.348                   0.385899        0.144722
1.349                    0.38628        0.143219
1.35                    0.386655        0.141716
1.351                   0.387026        0.140213
1.352                   0.387391        0.138709
1.353                    0.38775        0.137205
1.354                   0.388104          0.1357
1.355                   0.388453        0.134194
1.356                   0.388797        0.132689
1.357                   0.389135        0.131182
1.358                   0.389468        0.129676
1.359                   0.389796        0.128169
1.36                    0.390118        0.126661
1.361                   0.390435        0.125153
1.362                   0.390746        0.123645
1.363                   0.391053        0.122137
1.364                   0.391353        0.120628
1.365                   0.391649        0.119119
1.366                   0.391939        0.117609
1.367                   0.392224        0.116099
1.368                   0.392504        0.114589
1.369                   0.392779        0.113079
1.37                    0.393048        0.111569
1.371                   0.393311        0.110058
1.372                    0.39357        0.108547
1.373                   0.393823        0.107036
1.374                   0.394071        0.105525
1.375                   0.394314        0.104014
1.376                   0.394551        0.102503
1.377                   0.394783        0.100991
1.378                    0.39501       0.0994795
1.379                   0.395231       0.0979678
1.38                    0.395448       0.0964561
1.381                   0.395659       0.0949444
1.382                   0.395864       0.0934326
1.383                   0.396065       0.0919209
1.384                    0.39626       0.0904091
1.385                    0.39645       0.0888974
1.386                   0.396634       0.0873857
1.387                   0.396814       0.0858741
1.388                   0.396988       0.0843625
1.389                   0.397157       0.0828511
1.39                    0.397321       0.0813397
1.391                   0.397479       0.0798285
1.392                   0.397633       0.0783174
1.393                   0.397781       0.0768065
1.394                   0.397923       0.0752957
1.395                   0.398061       0.0737852
1.396                   0.398193       0.0722748
1.397                    0.39832       0.0707647
1.398                   0.398442       0.0692548
1.399                   0.398559       0.0677451
1.4                     0.398671       0.0662357
1.401                   0.398777       0.0647266
1.402                   0.398878       0.0632178
1.403                   0.398974       0.0617093
1.404                   0.399065       0.0602012
1.405                    0.39915       0.0586934
1.406                   0.399231       0.0571859
1.407                   0.399306       0.0556788
1.408                   0.399376       0.0541722
1.409                   0.399441       0.0526659
1.41                    0.399501       0.0511601
1.411                   0.399555       0.0496547
1.412                   0.399605       0.0481497
1.413                   0.399649       0.0466452
1.414                   0.399688       0.0451413
1.415                   0.399722       0.0436378
1.416                   0.399751       0.0421348
1.417                   0.399775       0.0406324
1.418                   0.399794       0.0391305
1.419                   0.399807       0.0376292
1.42                    0.399815       0.0361285
1.421                   0.399819       0.0346283
1.422                   0.399817       0.0331288
1.423                    0.39981       0.0316299
1.424                   0.399798       0.0301316
1.425                   0.399781        0.028634
1.426                   0.399758       0.0271371
1.427                   0.399731       0.0256408
1.428                   0.399699       0.0241453
1.429                   0.399661       0.0226505
1.43                    0.399619       0.0211564
1.431                   0.399571        0.019663
1.432                   0.399518       0.0181705
1.433                    0.39946       0.0166786
1.434                   0.399398       0.0151876
1.435                    0.39933       0.0136974
1.436                   0.399257       0.0122081
1.437                   0.399179       0.0107195
1.438                   0.399096      0.00923184
1.439                   0.399008      0.00774503
1.44                    0.398915       0.0062591
1.441                   0.398817      0.00477407
1.442                   0.398714      0.00328995
1.443                   0.398605      0.00180676
1.444                   0.398492     0.000324518
1.445                   0.398374     -0.00115677
1.446                   0.398251     -0.00263708
1.447                   0.398123      -0.0041164
1.448                    0.39799     -0.00559472
1.449                   0.397852     -0.00707202
1.45                    0.397709     -0.00854829
1.451                   0.397561      -0.0100235
1.452                   0.397408      -0.0114977
1.453                    0.39725      -0.0129707
1.454                   0.397087      -0.0144427
1.455                   0.396919      -0.0159136
1.456                   0.396746      -0.0173834
1.457                   0.396569       -0.018852
1.458                   0.396386      -0.0203194
1.459                   0.396198      -0.0217857
1.46                    0.396006      -0.0232509
1.461                   0.395808      -0.0247148
1.462                   0.395606      -0.0261775
1.463                   0.395399       -0.027639
1.464                   0.395187      -0.0290992
1.465                    0.39497      -0.0305582
1.466                   0.394748      -0.0320159
1.467                   0.394521      -0.0334724
1.468                   0.394289      -0.0349275
1.469                   0.394052      -0.0363813
1.47                    0.393811      -0.0378338
1.471                   0.393565       -0.039285
1.472                   0.393314      -0.0407348
1.473                   0.393058      -0.0421832
1.474                   0.392797      -0.0436302
1.475                   0.392531      -0.0450759
1.476                    0.39226      -0.0465201
1.477                   0.391985      -0.0479629
1.478                   0.391705      -0.0494042
1.479                    0.39142      -0.0508441
1.48                     0.39113      -0.0522825
1.481                   0.390835      -0.0537194
1.482                   0.390536      -0.0551548
1.483                   0.390232      -0.0565887
1.484                   0.389923      -0.0580211
1.485                   0.389609      -0.0594519
1.486                    0.38929      -0.0608812
1.487                   0.388967      -0.0623089
1.488                   0.388639       -0.063735
1.489                   0.388306      -0.0651595
1.49                    0.387969      -0.0665824
1.491                   0.387626      -0.0680036
1.492                   0.387279      -0.0694232
1.493                   0.386927      -0.0708411
1.494                   0.386571      -0.0722574
1.495                    0.38621       -0.073672
1.496                   0.385844      -0.0750848
1.497                   0.385473       -0.076496
1.498                   0.385098      -0.0779054
1.499                   0.384718      -0.0793131
1.5                     0.384333       -0.080719
1.501                   0.383943      -0.0821231
1.502                   0.383549      -0.0835254
1.503                   0.383151       -0.084926
1.504                   0.382747      -0.0863247
1.505                   0.382339      -0.0877215
1.506                   0.381926      -0.0891166
1.507                   0.381509      -0.0905097
1.508                   0.381087       -0.091901
1.509                   0.380661      -0.0932904
1.51                    0.380229      -0.0946779
1.511                   0.379794      -0.0960635
1.512                   0.379353      -0.0974471
1.513                   0.378908      -0.0988288
1.514                   0.378459       -0.100209
1.515                   0.378004       -0.101586
1.516                   0.377546       -0.102962
1.517                   0.377082       -0.104336
1.518                   0.376614       -0.105708
1.519                   0.376142       -0.107077
1.52                    0.375665       -0.108445
1.521                   0.375183       -0.109811
1.522                   0.374697       -0.111174
1.523                   0.374207       -0.112535
1.524                   0.373712       -0.113895
1.525                   0.373212       -0.115252
1.526                   0.372708       -0.116607
1.527                   0.372199        -0.11796
1.528                   0.371686       -0.119311
1.529                   0.371169       -0.120659
1.53                    0.370647       -0.122006
1.531                    0.37012        -0.12335
1.532                   0.369589       -0.124692
1.533                   0.369054       -0.126032
1.534                   0.368514       -0.127369
1.535                   0.367969       -0.128705
1.536                   0.367421       -0.130038
1.537                   0.366868       -0.131368
1.538                    0.36631       -0.132697
1.539                   0.365748       -0.134023
1.54                    0.365182       -0.135346
1.541                   0.364611       -0.136668
1.542                   0.364036       -0.137987
1.543                   0.363456       -0.139304
1.544                   0.362873       -0.140618
1.545                   0.362284        -0.14193
1.546                   0.361692       -0.143239
1.547                   0.361095       -0.144546
1.548                   0.360494       -0.145851
1.549                   0.359888       -0.147153
1.55                    0.359278       -0.148453
1.551                   0.358664        -0.14975
1.552                   0.358046       -0.151045
1.553                   0.357423       -0.152337
1.554                   0.356796       -0.153626
1.555                   0.356165       -0.154913
1.556                    0.35553       -0.156198
1.557                    0.35489        -0.15748
1.558                   0.354246       -0.158759
1.559                   0.353598       -0.160036
1.56                    0.352945        -0.16131
1.561                   0.352289       -0.162582
1.562                   0.351628       -0.163851
1.563                   0.350963       -0.165117
1.564                   0.350293       -0.166381
1.565                    0.34962       -0.167642
1.566                   0.348942         -0.1689
1.567                   0.348261       -0.170156
1.568                   0.347575       -0.171409
1.569                   0.346885       -0.172659
1.57                    0.346191       -0.173906
1.571                   0.345492       -0.175151
1.572                    0.34479       -0.176393
1.573                   0.344083       -0.177632
1.574                   0.343373       -0.178868
1.575                   0.342658       -0.180101
1.576                   0.341939       -0.181332
1.577                   0.341217        -0.18256
1.578                    0.34049       -0.183785
1.579                   0.339759       -0.185007
1.58                    0.339024       -0.186226
1.581                   0.338285       -0.187442
1.582                   0.337542       -0.188655
1.583                   0.336795       -0.189866
1.584                   0.336044       -0.191073
1.585                   0.335289       -0.192278
1.586                    0.33453       -0.193479
1.587                   0.333768       -0.194678
1.588                   0.333001       -0.195874
1.589                    0.33223       -0.197066
1.59                    0.331455       -0.198256
1.591                   0.330677       -0.199442
1.592                   0.329894       -0.200626
1.593                   0.329108       -0.201806
1.594                   0.328317       -0.202984
1.595                   0.327523       -0.204158
1.596                   0.326725       -0.205329
1.597                   0.325923       -0.206497
1.598                   0.325118       -0.207662
1.599                   0.324308       -0.208824
1.6                     0.323495       -0.209983
1.601                   0.322678       -0.211138
1.602                   0.321857       -0.212291
1.603                   0.321032        -0.21344
1.604                   0.320203       -0.214586
1.605                   0.319371       -0.215728
1.606                   0.318535       -0.216868
1.607                   0.317695       -0.218004
1.608                   0.316852       -0.219137
1.609                   0.316004       -0.220267
1.61                    0.315153       -0.221393
1.611                   0.314299       -0.222517
1.612                    0.31344       -0.223636
1.613                   0.312578       -0.224753
1.614                   0.311713       -0.225866
1.615                   0.310843       -0.226976
1.616                    0.30997       -0.228083
1.617                   0.309094       -0.229186
1.618                   0.308214       -0.230285
1.619                    0.30733       -0.231382
1.62                    0.306443       -0.232475
1.621                   0.305552       -0.233564
1.622                   0.304657        -0.23465
1.623                   0.303759       -0.235733
1.624                   0.302858       -0.236812
1.625                   0.301953       -0.237888
1.626                   0.301044        -0.23896
1.627                   0.300132       -0.240029
1.628                   0.299216       -0.241094
1.629                   0.298297       -0.242156
1.63                    0.297375       -0.243214
1.631                   0.296449       -0.244269
1.632                   0.295519        -0.24532
1.633                   0.294587       -0.246367
1.634                    0.29365       -0.247411
1.635                   0.292711       -0.248451
1.636                   0.291768       -0.249488
1.637                   0.290821       -0.250521
1.638                   0.289872       -0.251551
1.639                   0.288919       -0.252576
1.64                    0.287962       -0.253599
1.641                   0.287003       -0.254617
1.642                    0.28604       -0.255632
1.643                   0.285073       -0.256643
1.644                   0.284104       -0.257651
1.645                   0.283131       -0.258654
1.646                   0.282155       -0.259654
1.647                   0.281176       -0.260651
1.648                   0.280193       -0.261643
1.649                   0.279208       -0.262632
1.65                    0.278219       -0.263617
1.651                   0.277227       -0.264598
1.652                   0.276232       -0.265576
1.653                   0.275233       -0.266549
1.654                   0.274232       -0.267519
1.655                   0.273227       -0.268485
1.656                    0.27222       -0.269447
1.657                   0.271209       -0.270405
1.658                   0.270195        -0.27136
1.659                   0.269178        -0.27231
1.66                    0.268158       -0.273257
1.661                   0.267135         -0.2742
1.662                   0.266109       -0.275139
1.663                    0.26508       -0.276074
1.664                   0.264049       -0.277005
1.665                   0.263014       -0.277932
1.666                   0.261976       -0.278855
1.667                   0.260935       -0.279774
1.668                   0.259891        -0.28069
1.669                   0.258845       -0.281601
1.67                    0.257795       -0.282508
1.671                   0.256743       -0.283411
1.672                   0.255688       -0.284311
1.673                    0.25463       -0.285206
1.674                   0.253569       -0.286097
1.675                   0.252505       -0.286984
1.676                   0.251438       -0.287867
1.677                   0.250369       -0.288747
1.678                   0.249297       -0.289622
1.679                   0.248222       -0.290492
1.68                    0.247145       -0.291359
1.681                   0.246065       -0.292222
1.682                   0.244982       -0.293081
1.683                   0.243896       -0.293935
1.684                   0.242808       -0.294786
1.685                   0.241717       -0.295632
1.686                   0.240623       -0.296474
1.687                   0.239527       -0.297312
1.688                   0.238429       -0.298146
1.689                   0.237327       -0.298976
1.69                    0.236223       -0.299801
1.691                   0.235117       -0.300622
1.692                   0.234008       -0.301439
1.693                   0.232896       -0.302252
1.694                   0.231782       -0.303061
1.695                   0.230666       -0.303865
1.696                   0.229547       -0.304666
1.697                   0.228425       -0.305461
1.698                   0.227302       -0.306253
1.699                   0.226175       -0.307041
1.7                     0.225047       -0.307824
1.701                   0.223916       -0.308603
1.702                   0.222782       -0.309377
1.703                   0.221646       -0.310148
1.704                   0.220508       -0.310914
1.705                   0.219368       -0.311675
1.706                   0.218225       -0.312433
1.707                    0.21708       -0.313186
1.708                   0.215933       -0.313935
1.709                   0.214784       -0.314679
1.71                    0.213632       -0.315419
1.711                   0.212478       -0.316155
1.712                   0.211322       -0.316886
1.713                   0.210164       -0.317613
1.714                   0.209003       -0.318336
1.715                   0.207841       -0.319054
1.716                   0.206676       -0.319768
1.717                   0.205509       -0.320477
1.718                   0.204341       -0.321182
1.719                    0.20317       -0.321883
1.72                    0.201997       -0.322579
1.721                   0.200822       -0.323271
1.722                   0.199645       -0.323959
1.723                   0.198466       -0.324642
1.724                   0.197285        -0.32532
1.725                   0.196102       -0.325994
1.726                   0.194917       -0.326664
1.727                   0.193731       -0.327329
1.728                   0.192542        -0.32799
1.729                   0.191351       -0.328646
1.73                    0.190159       -0.329298
1.731                   0.188965       -0.329945
1.732                   0.187769       -0.330588
1.733                   0.186571       -0.331226
1.734                   0.185371        -0.33186
1.735                    0.18417       -0.332489
1.736                   0.182967       -0.333114
1.737                   0.181762       -0.333734
1.738                   0.180555        -0.33435
1.739                   0.179347       -0.334961
1.74                    0.178137       -0.335568
1.741                   0.176926        -0.33617
1.742                   0.175712       -0.336768
1.743                   0.174497       -0.337361
1.744                   0.173281       -0.337949
1.745                   0.172063       -0.338533
1.746                   0.170843       -0.339113
1.747                   0.169622       -0.339688
1.748                   0.168399       -0.340258
1.749                   0.167175       -0.340824
1.75                     0.16595       -0.341385
1.751                   0.164722       -0.341942
1.752                   0.163494       -0.342494
1.753                   0.162264       -0.343041
1.754                   0.161032       -0.343584
1.755                     0.1598       -0.344123
1.756                   0.158565       -0.344656
1.757                    0.15733       -0.345185
1.758                   0.156093        -0.34571
1.759                   0.154855        -0.34623
1.76                    0.153616       -0.346745
1.761                   0.152375       -0.347256
1.762                   0.151133       -0.347762
1.763                    0.14989       -0.348264
1.764                   0.148645       -0.348761
1.765                   0.147399       -0.349253
1.766                   0.146153       -0.349741
1.767                   0.144905       -0.350224
1.768                   0.143656       -0.350703
1.769                   0.142405       -0.351177
1.77                    0.141154       -0.351646
1.771                   0.139902        -0.35211
1.772                   0.138648        -0.35257
1.773                   0.137394       -0.353026
1.774                   0.136138       -0.353477
1.775                   0.134881       -0.353923
1.776                   0.133624       -0.354364
1.777                   0.132365       -0.354801
1.778                   0.131106       -0.355234
1.779                   0.129846       -0.355661
1.78                    0.128584       -0.356084
1.781                   0.127322       -0.356503
1.782                   0.126059       -0.356917
1.783                   0.124795       -0.357326
1.784                   0.123531        -0.35773
1.785                   0.122265        -0.35813
1.786                   0.120999       -0.358526
1.787                   0.119732       -0.358916
1.788                   0.118464       -0.359302
1.789                   0.117195       -0.359684
1.79                    0.115926       -0.360061
1.791                   0.114656       -0.360433
1.792                   0.113385         -0.3608
1.793                   0.112114       -0.361163
1.794                   0.110842       -0.361522
1.795                   0.109569       -0.361875
1.796                   0.108296       -0.362224
1.797                   0.107022       -0.362569
1.798                   0.105748       -0.362909
1.799                   0.104473       -0.363244
1.8                     0.103198       -0.363575
1.801                   0.101922       -0.363901
1.802                   0.100645       -0.364222
1.803                  0.0993686       -0.364539
1.804                  0.0980913       -0.364851
1.805                  0.0968134       -0.365159
1.806                  0.0955354       -0.365462
1.807                  0.0942569        -0.36576
1.808                   0.092978       -0.366054
1.809                  0.0916988       -0.366343
1.81                    0.090419       -0.366628
1.811                  0.0891391       -0.366908
1.812                   0.087859       -0.367184
1.813                  0.0865786       -0.367455
1.814                  0.0852978       -0.367721
1.815                  0.0840168       -0.367983
1.816                  0.0827355        -0.36824
1.817                  0.0814542       -0.368493
1.818                  0.0801724       -0.368741
1.819                  0.0788907       -0.368984
1.82                   0.0776087       -0.369223
1.821                  0.0763266       -0.369458
1.822                  0.0750445       -0.369688
1.823                  0.0737623       -0.369913
1.824                  0.0724799       -0.370134
1.825                  0.0711976        -0.37035
1.826                   0.069915       -0.370562
1.827                  0.0686326       -0.370769
1.828                  0.0673499       -0.370972
1.829                  0.0660676       -0.371171
1.83                   0.0647851       -0.371364
1.831                  0.0635028       -0.371554
1.832                  0.0622203       -0.371739
1.833                   0.060938       -0.371919
1.834                   0.059656       -0.372095
1.835                  0.0583739       -0.372266
1.836                   0.057092       -0.372433
1.837                  0.0558103       -0.372595
1.838                  0.0545286       -0.372753
1.839                  0.0532473       -0.372907
1.84                   0.0519662       -0.373056
1.841                  0.0506852       -0.373201
1.842                  0.0494044       -0.373341
1.843                  0.0481239       -0.373477
1.844                  0.0468438       -0.373608
1.845                  0.0455637       -0.373735
1.846                  0.0442841       -0.373858
1.847                  0.0430049       -0.373976
1.848                  0.0417259        -0.37409
1.849                  0.0404473       -0.374199
1.85                   0.0391692       -0.374304
1.851                  0.0378913       -0.374405
1.852                  0.0366138       -0.374501
1.853                  0.0353368       -0.374593
1.854                  0.0340603       -0.374681
1.855                  0.0327841       -0.374764
1.856                  0.0315084       -0.374843
1.857                  0.0302333       -0.374917
1.858                  0.0289586       -0.374988
1.859                  0.0276845       -0.375054
1.86                   0.0264108       -0.375115
1.861                  0.0251378       -0.375173
1.862                  0.0238652       -0.375226
1.863                  0.0225933       -0.375275
1.864                  0.0213219       -0.375319
1.865                  0.0200512        -0.37536
1.866                  0.0187811       -0.375396
1.867                  0.0175116       -0.375428
1.868                  0.0162428       -0.375455
1.869                  0.0149745       -0.375479
1.87                   0.0137071       -0.375498
1.871                  0.0124404       -0.375513
1.872                  0.0111742       -0.375523
1.873                 0.00990891        -0.37553
1.874                 0.00864437       -0.375532
1.875                 0.00738048       -0.375531
1.876                 0.00611733       -0.375525
1.877                 0.00485503       -0.375515
1.878                  0.0035935       -0.375501
1.879                 0.00233284       -0.375482
1.88                  0.00107298        -0.37546
1.881               -0.000186071       -0.375433
1.882                -0.00144421       -0.375403
1.883                 -0.0027016       -0.375368
1.884                -0.00395806       -0.375329
1.885                -0.00521357       -0.375286
1.886                -0.00646821       -0.375239
1.887                -0.00772196       -0.375188
1.888                -0.00897481       -0.375133
1.889                 -0.0102266       -0.375074
1.89                  -0.0114776       -0.375011
1.891                 -0.0127275       -0.374944
1.892                 -0.0139765       -0.374873
1.893                 -0.0152245       -0.374798
1.894                 -0.0164714       -0.374718
1.895                 -0.0177174       -0.374635
1.896                 -0.0189623       -0.374548
1.897                 -0.0202062       -0.374457
1.898                 -0.0214491       -0.374363
1.899                 -0.0226908       -0.374264
1.9                   -0.0239315       -0.374161
1.901                 -0.0251711       -0.374054
1.902                 -0.0264096       -0.373944
1.903                 -0.0276471        -0.37383
1.904                 -0.0288834       -0.373711
1.905                 -0.0301185       -0.373589
1.906                 -0.0313525       -0.373463
1.907                 -0.0325854       -0.373333
1.908                 -0.0338172         -0.3732
1.909                 -0.0350477       -0.373062
1.91                  -0.0362771       -0.372921
1.911                 -0.0375052       -0.372776
1.912                 -0.0387322       -0.372627
1.913                  -0.039958       -0.372475
1.914                 -0.0411825       -0.372318
1.915                 -0.0424058       -0.372158
1.916                 -0.0436278       -0.371994
1.917                 -0.0448487       -0.371827
1.918                 -0.0460682       -0.371655
1.919                 -0.0472865        -0.37148
1.92                  -0.0485035       -0.371302
1.921                 -0.0497192       -0.371119
1.922                 -0.0509336       -0.370933
1.923                 -0.0521467       -0.370744
1.924                 -0.0533586        -0.37055
1.925                 -0.0545691       -0.370353
1.926                 -0.0557782       -0.370153
1.927                  -0.056986       -0.369948
1.928                 -0.0581925       -0.369741
1.929                 -0.0593976       -0.369529
1.93                  -0.0606014       -0.369314
1.931                 -0.0618039       -0.369096
1.932                 -0.0630048       -0.368874
1.933                 -0.0642045       -0.368648
1.934                 -0.0654027       -0.368419
1.935                 -0.0665996       -0.368186
1.936                  -0.067795        -0.36795
1.937                  -0.068989        -0.36771
1.938                 -0.0701816       -0.367467
1.939                 -0.0713729        -0.36722
1.94                  -0.0725627        -0.36697
1.941                 -0.0737509       -0.366717
1.942                 -0.0749378       -0.366459
1.943                 -0.0761233       -0.366199
1.944                 -0.0773072       -0.365935
1.945                 -0.0784897       -0.365668
1.946                 -0.0796708       -0.365397
1.947                 -0.0808504       -0.365123
1.948                 -0.0820285       -0.364846
1.949                  -0.083205       -0.364565
1.95                  -0.0843802       -0.364281
1.951                 -0.0855538       -0.363993
1.952                  -0.086726       -0.363702
1.953                 -0.0878965       -0.363408
1.954                 -0.0890657       -0.363111
1.955                 -0.0902333        -0.36281
1.956                 -0.0913994       -0.362506
1.957                 -0.0925639       -0.362199
1.958                 -0.0937269       -0.361888
1.959                 -0.0948884       -0.361574
1.96                  -0.0960485       -0.361257
1.961                 -0.0972069       -0.360937
1.962                 -0.0983637       -0.360613
1.963                 -0.0995191       -0.360287
1.964                  -0.100673       -0.359957
1.965                  -0.101825       -0.359624
1.966                  -0.102976       -0.359287
1.967                  -0.104125       -0.358948
1.968                  -0.105273       -0.358605
1.969                  -0.106418       -0.358259
1.97                   -0.107563        -0.35791
1.971                  -0.108706       -0.357558
1.972                  -0.109847       -0.357203
1.973                  -0.110987       -0.356845
1.974                  -0.112125       -0.356484
1.975                  -0.113262       -0.356119
1.976                  -0.114397       -0.355752
1.977                   -0.11553       -0.355381
1.978                  -0.116662       -0.355007
1.979                  -0.117792        -0.35463
1.98                   -0.118921       -0.354251
1.981                  -0.120048       -0.353868
1.982                  -0.121173       -0.353482
1.983                  -0.122297       -0.353093
1.984                  -0.123419       -0.352701
1.985                   -0.12454       -0.352306
1.986                  -0.125659       -0.351909
1.987                  -0.126776       -0.351508
1.988                  -0.127892       -0.351104
1.989                  -0.129006       -0.350697
1.99                   -0.130119       -0.350287
1.991                   -0.13123       -0.349875
1.992                   -0.13234       -0.349459
1.993                  -0.133447       -0.349041
1.994                  -0.134554       -0.348619
1.995                  -0.135658       -0.348195
1.996                  -0.136761       -0.347768
1.997                  -0.137863       -0.347338
1.998                  -0.138963       -0.346904
1.999                  -0.140061       -0.346469
2                      -0.141158        -0.34603
