! TOUCHSTONE file generated by CST MICROWAVE STUDIO
! Date and time: Sun Aug  2 00:10:28 2026
! Project name: Sonda-Coaxial_21mm_DisifixB_v2_Agua_Destilada.cst
! Parameters = {h_recipiente=20; l_conector=50; r_arandela=35; r_ext=10.5; r_int=3; r_recipiente=100; z_recipiente=-10}
! Header version: 2018
! Port assignment regex: !\s*Touchstone port\s*([0-9]+)\s*=\s*(CST MWS port|CST DS port)\s*([0-9]+|Zmin|Zmax)\s*\(\"(.*)\"\)(\s*mode\s*([0-9]+))?.*
! Touchstone port assignment:
! Touchstone port 1 = CST MWS port 1 ("")
# GHz S RI R 50
0.001                  -0.101887     -0.00105228
0.002                  -0.101905     -0.00210452
0.003                  -0.101934      -0.0031566
0.004                  -0.101975     -0.00420847
0.005                  -0.102027     -0.00526009
0.006                  -0.102091     -0.00631132
0.007                  -0.102167     -0.00736214
0.008                  -0.102255     -0.00841246
0.009                  -0.102354     -0.00946222
0.01                   -0.102465      -0.0105113
0.011                  -0.102587      -0.0115597
0.012                  -0.102721      -0.0126073
0.013                  -0.102866      -0.0136539
0.014                  -0.103023      -0.0146996
0.015                  -0.103191      -0.0157442
0.016                   -0.10337      -0.0167877
0.017                  -0.103561      -0.0178299
0.018                  -0.103764      -0.0188708
0.019                  -0.103977      -0.0199103
0.02                   -0.104202      -0.0209482
0.021                  -0.104439      -0.0219845
0.022                  -0.104686      -0.0230191
0.023                  -0.104945      -0.0240519
0.024                  -0.105215      -0.0250828
0.025                  -0.105496      -0.0261117
0.026                  -0.105788      -0.0271385
0.027                  -0.106091      -0.0281631
0.028                  -0.106406      -0.0291854
0.029                  -0.106731      -0.0302053
0.03                   -0.107068      -0.0312227
0.031                  -0.107415      -0.0322375
0.032                  -0.107774      -0.0332497
0.033                  -0.108143      -0.0342591
0.034                  -0.108524      -0.0352656
0.035                  -0.108915      -0.0362691
0.036                  -0.109317      -0.0372695
0.037                   -0.10973      -0.0382668
0.038                  -0.110154      -0.0392609
0.039                  -0.110588      -0.0402516
0.04                   -0.111034      -0.0412388
0.041                   -0.11149      -0.0422225
0.042                  -0.111956      -0.0432026
0.043                  -0.112434       -0.044179
0.044                  -0.112922      -0.0451515
0.045                  -0.113421      -0.0461201
0.046                   -0.11393      -0.0470848
0.047                   -0.11445      -0.0480453
0.048                   -0.11498      -0.0490017
0.049                  -0.115521      -0.0499539
0.05                   -0.116072      -0.0509016
0.051                  -0.116634       -0.051845
0.052                  -0.117206      -0.0527838
0.053                  -0.117788       -0.053718
0.054                  -0.118381      -0.0546475
0.055                  -0.118984      -0.0555723
0.056                  -0.119597      -0.0564921
0.057                  -0.120221      -0.0574071
0.058                  -0.120855       -0.058317
0.059                  -0.121498      -0.0592217
0.06                   -0.122152      -0.0601213
0.061                  -0.122816      -0.0610155
0.062                   -0.12349      -0.0619045
0.063                  -0.124174      -0.0627879
0.064                  -0.124868      -0.0636658
0.065                  -0.125572      -0.0645382
0.066                  -0.126285      -0.0654048
0.067                  -0.127008      -0.0662656
0.068                  -0.127741      -0.0671207
0.069                  -0.128484      -0.0679697
0.07                   -0.129237      -0.0688128
0.071                  -0.129999      -0.0696498
0.072                   -0.13077      -0.0704806
0.073                  -0.131552      -0.0713052
0.074                  -0.132342      -0.0721234
0.075                  -0.133142      -0.0729353
0.076                  -0.133952      -0.0737407
0.077                   -0.13477      -0.0745396
0.078                  -0.135598      -0.0753318
0.079                  -0.136436      -0.0761173
0.08                   -0.137282      -0.0768961
0.081                  -0.138138       -0.077668
0.082                  -0.139002      -0.0784331
0.083                  -0.139876      -0.0791911
0.084                  -0.140758      -0.0799421
0.085                   -0.14165      -0.0806859
0.086                   -0.14255      -0.0814226
0.087                  -0.143459       -0.082152
0.088                  -0.144377       -0.082874
0.089                  -0.145303      -0.0835886
0.09                   -0.146238      -0.0842958
0.091                  -0.147182      -0.0849953
0.092                  -0.148134      -0.0856873
0.093                  -0.149095      -0.0863716
0.094                  -0.150064      -0.0870482
0.095                  -0.151041      -0.0877169
0.096                  -0.152027      -0.0883777
0.097                   -0.15302      -0.0890307
0.098                  -0.154022      -0.0896755
0.099                  -0.155032      -0.0903123
0.1                     -0.15605       -0.090941
0.101                  -0.157076      -0.0915615
0.102                   -0.15811      -0.0921736
0.103                  -0.159151      -0.0927775
0.104                  -0.160201       -0.093373
0.105                  -0.161258        -0.09396
0.106                  -0.162323      -0.0945386
0.107                  -0.163395      -0.0951085
0.108                  -0.164475      -0.0956698
0.109                  -0.165562      -0.0962224
0.11                   -0.166656      -0.0967663
0.111                  -0.167758      -0.0973013
0.112                  -0.168867      -0.0978275
0.113                  -0.169983      -0.0983448
0.114                  -0.171106      -0.0988531
0.115                  -0.172237      -0.0993523
0.116                  -0.173374      -0.0998425
0.117                  -0.174518       -0.100324
0.118                  -0.175669       -0.100795
0.119                  -0.176826       -0.101258
0.12                   -0.177991       -0.101711
0.121                  -0.179162       -0.102155
0.122                  -0.180339        -0.10259
0.123                  -0.181523       -0.103015
0.124                  -0.182713        -0.10343
0.125                  -0.183909       -0.103836
0.126                  -0.185112       -0.104233
0.127                  -0.186321        -0.10462
0.128                  -0.187536       -0.104997
0.129                  -0.188757       -0.105364
0.13                   -0.189984       -0.105721
0.131                  -0.191216       -0.106069
0.132                  -0.192455       -0.106407
0.133                  -0.193699       -0.106735
0.134                  -0.194949       -0.107052
0.135                  -0.196204        -0.10736
0.136                  -0.197465       -0.107658
0.137                  -0.198731       -0.107946
0.138                  -0.200003       -0.108223
0.139                   -0.20128       -0.108491
0.14                   -0.202561       -0.108748
0.141                  -0.203848       -0.108995
0.142                   -0.20514       -0.109231
0.143                  -0.206437       -0.109457
0.144                  -0.207739       -0.109673
0.145                  -0.209046       -0.109879
0.146                  -0.210357       -0.110074
0.147                  -0.211673       -0.110258
0.148                  -0.212993       -0.110432
0.149                  -0.214318       -0.110595
0.15                   -0.215647       -0.110748
0.151                  -0.216981        -0.11089
0.152                  -0.218318       -0.111022
0.153                   -0.21966       -0.111142
0.154                  -0.221006       -0.111252
0.155                  -0.222356       -0.111352
0.156                  -0.223709        -0.11144
0.157                  -0.225067       -0.111518
0.158                  -0.226428       -0.111585
0.159                  -0.227793       -0.111641
0.16                   -0.229161       -0.111686
0.161                  -0.230533        -0.11172
0.162                  -0.231908       -0.111743
0.163                  -0.233287       -0.111755
0.164                  -0.234668       -0.111756
0.165                  -0.236053       -0.111746
0.166                  -0.237441       -0.111725
0.167                  -0.238832       -0.111694
0.168                  -0.240226        -0.11165
0.169                  -0.241623       -0.111596
0.17                   -0.243022       -0.111531
0.171                  -0.244424       -0.111454
0.172                  -0.245829       -0.111367
0.173                  -0.247236       -0.111268
0.174                  -0.248645       -0.111157
0.175                  -0.250057       -0.111036
0.176                  -0.251471       -0.110903
0.177                  -0.252887        -0.11076
0.178                  -0.254305       -0.110604
0.179                  -0.255725       -0.110438
0.18                   -0.257147        -0.11026
0.181                  -0.258571       -0.110071
0.182                  -0.259996        -0.10987
0.183                  -0.261423       -0.109658
0.184                  -0.262852       -0.109435
0.185                  -0.264282         -0.1092
0.186                  -0.265714       -0.108954
0.187                  -0.267147       -0.108697
0.188                  -0.268581       -0.108428
0.189                  -0.270016       -0.108148
0.19                   -0.271452       -0.107856
0.191                  -0.272889       -0.107553
0.192                  -0.274327       -0.107238
0.193                  -0.275766       -0.106912
0.194                  -0.277206       -0.106575
0.195                  -0.278646       -0.106226
0.196                  -0.280087       -0.105865
0.197                  -0.281528       -0.105494
0.198                  -0.282969        -0.10511
0.199                  -0.284411       -0.104715
0.2                    -0.285853       -0.104309
0.201                  -0.287296       -0.103891
0.202                  -0.288738       -0.103462
0.203                   -0.29018       -0.103021
0.204                  -0.291622       -0.102569
0.205                  -0.293064       -0.102105
0.206                  -0.294505        -0.10163
0.207                  -0.295946       -0.101143
0.208                  -0.297387       -0.100645
0.209                  -0.298827       -0.100135
0.21                   -0.300267      -0.0996139
0.211                  -0.301705      -0.0990814
0.212                  -0.303143      -0.0985373
0.213                   -0.30458      -0.0979818
0.214                  -0.306017      -0.0974148
0.215                  -0.307452      -0.0968365
0.216                  -0.308886      -0.0962466
0.217                  -0.310318      -0.0956454
0.218                   -0.31175      -0.0950328
0.219                   -0.31318      -0.0944088
0.22                   -0.314609      -0.0937733
0.221                  -0.316036      -0.0931265
0.222                  -0.317461      -0.0924684
0.223                  -0.318885      -0.0917988
0.224                  -0.320307      -0.0911179
0.225                  -0.321727      -0.0904257
0.226                  -0.323145      -0.0897222
0.227                  -0.324562      -0.0890074
0.228                  -0.325976      -0.0882813
0.229                  -0.327387      -0.0875439
0.23                   -0.328797      -0.0867952
0.231                  -0.330204      -0.0860353
0.232                  -0.331609      -0.0852642
0.233                  -0.333012      -0.0844819
0.234                  -0.334412      -0.0836883
0.235                  -0.335809      -0.0828837
0.236                  -0.337203      -0.0820679
0.237                  -0.338595      -0.0812409
0.238                  -0.339983      -0.0804028
0.239                  -0.341369      -0.0795537
0.24                   -0.342752      -0.0786936
0.241                  -0.344131      -0.0778222
0.242                  -0.345508      -0.0769399
0.243                  -0.346881      -0.0760466
0.244                   -0.34825      -0.0751424
0.245                  -0.349617      -0.0742273
0.246                  -0.350979       -0.073301
0.247                  -0.352339       -0.072364
0.248                  -0.353694      -0.0714161
0.249                  -0.355046      -0.0704573
0.25                   -0.356394      -0.0694878
0.251                  -0.357738      -0.0685074
0.252                  -0.359078      -0.0675162
0.253                  -0.360414      -0.0665144
0.254                  -0.361746      -0.0655017
0.255                  -0.363074      -0.0644785
0.256                  -0.364397      -0.0634445
0.257                  -0.365716         -0.0624
0.258                  -0.367031      -0.0613447
0.259                  -0.368341      -0.0602791
0.26                   -0.369647      -0.0592029
0.261                  -0.370948      -0.0581161
0.262                  -0.372245      -0.0570189
0.263                  -0.373536      -0.0559113
0.264                  -0.374823      -0.0547933
0.265                  -0.376105      -0.0536649
0.266                  -0.377382      -0.0525262
0.267                  -0.378654      -0.0513772
0.268                  -0.379921      -0.0502179
0.269                  -0.381182      -0.0490484
0.27                   -0.382439      -0.0478687
0.271                   -0.38369       -0.046679
0.272                  -0.384935       -0.045479
0.273                  -0.386176       -0.044269
0.274                   -0.38741      -0.0430489
0.275                  -0.388639      -0.0418189
0.276                  -0.389863      -0.0405788
0.277                   -0.39108      -0.0393288
0.278                  -0.392292       -0.038069
0.279                  -0.393498      -0.0367995
0.28                   -0.394698      -0.0355199
0.281                  -0.395892      -0.0342307
0.282                   -0.39708      -0.0329318
0.283                  -0.398262      -0.0316232
0.284                  -0.399438       -0.030305
0.285                  -0.400608       -0.028977
0.286                  -0.401771      -0.0276397
0.287                  -0.402928      -0.0262928
0.288                  -0.404078      -0.0249363
0.289                  -0.405222      -0.0235706
0.29                   -0.406359      -0.0221955
0.291                   -0.40749       -0.020811
0.292                  -0.408614      -0.0194172
0.293                  -0.409731      -0.0180142
0.294                  -0.410841      -0.0166021
0.295                  -0.411945      -0.0151807
0.296                  -0.413042      -0.0137502
0.297                  -0.414131      -0.0123107
0.298                  -0.415214      -0.0108622
0.299                  -0.416289     -0.00940465
0.3                    -0.417358     -0.00793826
0.301                  -0.418419     -0.00646303
0.302                  -0.419473     -0.00497901
0.303                  -0.420519     -0.00348622
0.304                  -0.421558      -0.0019846
0.305                   -0.42259    -0.000474375
0.306                  -0.423614      0.00104442
0.307                  -0.424631      0.00257184
0.308                   -0.42564      0.00410776
0.309                  -0.426641      0.00565223
0.31                   -0.427635      0.00720504
0.311                  -0.428621      0.00876623
0.312                  -0.429599       0.0103357
0.313                  -0.430569       0.0119134
0.314                  -0.431531       0.0134994
0.315                  -0.432486       0.0150935
0.316                  -0.433432       0.0166956
0.317                   -0.43437        0.018306
0.318                    -0.4353       0.0199243
0.319                  -0.436222       0.0215504
0.32                   -0.437135       0.0231846
0.321                  -0.438041       0.0248266
0.322                  -0.438938       0.0264763
0.323                  -0.439826       0.0281337
0.324                  -0.440707       0.0297989
0.325                  -0.441578       0.0314716
0.326                  -0.442442       0.0331519
0.327                  -0.443296       0.0348398
0.328                  -0.444142        0.036535
0.329                  -0.444979       0.0382377
0.33                   -0.445808       0.0399477
0.331                  -0.446628        0.041665
0.332                  -0.447439       0.0433896
0.333                  -0.448241       0.0451212
0.334                  -0.449035         0.04686
0.335                  -0.449819       0.0486058
0.336                  -0.450595       0.0503587
0.337                  -0.451361       0.0521185
0.338                  -0.452118       0.0538852
0.339                  -0.452867       0.0556587
0.34                   -0.453606        0.057439
0.341                  -0.454336        0.059226
0.342                  -0.455057       0.0610197
0.343                  -0.455768         0.06282
0.344                   -0.45647       0.0646267
0.345                  -0.457163       0.0664399
0.346                  -0.457847       0.0682596
0.347                  -0.458521       0.0700856
0.348                  -0.459185       0.0719179
0.349                  -0.459841       0.0737566
0.35                   -0.460486       0.0756012
0.351                  -0.461122       0.0774521
0.352                  -0.461749       0.0793089
0.353                  -0.462366       0.0811719
0.354                  -0.462973       0.0830407
0.355                   -0.46357       0.0849154
0.356                  -0.464158       0.0867959
0.357                  -0.464736       0.0886822
0.358                  -0.465304       0.0905743
0.359                  -0.465862       0.0924718
0.36                   -0.466411        0.094375
0.361                  -0.466949       0.0962837
0.362                  -0.467478       0.0981979
0.363                  -0.467996        0.100117
0.364                  -0.468505        0.102042
0.365                  -0.469004        0.103972
0.366                  -0.469492        0.105908
0.367                  -0.469971        0.107848
0.368                  -0.470439        0.109794
0.369                  -0.470897        0.111744
0.37                   -0.471345          0.1137
0.371                  -0.471783         0.11566
0.372                  -0.472211        0.117625
0.373                  -0.472628        0.119595
0.374                  -0.473035         0.12157
0.375                  -0.473432        0.123549
0.376                  -0.473818        0.125533
0.377                  -0.474195        0.127522
0.378                   -0.47456        0.129515
0.379                  -0.474916        0.131512
0.38                    -0.47526        0.133513
0.381                  -0.475595        0.135519
0.382                  -0.475919        0.137529
0.383                  -0.476232        0.139544
0.384                  -0.476535        0.141562
0.385                  -0.476828        0.143584
0.386                  -0.477109        0.145611
0.387                  -0.477381        0.147641
0.388                  -0.477641        0.149675
0.389                  -0.477891        0.151712
0.39                    -0.47813        0.153754
0.391                  -0.478359        0.155799
0.392                  -0.478577        0.157848
0.393                  -0.478784          0.1599
0.394                  -0.478981        0.161955
0.395                  -0.479167        0.164014
0.396                  -0.479342        0.166077
0.397                  -0.479506        0.168142
0.398                   -0.47966        0.170211
0.399                  -0.479802        0.172283
0.4                    -0.479934        0.174358
0.401                  -0.480055        0.176436
0.402                  -0.480166        0.178516
0.403                  -0.480265          0.1806
0.404                  -0.480353        0.182687
0.405                  -0.480431        0.184776
0.406                  -0.480497        0.186868
0.407                  -0.480553        0.188963
0.408                  -0.480598         0.19106
0.409                  -0.480632        0.193159
0.41                   -0.480655        0.195261
0.411                  -0.480666        0.197366
0.412                  -0.480667        0.199473
0.413                  -0.480657        0.201582
0.414                  -0.480636        0.203693
0.415                  -0.480604        0.205806
0.416                  -0.480561        0.207922
0.417                  -0.480507        0.210039
0.418                  -0.480442        0.212158
0.419                  -0.480365        0.214279
0.42                   -0.480278        0.216402
0.421                   -0.48018        0.218527
0.422                   -0.48007        0.220653
0.423                   -0.47995        0.222781
0.424                  -0.479818        0.224911
0.425                  -0.479675        0.227042
0.426                  -0.479522        0.229174
0.427                  -0.479357        0.231308
0.428                  -0.479181        0.233443
0.429                  -0.478994        0.235579
0.43                   -0.478795        0.237717
0.431                  -0.478586        0.239855
0.432                  -0.478366        0.241995
0.433                  -0.478134        0.244135
0.434                  -0.477891        0.246277
0.435                  -0.477637        0.248419
0.436                  -0.477372        0.250563
0.437                  -0.477096        0.252706
0.438                  -0.476809        0.254851
0.439                   -0.47651        0.256996
0.44                   -0.476201        0.259142
0.441                   -0.47588        0.261288
0.442                  -0.475548        0.263435
0.443                  -0.475205        0.265582
0.444                  -0.474851         0.26773
0.445                  -0.474486        0.269877
0.446                  -0.474109        0.272025
0.447                  -0.473722        0.274173
0.448                  -0.473323        0.276321
0.449                  -0.472913        0.278469
0.45                   -0.472492        0.280617
0.451                   -0.47206        0.282765
0.452                  -0.471617        0.284913
0.453                  -0.471162         0.28706
0.454                  -0.470697        0.289207
0.455                   -0.47022        0.291354
0.456                  -0.469733        0.293501
0.457                  -0.469234        0.295647
0.458                  -0.468724        0.297792
0.459                  -0.468203        0.299937
0.46                   -0.467671        0.302081
0.461                  -0.467127        0.304224
0.462                  -0.466573        0.306367
0.463                  -0.466008        0.308508
0.464                  -0.465431        0.310649
0.465                  -0.464844        0.312789
0.466                  -0.464245        0.314928
0.467                  -0.463636        0.317066
0.468                  -0.463015        0.319203
0.469                  -0.462384        0.321338
0.47                   -0.461741        0.323473
0.471                  -0.461087        0.325606
0.472                  -0.460422        0.327737
0.473                  -0.459747        0.329868
0.474                   -0.45906        0.331996
0.475                  -0.458362        0.334123
0.476                  -0.457654        0.336249
0.477                  -0.456934        0.338373
0.478                  -0.456204        0.340495
0.479                  -0.455462        0.342616
0.48                    -0.45471        0.344734
0.481                  -0.453947        0.346851
0.482                  -0.453173        0.348966
0.483                  -0.452388        0.351079
0.484                  -0.451592         0.35319
0.485                  -0.450785        0.355298
0.486                  -0.449968        0.357405
0.487                  -0.449139        0.359509
0.488                    -0.4483        0.361611
0.489                   -0.44745        0.363711
0.49                   -0.446589        0.365808
0.491                  -0.445718        0.367903
0.492                  -0.444835        0.369995
0.493                  -0.443942        0.372085
0.494                  -0.443039        0.374172
0.495                  -0.442124        0.376257
0.496                  -0.441199        0.378339
0.497                  -0.440263        0.380418
0.498                  -0.439316        0.382494
0.499                  -0.438359        0.384568
0.5                    -0.437391        0.386638
0.501                  -0.436413        0.388705
0.502                  -0.435424         0.39077
0.503                  -0.434424        0.392831
0.504                  -0.433414        0.394889
0.505                  -0.432393        0.396944
0.506                  -0.431362        0.398996
0.507                   -0.43032        0.401044
0.508                  -0.429268        0.403089
0.509                  -0.428205        0.405131
0.51                   -0.427132        0.407169
0.511                  -0.426048        0.409204
0.512                  -0.424954        0.411235
0.513                   -0.42385        0.413262
0.514                  -0.422735        0.415286
0.515                   -0.42161        0.417306
0.516                  -0.420475        0.419323
0.517                  -0.419329        0.421335
0.518                  -0.418173        0.423344
0.519                  -0.417006        0.425348
0.52                    -0.41583        0.427349
0.521                  -0.414643        0.429345
0.522                  -0.413446        0.431338
0.523                  -0.412239        0.433326
0.524                  -0.411021        0.435311
0.525                  -0.409794        0.437291
0.526                  -0.408556        0.439266
0.527                  -0.407309        0.441238
0.528                  -0.406051        0.443205
0.529                  -0.404783        0.445167
0.53                   -0.403505        0.447125
0.531                  -0.402218        0.449079
0.532                   -0.40092        0.451028
0.533                  -0.399612        0.452972
0.534                  -0.398294        0.454912
0.535                  -0.396967        0.456847
0.536                  -0.395629        0.458777
0.537                  -0.394282        0.460702
0.538                  -0.392925        0.462623
0.539                  -0.391558        0.464538
0.54                   -0.390181        0.466449
0.541                  -0.388795        0.468354
0.542                  -0.387399        0.470255
0.543                  -0.385993         0.47215
0.544                  -0.384578         0.47404
0.545                  -0.383153        0.475925
0.546                  -0.381718        0.477805
0.547                  -0.380273         0.47968
0.548                   -0.37882        0.481549
0.549                  -0.377356        0.483413
0.55                   -0.375883        0.485271
0.551                  -0.374401        0.487124
0.552                  -0.372909        0.488971
0.553                  -0.371407        0.490813
0.554                  -0.369897        0.492649
0.555                  -0.368377         0.49448
0.556                  -0.366847        0.496304
0.557                  -0.365309        0.498123
0.558                  -0.363761        0.499937
0.559                  -0.362203        0.501744
0.56                   -0.360637        0.503546
0.561                  -0.359061        0.505341
0.562                  -0.357476        0.507131
0.563                  -0.355882        0.508915
0.564                  -0.354279        0.510692
0.565                  -0.352667        0.512464
0.566                  -0.351046        0.514229
0.567                  -0.349416        0.515988
0.568                  -0.347777        0.517741
0.569                  -0.346128        0.519488
0.57                   -0.344471        0.521228
0.571                  -0.342805        0.522962
0.572                  -0.341131         0.52469
0.573                  -0.339447        0.526411
0.574                  -0.337755        0.528125
0.575                  -0.336053        0.529834
0.576                  -0.334343        0.531535
0.577                  -0.332625         0.53323
0.578                  -0.330898        0.534919
0.579                  -0.329162          0.5366
0.58                   -0.327417        0.538275
0.581                  -0.325664        0.539943
0.582                  -0.323902        0.541605
0.583                  -0.322132        0.543259
0.584                  -0.320354        0.544907
0.585                  -0.318566        0.546548
0.586                  -0.316771        0.548181
0.587                  -0.314967        0.549808
0.588                  -0.313155        0.551428
0.589                  -0.311335        0.553041
0.59                   -0.309506        0.554646
0.591                  -0.307669        0.556244
0.592                  -0.305824        0.557836
0.593                   -0.30397        0.559419
0.594                  -0.302109        0.560996
0.595                  -0.300239        0.562565
0.596                  -0.298362        0.564127
0.597                  -0.296476        0.565682
0.598                  -0.294582        0.567229
0.599                  -0.292681        0.568769
0.6                    -0.290771        0.570301
0.601                  -0.288854        0.571826
0.602                  -0.286928        0.573343
0.603                  -0.284995        0.574853
0.604                  -0.283055        0.576354
0.605                  -0.281106        0.577849
0.606                   -0.27915        0.579335
0.607                  -0.277186        0.580814
0.608                  -0.275214        0.582285
0.609                  -0.273235        0.583748
0.61                   -0.271248        0.585203
0.611                  -0.269254        0.586651
0.612                  -0.267252         0.58809
0.613                  -0.265243        0.589521
0.614                  -0.263226        0.590945
0.615                  -0.261202         0.59236
0.616                  -0.259171        0.593768
0.617                  -0.257132        0.595167
0.618                  -0.255086        0.596558
0.619                  -0.253033        0.597941
0.62                   -0.250972        0.599316
0.621                  -0.248905        0.600683
0.622                   -0.24683        0.602041
0.623                  -0.244749        0.603391
0.624                   -0.24266        0.604733
0.625                  -0.240564        0.606066
0.626                  -0.238462        0.607391
0.627                  -0.236352        0.608708
0.628                  -0.234236        0.610016
0.629                  -0.232112        0.611315
0.63                   -0.229982        0.612606
0.631                  -0.227845        0.613889
0.632                  -0.225702        0.615163
0.633                  -0.223552        0.616428
0.634                  -0.221395        0.617685
0.635                  -0.219231        0.618933
0.636                  -0.217061        0.620172
0.637                  -0.214885        0.621403
0.638                  -0.212701        0.622625
0.639                  -0.210512        0.623838
0.64                   -0.208316        0.625042
0.641                  -0.206114        0.626237
0.642                  -0.203905        0.627424
0.643                   -0.20169        0.628601
0.644                  -0.199469         0.62977
0.645                  -0.197242         0.63093
0.646                  -0.195008         0.63208
0.647                  -0.192769        0.633222
0.648                  -0.190523        0.634355
0.649                  -0.188271        0.635478
0.65                   -0.186014        0.636593
0.651                   -0.18375        0.637698
0.652                   -0.18148        0.638794
0.653                  -0.179205        0.639881
0.654                  -0.176924        0.640958
0.655                  -0.174637        0.642027
0.656                  -0.172344        0.643086
0.657                  -0.170045        0.644136
0.658                  -0.167741        0.645177
0.659                  -0.165432        0.646208
0.66                   -0.163116         0.64723
0.661                  -0.160795        0.648242
0.662                  -0.158469        0.649245
0.663                  -0.156137        0.650239
0.664                    -0.1538        0.651223
0.665                  -0.151457        0.652198
0.666                  -0.149109        0.653163
0.667                  -0.146756        0.654118
0.668                  -0.144398        0.655064
0.669                  -0.142034        0.656001
0.67                   -0.139666        0.656928
0.671                  -0.137292        0.657845
0.672                  -0.134913        0.658752
0.673                  -0.132529         0.65965
0.674                   -0.13014        0.660538
0.675                  -0.127746        0.661417
0.676                  -0.125348        0.662285
0.677                  -0.122944        0.663144
0.678                  -0.120536        0.663993
0.679                  -0.118123        0.664832
0.68                   -0.115705        0.665662
0.681                  -0.113283        0.666481
0.682                  -0.110855        0.667291
0.683                  -0.108424         0.66809
0.684                  -0.105988         0.66888
0.685                  -0.103547         0.66966
0.686                  -0.101102         0.67043
0.687                 -0.0986524         0.67119
0.688                 -0.0961984        0.671939
0.689                 -0.0937403        0.672679
0.69                   -0.091278        0.673409
0.691                 -0.0888113        0.674129
0.692                 -0.0863405        0.674838
0.693                 -0.0838655        0.675538
0.694                 -0.0813865        0.676227
0.695                 -0.0789035        0.676906
0.696                 -0.0764165        0.677575
0.697                 -0.0739254        0.678234
0.698                 -0.0714305        0.678883
0.699                 -0.0689318        0.679521
0.7                   -0.0664294         0.68015
0.701                 -0.0639228        0.680768
0.702                 -0.0614129        0.681375
0.703                 -0.0588991        0.681973
0.704                 -0.0563819         0.68256
0.705                 -0.0538609        0.683137
0.706                 -0.0513365        0.683703
0.707                 -0.0488086        0.684259
0.708                 -0.0462773        0.684805
0.709                 -0.0437425         0.68534
0.71                  -0.0412042        0.685865
0.711                  -0.038663         0.68638
0.712                 -0.0361183        0.686884
0.713                 -0.0335704        0.687377
0.714                 -0.0310194        0.687861
0.715                 -0.0284652        0.688333
0.716                 -0.0259081        0.688795
0.717                 -0.0233477        0.689247
0.718                 -0.0207846        0.689688
0.719                 -0.0182185        0.690119
0.72                  -0.0156493        0.690539
0.721                 -0.0130776        0.690948
0.722                 -0.0105027        0.691348
0.723                -0.00792542        0.691736
0.724                -0.00534533        0.692114
0.725                -0.00276241        0.692481
0.726               -0.000177381        0.692837
0.727                 0.00241038        0.693183
0.728                 0.00500083        0.693518
0.729                  0.0075939        0.693843
0.73                   0.0101892        0.694157
0.731                  0.0127868         0.69446
0.732                  0.0153865        0.694753
0.733                  0.0179889        0.695035
0.734                  0.0205935        0.695306
0.735                  0.0231997        0.695566
0.736                  0.0258085        0.695816
0.737                  0.0284196        0.696055
0.738                  0.0310323        0.696283
0.739                  0.0336467          0.6965
0.74                   0.0362637        0.696707
0.741                  0.0388823        0.696903
0.742                  0.0415029        0.697088
0.743                  0.0441249        0.697262
0.744                  0.0467491        0.697426
0.745                  0.0493748        0.697578
0.746                  0.0520021         0.69772
0.747                  0.0546311        0.697851
0.748                  0.0572615        0.697971
0.749                  0.0598932        0.698081
0.75                   0.0625269        0.698179
0.751                  0.0651619        0.698267
0.752                   0.067798        0.698343
0.753                  0.0704353        0.698409
0.754                  0.0730744        0.698464
0.755                  0.0757142        0.698508
0.756                  0.0783553        0.698542
0.757                  0.0809974        0.698564
0.758                  0.0836407        0.698575
0.759                  0.0862852        0.698576
0.76                   0.0889306        0.698565
0.761                   0.091577        0.698544
0.762                  0.0942238        0.698512
0.763                   0.096872        0.698468
0.764                  0.0995208        0.698414
0.765                    0.10217        0.698349
0.766                    0.10482        0.698273
0.767                   0.107471        0.698186
0.768                   0.110122        0.698089
0.769                   0.112774         0.69798
0.77                    0.115427         0.69786
0.771                    0.11808        0.697729
0.772                   0.120733        0.697588
0.773                   0.123386        0.697435
0.774                    0.12604        0.697272
0.775                   0.128694        0.697097
0.776                   0.131349        0.696912
0.777                   0.134003        0.696715
0.778                   0.136657        0.696508
0.779                   0.139312        0.696289
0.78                    0.141967         0.69606
0.781                   0.144621         0.69582
0.782                   0.147276        0.695569
0.783                    0.14993        0.695306
0.784                   0.152584        0.695033
0.785                   0.155238        0.694749
0.786                   0.157892        0.694454
0.787                   0.160545        0.694148
0.788                   0.163198        0.693831
0.789                   0.165851        0.693503
0.79                    0.168502        0.693164
0.791                   0.171154        0.692814
0.792                   0.173805        0.692454
0.793                   0.176455        0.692082
0.794                   0.179105        0.691699
0.795                   0.181754        0.691305
0.796                   0.184402        0.690901
0.797                   0.187049        0.690485
0.798                   0.189695        0.690059
0.799                   0.192341        0.689622
0.8                     0.194985        0.689173
0.801                   0.197629        0.688714
0.802                   0.200272        0.688244
0.803                   0.202913        0.687763
0.804                   0.205553        0.687271
0.805                   0.208192        0.686768
0.806                    0.21083        0.686255
0.807                   0.213466         0.68573
0.808                   0.216102        0.685195
0.809                   0.218735        0.684648
0.81                    0.221368        0.684091
0.811                   0.223999        0.683523
0.812                   0.226628        0.682944
0.813                   0.229255        0.682354
0.814                   0.231882        0.681754
0.815                   0.234506        0.681142
0.816                   0.237128         0.68052
0.817                    0.23975        0.679887
0.818                   0.242369        0.679243
0.819                   0.244986        0.678588
0.82                    0.247601        0.677923
0.821                   0.250214        0.677247
0.822                   0.252826         0.67656
0.823                   0.255435        0.675862
0.824                   0.258042        0.675153
0.825                   0.260647        0.674434
0.826                    0.26325        0.673704
0.827                   0.265851        0.672963
0.828                   0.268449        0.672212
0.829                   0.271045        0.671449
0.83                    0.273639        0.670677
0.831                    0.27623        0.669893
0.832                   0.278819        0.669099
0.833                   0.281405        0.668294
0.834                   0.283988        0.667478
0.835                   0.286569        0.666652
0.836                   0.289148        0.665815
0.837                   0.291723        0.664968
0.838                   0.294296         0.66411
0.839                   0.296866        0.663241
0.84                    0.299434        0.662362
0.841                   0.301998        0.661472
0.842                   0.304559        0.660572
0.843                   0.307118        0.659661
0.844                   0.309673         0.65874
0.845                   0.312225        0.657808
0.846                   0.314775        0.656866
0.847                   0.317321        0.655913
0.848                   0.319863        0.654949
0.849                   0.322403        0.653976
0.85                    0.324939        0.652992
0.851                   0.327472        0.651997
0.852                   0.330002        0.650992
0.853                   0.332528        0.649977
0.854                    0.33505        0.648951
0.855                    0.33757        0.647915
0.856                   0.340085        0.646868
0.857                   0.342597        0.645811
0.858                   0.345105        0.644744
0.859                    0.34761        0.643667
0.86                    0.350111        0.642579
0.861                   0.352608        0.641481
0.862                   0.355101        0.640373
0.863                    0.35759        0.639255
0.864                   0.360076        0.638126
0.865                   0.362557        0.636988
0.866                   0.365035        0.635839
0.867                   0.367508         0.63468
0.868                   0.369977         0.63351
0.869                   0.372442        0.632331
0.87                    0.374903        0.631142
0.871                    0.37736        0.629942
0.872                   0.379812        0.628733
0.873                   0.382261        0.627513
0.874                   0.384705        0.626283
0.875                   0.387144        0.625044
0.876                   0.389579        0.623794
0.877                   0.392009        0.622535
0.878                   0.394435        0.621265
0.879                   0.396857        0.619986
0.88                    0.399273        0.618697
0.881                   0.401686        0.617398
0.882                   0.404093        0.616089
0.883                   0.406496         0.61477
0.884                   0.408894        0.613441
0.885                   0.411287        0.612103
0.886                   0.413675        0.610755
0.887                   0.416059        0.609397
0.888                   0.418437         0.60803
0.889                   0.420811        0.606652
0.89                    0.423179        0.605265
0.891                   0.425542        0.603869
0.892                   0.427901        0.602463
0.893                   0.430254        0.601047
0.894                   0.432602        0.599621
0.895                   0.434945        0.598186
0.896                   0.437282        0.596742
0.897                   0.439614        0.595288
0.898                   0.441941        0.593824
0.899                   0.444263        0.592351
0.9                     0.446579        0.590869
0.901                   0.448889        0.589377
0.902                   0.451194        0.587876
0.903                   0.453494        0.586366
0.904                   0.455788        0.584846
0.905                   0.458076        0.583316
0.906                   0.460359        0.581778
0.907                   0.462636         0.58023
0.908                   0.464907        0.578673
0.909                   0.467173        0.577107
0.91                    0.469433        0.575532
0.911                   0.471686        0.573947
0.912                   0.473934        0.572354
0.913                   0.476177        0.570751
0.914                   0.478413        0.569139
0.915                   0.480643        0.567518
0.916                   0.482867        0.565888
0.917                   0.485085         0.56425
0.918                   0.487297        0.562602
0.919                   0.489503        0.560945
0.92                    0.491702        0.559279
0.921                   0.493896        0.557605
0.922                   0.496083        0.555921
0.923                   0.498264        0.554229
0.924                   0.500438        0.552528
0.925                   0.502607        0.550818
0.926                   0.504768          0.5491
0.927                   0.506924        0.547372
0.928                   0.509073        0.545637
0.929                   0.511215        0.543892
0.93                    0.513351        0.542139
0.931                    0.51548        0.540377
0.932                   0.517603        0.538606
0.933                   0.519719        0.536828
0.934                   0.521828         0.53504
0.935                   0.523931        0.533244
0.936                   0.526027         0.53144
0.937                   0.528116        0.529627
0.938                   0.530198        0.527806
0.939                   0.532274        0.525976
0.94                    0.534343        0.524138
0.941                   0.536404        0.522292
0.942                   0.538459        0.520438
0.943                   0.540507        0.518575
0.944                   0.542548        0.516704
0.945                   0.544582        0.514825
0.946                   0.546608        0.512938
0.947                   0.548628        0.511043
0.948                   0.550641        0.509139
0.949                   0.552646        0.507228
0.95                    0.554644        0.505309
0.951                   0.556635        0.503381
0.952                   0.558618        0.501446
0.953                   0.560595        0.499502
0.954                   0.562564        0.497551
0.955                   0.564525        0.495592
0.956                    0.56648        0.493625
0.957                   0.568427        0.491651
0.958                   0.570366        0.489668
0.959                   0.572298        0.487678
0.96                    0.574222         0.48568
0.961                   0.576139        0.483675
0.962                   0.578049        0.481662
0.963                    0.57995        0.479641
0.964                   0.581844        0.477613
0.965                   0.583731        0.475577
0.966                    0.58561        0.473533
0.967                   0.587481        0.471483
0.968                   0.589344        0.469425
0.969                     0.5912        0.467359
0.97                    0.593047        0.465286
0.971                   0.594887        0.463206
0.972                   0.596719        0.461118
0.973                   0.598544        0.459023
0.974                    0.60036        0.456921
0.975                   0.602168        0.454812
0.976                   0.603969        0.452696
0.977                   0.605761        0.450572
0.978                   0.607545        0.448441
0.979                   0.609322        0.446304
0.98                     0.61109        0.444159
0.981                    0.61285        0.442007
0.982                   0.614602        0.439849
0.983                   0.616346        0.437683
0.984                   0.618082        0.435511
0.985                    0.61981        0.433332
0.986                   0.621529        0.431145
0.987                    0.62324        0.428953
0.988                   0.624943        0.426753
0.989                   0.626637        0.424547
0.99                    0.628323        0.422334
0.991                   0.630001        0.420114
0.992                   0.631671        0.417888
0.993                   0.633332        0.415655
0.994                   0.634984        0.413416
0.995                   0.636629         0.41117
0.996                   0.638264        0.408918
0.997                   0.639891        0.406659
0.998                    0.64151        0.404394
0.999                    0.64312        0.402123
1                       0.644722        0.399845
1.001                   0.646315        0.397561
1.002                   0.647899        0.395271
1.003                   0.649475        0.392975
1.004                   0.651042        0.390672
1.005                   0.652601        0.388364
1.006                    0.65415        0.386049
1.007                   0.655691        0.383728
1.008                   0.657223        0.381401
1.009                   0.658747        0.379068
1.01                    0.660262        0.376729
1.011                   0.661768        0.374385
1.012                   0.663265        0.372034
1.013                   0.664753        0.369678
1.014                   0.666232        0.367316
1.015                   0.667703        0.364948
1.016                   0.669164        0.362574
1.017                   0.670617        0.360195
1.018                    0.67206         0.35781
1.019                   0.673495        0.355419
1.02                    0.674921        0.353023
1.021                   0.676338        0.350621
1.022                   0.677745        0.348214
1.023                   0.679144        0.345801
1.024                   0.680533        0.343383
1.025                   0.681914        0.340959
1.026                   0.683285        0.338531
1.027                   0.684648        0.336096
1.028                   0.686001        0.333657
1.029                   0.687344        0.331212
1.03                    0.688679        0.328762
1.031                   0.690005        0.326307
1.032                   0.691321        0.323847
1.033                   0.692628        0.321382
1.034                   0.693926        0.318911
1.035                   0.695215        0.316436
1.036                   0.696494        0.313956
1.037                   0.697764         0.31147
1.038                   0.699025         0.30898
1.039                   0.700276        0.306485
1.04                    0.701518        0.303985
1.041                   0.702751        0.301481
1.042                   0.703974        0.298971
1.043                   0.705188        0.296457
1.044                   0.706392        0.293939
1.045                   0.707587        0.291415
1.046                   0.708773        0.288887
1.047                   0.709949        0.286354
1.048                   0.711116        0.283817
1.049                   0.712273        0.281276
1.05                    0.713421         0.27873
1.051                   0.714559        0.276179
1.052                   0.715687        0.273625
1.053                   0.716806        0.271066
1.054                   0.717916        0.268502
1.055                   0.719016        0.265935
1.056                   0.720106        0.263363
1.057                   0.721187        0.260787
1.058                   0.722258        0.258206
1.059                    0.72332        0.255622
1.06                    0.724371        0.253034
1.061                   0.725414        0.250441
1.062                   0.726446        0.247845
1.063                   0.727469        0.245245
1.064                   0.728482        0.242641
1.065                   0.729486        0.240032
1.066                   0.730479        0.237421
1.067                   0.731463        0.234805
1.068                   0.732437        0.232185
1.069                   0.733402        0.229562
1.07                    0.734357        0.226935
1.071                   0.735302        0.224305
1.072                   0.736237        0.221671
1.073                   0.737162        0.219033
1.074                   0.738078        0.216392
1.075                   0.738983        0.213747
1.076                   0.739879        0.211099
1.077                   0.740765        0.208448
1.078                   0.741642        0.205793
1.079                   0.742508        0.203135
1.08                    0.743364        0.200473
1.081                   0.744211        0.197808
1.082                   0.745048         0.19514
1.083                   0.745874        0.192469
1.084                   0.746691        0.189795
1.085                   0.747498        0.187118
1.086                   0.748295        0.184437
1.087                   0.749082        0.181754
1.088                   0.749859        0.179067
1.089                   0.750626        0.176378
1.09                    0.751384        0.173686
1.091                   0.752131         0.17099
1.092                   0.752868        0.168292
1.093                   0.753595        0.165592
1.094                   0.754313        0.162888
1.095                    0.75502        0.160182
1.096                   0.755717        0.157473
1.097                   0.756404        0.154762
1.098                   0.757081        0.152047
1.099                   0.757748        0.149331
1.1                     0.758405        0.146611
1.101                   0.759052         0.14389
1.102                   0.759689        0.141166
1.103                   0.760316        0.138439
1.104                   0.760933         0.13571
1.105                    0.76154        0.132979
1.106                   0.762136        0.130245
1.107                   0.762723         0.12751
1.108                   0.763299        0.124772
1.109                   0.763866        0.122031
1.11                    0.764422        0.119289
1.111                   0.764968        0.116545
1.112                   0.765504        0.113798
1.113                    0.76603         0.11105
1.114                   0.766546        0.108299
1.115                   0.767051        0.105547
1.116                   0.767547        0.102793
1.117                   0.768032        0.100037
1.118                   0.768507       0.0972786
1.119                   0.768972       0.0945188
1.12                    0.769427       0.0917573
1.121                   0.769872        0.088994
1.122                   0.770306       0.0862292
1.123                    0.77073       0.0834626
1.124                   0.771145       0.0806945
1.125                   0.771549       0.0779248
1.126                   0.771942       0.0751537
1.127                   0.772326        0.072381
1.128                   0.772699       0.0696069
1.129                   0.773062       0.0668314
1.13                    0.773415       0.0640545
1.131                   0.773758       0.0612763
1.132                   0.774091       0.0584968
1.133                   0.774413       0.0557161
1.134                   0.774725       0.0529341
1.135                   0.775027        0.050151
1.136                   0.775319       0.0473668
1.137                   0.775601       0.0445814
1.138                   0.775872        0.041795
1.139                   0.776133       0.0390076
1.14                    0.776384       0.0362192
1.141                   0.776625       0.0334299
1.142                   0.776855       0.0306396
1.143                   0.777075       0.0278485
1.144                   0.777285       0.0250566
1.145                   0.777485       0.0222639
1.146                   0.777674       0.0194704
1.147                   0.777853       0.0166762
1.148                   0.778023       0.0138814
1.149                   0.778181       0.0110859
1.15                     0.77833      0.00828982
1.151                   0.778468      0.00549318
1.152                   0.778596      0.00269602
1.153                   0.778714    -0.000101625
1.154                   0.778822     -0.00289971
1.155                   0.778919      -0.0056982
1.156                   0.779006     -0.00849706
1.157                   0.779083      -0.0112963
1.158                    0.77915      -0.0140957
1.159                   0.779206      -0.0168955
1.16                    0.779253      -0.0196954
1.161                   0.779288      -0.0224955
1.162                   0.779314      -0.0252958
1.163                    0.77933      -0.0280962
1.164                   0.779335      -0.0308966
1.165                    0.77933       -0.033697
1.166                   0.779315      -0.0364975
1.167                    0.77929      -0.0392979
1.168                   0.779254      -0.0420982
1.169                   0.779208      -0.0448983
1.17                    0.779152      -0.0476983
1.171                   0.779086      -0.0504981
1.172                   0.779009      -0.0532977
1.173                   0.778923       -0.056097
1.174                   0.778826       -0.058896
1.175                   0.778719      -0.0616946
1.176                   0.778602      -0.0644928
1.177                   0.778474      -0.0672906
1.178                   0.778336      -0.0700879
1.179                   0.778189      -0.0728847
1.18                    0.778031       -0.075681
1.181                   0.777862      -0.0784767
1.182                   0.777684      -0.0812717
1.183                   0.777495      -0.0840661
1.184                   0.777297      -0.0868599
1.185                   0.777088      -0.0896528
1.186                   0.776869      -0.0924451
1.187                   0.776639      -0.0952365
1.188                     0.7764       -0.098027
1.189                    0.77615       -0.100817
1.19                    0.775891       -0.103605
1.191                   0.775621       -0.106393
1.192                   0.775341        -0.10918
1.193                   0.775051       -0.111966
1.194                    0.77475       -0.114751
1.195                    0.77444       -0.117534
1.196                    0.77412       -0.120317
1.197                   0.773789       -0.123098
1.198                   0.773448       -0.125878
1.199                   0.773097       -0.128657
1.2                     0.772737       -0.131434
1.201                   0.772366        -0.13421
1.202                   0.771984       -0.136985
1.203                   0.771593       -0.139759
1.204                   0.771192        -0.14253
1.205                   0.770781       -0.145301
1.206                    0.77036        -0.14807
1.207                   0.769928       -0.150837
1.208                   0.769487       -0.153603
1.209                   0.769035       -0.156367
1.21                    0.768574        -0.15913
1.211                   0.768102       -0.161891
1.212                   0.767621        -0.16465
1.213                   0.767129       -0.167407
1.214                   0.766628       -0.170162
1.215                   0.766116       -0.172916
1.216                   0.765595       -0.175668
1.217                   0.765063       -0.178417
1.218                   0.764522       -0.181165
1.219                   0.763971       -0.183911
1.22                    0.763409       -0.186655
1.221                   0.762838       -0.189397
1.222                   0.762257       -0.192136
1.223                   0.761666       -0.194874
1.224                   0.761065       -0.197609
1.225                   0.760454       -0.200342
1.226                   0.759833       -0.203073
1.227                   0.759202       -0.205801
1.228                   0.758562       -0.208527
1.229                   0.757911       -0.211251
1.23                    0.757251       -0.213973
1.231                   0.756581       -0.216692
1.232                   0.755901       -0.219408
1.233                   0.755211       -0.222122
1.234                   0.754512       -0.224833
1.235                   0.753802       -0.227542
1.236                   0.753083       -0.230248
1.237                   0.752354       -0.232952
1.238                   0.751616       -0.235653
1.239                   0.750867       -0.238351
1.24                    0.750109       -0.241046
1.241                   0.749341       -0.243739
1.242                   0.748563       -0.246429
1.243                   0.747776       -0.249115
1.244                   0.746979       -0.251799
1.245                   0.746172        -0.25448
1.246                   0.745356       -0.257158
1.247                   0.744529       -0.259833
1.248                   0.743694       -0.262505
1.249                   0.742848       -0.265174
1.25                    0.741993        -0.26784
1.251                   0.741129       -0.270502
1.252                   0.740254       -0.273162
1.253                   0.739371       -0.275818
1.254                   0.738477       -0.278471
1.255                   0.737574        -0.28112
1.256                   0.736662       -0.283766
1.257                    0.73574       -0.286409
1.258                   0.734808       -0.289048
1.259                   0.733867       -0.291685
1.26                    0.732916       -0.294317
1.261                   0.731956       -0.296946
1.262                   0.730987       -0.299571
1.263                   0.730008       -0.302193
1.264                    0.72902       -0.304812
1.265                   0.728022       -0.307426
1.266                   0.727015       -0.310037
1.267                   0.725998       -0.312644
1.268                   0.724972       -0.315247
1.269                   0.723937       -0.317847
1.27                    0.722892       -0.320443
1.271                   0.721838       -0.323034
1.272                   0.720775       -0.325623
1.273                   0.719702       -0.328206
1.274                    0.71862       -0.330787
1.275                   0.717529       -0.333363
1.276                   0.716429       -0.335935
1.277                   0.715319       -0.338502
1.278                     0.7142       -0.341066
1.279                   0.713072       -0.343626
1.28                    0.711935       -0.346181
1.281                   0.710789       -0.348732
1.282                   0.709633        -0.35128
1.283                   0.708468       -0.353822
1.284                   0.707295       -0.356361
1.285                   0.706112       -0.358895
1.286                    0.70492       -0.361425
1.287                   0.703719        -0.36395
1.288                   0.702509       -0.366471
1.289                    0.70129       -0.368987
1.29                    0.700061       -0.371499
1.291                   0.698824       -0.374006
1.292                   0.697578       -0.376509
1.293                   0.696323       -0.379007
1.294                   0.695059       -0.381501
1.295                   0.693786       -0.383989
1.296                   0.692505       -0.386473
1.297                   0.691214       -0.388953
1.298                   0.689915       -0.391427
1.299                   0.688606       -0.393897
1.3                     0.687289       -0.396362
1.301                   0.685963       -0.398822
1.302                   0.684628       -0.401277
1.303                   0.683285       -0.403727
1.304                   0.681933       -0.406172
1.305                   0.680572       -0.408612
1.306                   0.679202       -0.411047
1.307                   0.677824       -0.413477
1.308                   0.676437       -0.415902
1.309                   0.675041       -0.418322
1.31                    0.673637       -0.420737
1.311                   0.672224       -0.423146
1.312                   0.670803        -0.42555
1.313                   0.669373       -0.427949
1.314                   0.667934       -0.430343
1.315                   0.666487       -0.432731
1.316                   0.665032       -0.435114
1.317                   0.663568       -0.437491
1.318                   0.662096       -0.439863
1.319                   0.660615        -0.44223
1.32                    0.659125       -0.444591
1.321                   0.657628       -0.446947
1.322                   0.656122       -0.449297
1.323                   0.654608       -0.451641
1.324                   0.653085        -0.45398
1.325                   0.651554       -0.456313
1.326                   0.650015       -0.458641
1.327                   0.648468       -0.460963
1.328                   0.646912       -0.463279
1.329                   0.645348       -0.465589
1.33                    0.643776       -0.467894
1.331                   0.642196       -0.470193
1.332                   0.640608       -0.472485
1.333                   0.639012       -0.474772
1.334                   0.637407       -0.477054
1.335                   0.635795       -0.479329
1.336                   0.634174       -0.481598
1.337                   0.632546       -0.483861
1.338                   0.630909       -0.486118
1.339                   0.629265       -0.488369
1.34                    0.627612       -0.490614
1.341                   0.625952       -0.492853
1.342                   0.624284       -0.495086
1.343                   0.622608       -0.497312
1.344                   0.620924       -0.499533
1.345                   0.619232       -0.501747
1.346                   0.617533       -0.503955
1.347                   0.615826       -0.506156
1.348                   0.614111       -0.508352
1.349                   0.612388        -0.51054
1.35                    0.610658       -0.512723
1.351                    0.60892       -0.514899
1.352                   0.607175       -0.517069
1.353                   0.605422       -0.519232
1.354                   0.603661       -0.521389
1.355                   0.601893       -0.523539
1.356                   0.600117       -0.525683
1.357                   0.598334        -0.52782
1.358                   0.596543        -0.52995
1.359                   0.594745       -0.532074
1.36                    0.592939       -0.534191
1.361                   0.591126       -0.536302
1.362                   0.589306       -0.538406
1.363                   0.587478       -0.540503
1.364                   0.585643       -0.542593
1.365                   0.583801       -0.544677
1.366                   0.581952       -0.546754
1.367                   0.580095       -0.548824
1.368                   0.578231       -0.550887
1.369                    0.57636       -0.552943
1.37                    0.574482       -0.554992
1.371                   0.572597       -0.557035
1.372                   0.570704        -0.55907
1.373                   0.568805       -0.561099
1.374                   0.566899        -0.56312
1.375                   0.564985       -0.565134
1.376                   0.563065       -0.567142
1.377                   0.561138       -0.569142
1.378                   0.559204       -0.571135
1.379                   0.557262       -0.573121
1.38                    0.555315         -0.5751
1.381                    0.55336       -0.577072
1.382                   0.551398       -0.579036
1.383                    0.54943       -0.580993
1.384                   0.547455       -0.582943
1.385                   0.545473       -0.584886
1.386                   0.543485       -0.586821
1.387                    0.54149       -0.588749
1.388                   0.539488        -0.59067
1.389                    0.53748       -0.592584
1.39                    0.535466       -0.594489
1.391                   0.533444       -0.596388
1.392                   0.531417       -0.598279
1.393                   0.529382       -0.600163
1.394                   0.527342       -0.602039
1.395                   0.525295       -0.603908
1.396                   0.523242       -0.605769
1.397                   0.521182       -0.607622
1.398                   0.519116       -0.609468
1.399                   0.517044       -0.611307
1.4                     0.514965       -0.613137
1.401                    0.51288       -0.614961
1.402                   0.510789       -0.616776
1.403                   0.508692       -0.618584
1.404                   0.506589       -0.620384
1.405                    0.50448       -0.622177
1.406                   0.502365       -0.623961
1.407                   0.500243       -0.625738
1.408                   0.498116       -0.627507
1.409                   0.495983       -0.629269
1.41                    0.493843       -0.631022
1.411                   0.491698       -0.632768
1.412                   0.489547       -0.634506
1.413                   0.487391       -0.636236
1.414                   0.485228       -0.637958
1.415                    0.48306       -0.639672
1.416                   0.480885       -0.641378
1.417                   0.478706       -0.643076
1.418                    0.47652       -0.644767
1.419                   0.474329       -0.646449
1.42                    0.472132       -0.648123
1.421                    0.46993        -0.64979
1.422                   0.467722       -0.651448
1.423                   0.465509       -0.653098
1.424                    0.46329        -0.65474
1.425                   0.461066       -0.656374
1.426                   0.458836          -0.658
1.427                   0.456601       -0.659618
1.428                   0.454361       -0.661227
1.429                   0.452115       -0.662829
1.43                    0.449864       -0.664422
1.431                   0.447608       -0.666007
1.432                   0.445346       -0.667584
1.433                    0.44308       -0.669153
1.434                   0.440808       -0.670713
1.435                   0.438531       -0.672265
1.436                   0.436249       -0.673809
1.437                   0.433962       -0.675344
1.438                    0.43167       -0.676872
1.439                   0.429373       -0.678391
1.44                    0.427071       -0.679901
1.441                   0.424764       -0.681403
1.442                   0.422453       -0.682897
1.443                   0.420136       -0.684383
1.444                   0.417815        -0.68586
1.445                   0.415488       -0.687328
1.446                   0.413157       -0.688788
1.447                   0.410822        -0.69024
1.448                   0.408481       -0.691684
1.449                   0.406136       -0.693118
1.45                    0.403787       -0.694545
1.451                   0.401433       -0.695963
1.452                   0.399074       -0.697372
1.453                   0.396711       -0.698773
1.454                   0.394343       -0.700165
1.455                   0.391971       -0.701549
1.456                   0.389594       -0.702924
1.457                   0.387214       -0.704291
1.458                   0.384828       -0.705649
1.459                   0.382439       -0.706998
1.46                    0.380045       -0.708339
1.461                   0.377647       -0.709671
1.462                   0.375245       -0.710995
1.463                   0.372838        -0.71231
1.464                   0.370428       -0.713616
1.465                   0.368013       -0.714914
1.466                   0.365594       -0.716202
1.467                   0.363171       -0.717483
1.468                   0.360745       -0.718754
1.469                   0.358314       -0.720017
1.47                    0.355879       -0.721271
1.471                   0.353441       -0.722517
1.472                   0.350998       -0.723753
1.473                   0.348552       -0.724981
1.474                   0.346102         -0.7262
1.475                   0.343648       -0.727411
1.476                   0.341191       -0.728612
1.477                   0.338729       -0.729805
1.478                   0.336264       -0.730989
1.479                   0.333796       -0.732164
1.48                    0.331324       -0.733331
1.481                   0.328848       -0.734488
1.482                   0.326369       -0.735637
1.483                   0.323886       -0.736777
1.484                     0.3214       -0.737908
1.485                   0.318911        -0.73903
1.486                   0.316418       -0.740144
1.487                   0.313921       -0.741248
1.488                   0.311422       -0.742344
1.489                   0.308919        -0.74343
1.49                    0.306413       -0.744508
1.491                   0.303903       -0.745577
1.492                   0.301391       -0.746637
1.493                   0.298875       -0.747688
1.494                   0.296356        -0.74873
1.495                   0.293834       -0.749764
1.496                    0.29131       -0.750788
1.497                   0.288782       -0.751803
1.498                   0.286251        -0.75281
1.499                   0.283717       -0.753807
1.5                      0.28118       -0.754796
1.501                    0.27864       -0.755775
1.502                   0.276098       -0.756746
1.503                   0.273553       -0.757708
1.504                   0.271005        -0.75866
1.505                   0.268454       -0.759604
1.506                     0.2659       -0.760539
1.507                   0.263344       -0.761464
1.508                   0.260785       -0.762381
1.509                   0.258224       -0.763289
1.51                     0.25566       -0.764187
1.511                   0.253093       -0.765077
1.512                   0.250524       -0.765958
1.513                   0.247953       -0.766829
1.514                   0.245379       -0.767692
1.515                   0.242803       -0.768546
1.516                   0.240224        -0.76939
1.517                   0.237643       -0.770226
1.518                   0.235059       -0.771052
1.519                   0.232474        -0.77187
1.52                    0.229886       -0.772678
1.521                   0.227296       -0.773477
1.522                   0.224704       -0.774268
1.523                   0.222109       -0.775049
1.524                   0.219513       -0.775821
1.525                   0.216914       -0.776584
1.526                   0.214314       -0.777339
1.527                   0.211711       -0.778084
1.528                   0.209106        -0.77882
1.529                     0.2065       -0.779547
1.53                    0.203892       -0.780264
1.531                   0.201281       -0.780973
1.532                   0.198669       -0.781673
1.533                   0.196055       -0.782364
1.534                    0.19344       -0.783045
1.535                   0.190822       -0.783718
1.536                   0.188203       -0.784381
1.537                   0.185582       -0.785036
1.538                    0.18296       -0.785681
1.539                   0.180336       -0.786317
1.54                     0.17771       -0.786945
1.541                   0.175083       -0.787563
1.542                   0.172454       -0.788172
1.543                   0.169824       -0.788772
1.544                   0.167192       -0.789363
1.545                   0.164559       -0.789945
1.546                   0.161925       -0.790517
1.547                   0.159289       -0.791081
1.548                   0.156652       -0.791636
1.549                   0.154013       -0.792181
1.55                    0.151374       -0.792718
1.551                   0.148733       -0.793245
1.552                   0.146091       -0.793763
1.553                   0.143448       -0.794273
1.554                   0.140803       -0.794773
1.555                   0.138158       -0.795264
1.556                   0.135511       -0.795746
1.557                   0.132864       -0.796219
1.558                   0.130215       -0.796683
1.559                   0.127565       -0.797138
1.56                    0.124915       -0.797584
1.561                   0.122264       -0.798021
1.562                   0.119611       -0.798449
1.563                   0.116958       -0.798868
1.564                   0.114304       -0.799277
1.565                    0.11165       -0.799678
1.566                   0.108994        -0.80007
1.567                   0.106338       -0.800452
1.568                   0.103681       -0.800826
1.569                   0.101024        -0.80119
1.57                   0.0983654       -0.801546
1.571                  0.0957068       -0.801892
1.572                  0.0930473        -0.80223
1.573                  0.0903875       -0.802558
1.574                  0.0877272       -0.802877
1.575                  0.0850662       -0.803188
1.576                  0.0824052       -0.803489
1.577                  0.0797434       -0.803782
1.578                  0.0770812       -0.804065
1.579                  0.0744188       -0.804339
1.58                   0.0717562       -0.804605
1.581                   0.069093       -0.804861
1.582                  0.0664298       -0.805109
1.583                  0.0637664       -0.805347
1.584                  0.0611026       -0.805576
1.585                  0.0584387       -0.805797
1.586                  0.0557745       -0.806008
1.587                  0.0531104       -0.806211
1.588                  0.0504461       -0.806405
1.589                  0.0477818       -0.806589
1.59                   0.0451175       -0.806765
1.591                  0.0424531       -0.806932
1.592                  0.0397889        -0.80709
1.593                  0.0371247       -0.807238
1.594                  0.0344606       -0.807378
1.595                  0.0317965       -0.807509
1.596                  0.0291328       -0.807632
1.597                   0.026469       -0.807745
1.598                  0.0238056       -0.807849
1.599                  0.0211425       -0.807944
1.6                    0.0184795       -0.808031
1.601                  0.0158169       -0.808109
1.602                  0.0131545       -0.808177
1.603                  0.0104925       -0.808237
1.604                  0.0078311       -0.808288
1.605                 0.00516988        -0.80833
1.606                 0.00250926       -0.808364
1.607               -0.000151117       -0.808388
1.608                -0.00281083       -0.808404
1.609                -0.00546985        -0.80841
1.61                 -0.00812854       -0.808408
1.611                 -0.0107869       -0.808397
1.612                 -0.0134442       -0.808377
1.613                  -0.016101       -0.808349
1.614                 -0.0187571       -0.808311
1.615                 -0.0214127       -0.808265
1.616                 -0.0240674        -0.80821
1.617                 -0.0267214       -0.808147
1.618                 -0.0293744       -0.808074
1.619                 -0.0320268       -0.807993
1.62                  -0.0346782       -0.807902
1.621                  -0.037329       -0.807804
1.622                 -0.0399787       -0.807696
1.623                 -0.0426277        -0.80758
1.624                 -0.0452755       -0.807455
1.625                 -0.0479226       -0.807321
1.626                 -0.0505685       -0.807178
1.627                 -0.0532132       -0.807027
1.628                 -0.0558572       -0.806867
1.629                 -0.0584999       -0.806698
1.63                  -0.0611415       -0.806521
1.631                 -0.0637818       -0.806335
1.632                 -0.0664212        -0.80614
1.633                 -0.0690595       -0.805937
1.634                 -0.0716962       -0.805725
1.635                 -0.0743319       -0.805504
1.636                 -0.0769663       -0.805275
1.637                 -0.0795994       -0.805037
1.638                  -0.082231        -0.80479
1.639                 -0.0848615       -0.804535
1.64                  -0.0874905       -0.804271
1.641                 -0.0901181       -0.803999
1.642                 -0.0927443       -0.803718
1.643                 -0.0953689       -0.803428
1.644                 -0.0979921        -0.80313
1.645                  -0.100614       -0.802823
1.646                  -0.103234       -0.802508
1.647                  -0.105852       -0.802184
1.648                   -0.10847       -0.801851
1.649                  -0.111085        -0.80151
1.65                   -0.113699       -0.801161
1.651                  -0.116311       -0.800803
1.652                  -0.118921       -0.800437
1.653                  -0.121529       -0.800062
1.654                  -0.124136       -0.799678
1.655                  -0.126741       -0.799286
1.656                  -0.129345       -0.798886
1.657                  -0.131946       -0.798477
1.658                  -0.134546       -0.798059
1.659                  -0.137143       -0.797634
1.66                   -0.139739       -0.797199
1.661                  -0.142333       -0.796757
1.662                  -0.144925       -0.796306
1.663                  -0.147515       -0.795846
1.664                  -0.150103       -0.795378
1.665                  -0.152689       -0.794902
1.666                  -0.155273       -0.794417
1.667                  -0.157854       -0.793924
1.668                  -0.160434       -0.793423
1.669                  -0.163011       -0.792913
1.67                   -0.165587       -0.792395
1.671                   -0.16816       -0.791869
1.672                  -0.170731       -0.791334
1.673                  -0.173299       -0.790791
1.674                  -0.175866        -0.79024
1.675                   -0.17843       -0.789681
1.676                  -0.180992       -0.789113
1.677                  -0.183551       -0.788537
1.678                  -0.186108       -0.787952
1.679                  -0.188663        -0.78736
1.68                   -0.191215       -0.786759
1.681                  -0.193765        -0.78615
1.682                  -0.196313       -0.785533
1.683                  -0.198857       -0.784907
1.684                    -0.2014       -0.784273
1.685                   -0.20394       -0.783632
1.686                  -0.206477       -0.782982
1.687                  -0.209012       -0.782323
1.688                  -0.211544       -0.781657
1.689                  -0.214073       -0.780983
1.69                     -0.2166         -0.7803
1.691                  -0.219124       -0.779609
1.692                  -0.221646       -0.778911
1.693                  -0.224164       -0.778204
1.694                   -0.22668       -0.777489
1.695                  -0.229193       -0.776766
1.696                  -0.231704       -0.776035
1.697                  -0.234211       -0.775295
1.698                  -0.236716       -0.774548
1.699                  -0.239218       -0.773793
1.7                    -0.241717        -0.77303
1.701                  -0.244212       -0.772259
1.702                  -0.246706       -0.771479
1.703                  -0.249196       -0.770692
1.704                  -0.251683       -0.769897
1.705                  -0.254167       -0.769094
1.706                  -0.256648       -0.768283
1.707                  -0.259125       -0.767464
1.708                  -0.261601       -0.766637
1.709                  -0.264072       -0.765802
1.71                   -0.266541       -0.764959
1.711                  -0.269006       -0.764109
1.712                  -0.271468        -0.76325
1.713                  -0.273927       -0.762384
1.714                  -0.276383        -0.76151
1.715                  -0.278836       -0.760627
1.716                  -0.281285       -0.759738
1.717                  -0.283731        -0.75884
1.718                  -0.286173       -0.757934
1.719                  -0.288612       -0.757021
1.72                   -0.291048         -0.7561
1.721                  -0.293481       -0.755171
1.722                   -0.29591       -0.754235
1.723                  -0.298336       -0.753291
1.724                  -0.300758       -0.752339
1.725                  -0.303176       -0.751379
1.726                  -0.305591       -0.750411
1.727                  -0.308003       -0.749436
1.728                  -0.310411       -0.748454
1.729                  -0.312815       -0.747463
1.73                   -0.315216       -0.746465
1.731                  -0.317613       -0.745459
1.732                  -0.320007       -0.744446
1.733                  -0.322397       -0.743425
1.734                  -0.324783       -0.742397
1.735                  -0.327165        -0.74136
1.736                  -0.329544       -0.740317
1.737                  -0.331919       -0.739266
1.738                   -0.33429       -0.738207
1.739                  -0.336657        -0.73714
1.74                   -0.339021       -0.736067
1.741                   -0.34138       -0.734985
1.742                  -0.343736       -0.733896
1.743                  -0.346088         -0.7328
1.744                  -0.348436       -0.731696
1.745                   -0.35078       -0.730585
1.746                   -0.35312       -0.729467
1.747                  -0.355456        -0.72834
1.748                  -0.357788       -0.727207
1.749                  -0.360116       -0.726066
1.75                   -0.362439       -0.724918
1.751                  -0.364759       -0.723762
1.752                  -0.367075         -0.7226
1.753                  -0.369387       -0.721429
1.754                  -0.371694       -0.720252
1.755                  -0.373997       -0.719067
1.756                  -0.376296       -0.717875
1.757                  -0.378591       -0.716675
1.758                  -0.380881       -0.715469
1.759                  -0.383168       -0.714255
1.76                    -0.38545       -0.713034
1.761                  -0.387727       -0.711805
1.762                      -0.39        -0.71057
1.763                   -0.39227       -0.709327
1.764                  -0.394534       -0.708077
1.765                  -0.396795        -0.70682
1.766                   -0.39905       -0.705556
1.767                  -0.401302       -0.704285
1.768                  -0.403549       -0.703006
1.769                  -0.405791       -0.701721
1.77                   -0.408029       -0.700428
1.771                  -0.410262       -0.699128
1.772                  -0.412491       -0.697822
1.773                  -0.414715       -0.696508
1.774                  -0.416935       -0.695187
1.775                   -0.41915       -0.693859
1.776                  -0.421361       -0.692525
1.777                  -0.423567       -0.691183
1.778                  -0.425768       -0.689834
1.779                  -0.427964       -0.688479
1.78                   -0.430156       -0.687116
1.781                  -0.432343       -0.685747
1.782                  -0.434525       -0.684371
1.783                  -0.436702       -0.682987
1.784                  -0.438875       -0.681598
1.785                  -0.441043       -0.680201
1.786                  -0.443206       -0.678797
1.787                  -0.445364       -0.677387
1.788                  -0.447517       -0.675969
1.789                  -0.449665       -0.674545
1.79                   -0.451808       -0.673115
1.791                  -0.453947       -0.671677
1.792                   -0.45608       -0.670233
1.793                  -0.458208       -0.668782
1.794                  -0.460332       -0.667324
1.795                   -0.46245        -0.66586
1.796                  -0.464564       -0.664389
1.797                  -0.466672       -0.662912
1.798                  -0.468775       -0.661427
1.799                  -0.470873       -0.659937
1.8                    -0.472966       -0.658439
1.801                  -0.475054       -0.656935
1.802                  -0.477136       -0.655425
1.803                  -0.479213       -0.653908
1.804                  -0.481286       -0.652385
1.805                  -0.483352       -0.650855
1.806                  -0.485414       -0.649318
1.807                   -0.48747       -0.647775
1.808                  -0.489522       -0.646226
1.809                  -0.491567        -0.64467
1.81                   -0.493608       -0.643108
1.811                  -0.495643       -0.641539
1.812                  -0.497672       -0.639965
1.813                  -0.499697       -0.638383
1.814                  -0.501715       -0.636796
1.815                  -0.503729       -0.635202
1.816                  -0.505737       -0.633602
1.817                  -0.507739       -0.631995
1.818                  -0.509736       -0.630383
1.819                  -0.511728       -0.628764
1.82                   -0.513714       -0.627139
1.821                  -0.515694       -0.625507
1.822                  -0.517669        -0.62387
1.823                  -0.519638       -0.622226
1.824                  -0.521602       -0.620576
1.825                  -0.523559       -0.618921
1.826                  -0.525512       -0.617259
1.827                  -0.527458       -0.615591
1.828                  -0.529399       -0.613916
1.829                  -0.531334       -0.612236
1.83                   -0.533264        -0.61055
1.831                  -0.535188       -0.608858
1.832                  -0.537106        -0.60716
1.833                  -0.539018       -0.605456
1.834                  -0.540924       -0.603746
1.835                  -0.542825        -0.60203
1.836                   -0.54472       -0.600308
1.837                  -0.546609        -0.59858
1.838                  -0.548492       -0.596846
1.839                  -0.550369       -0.595107
1.84                    -0.55224       -0.593362
1.841                  -0.554106       -0.591611
1.842                  -0.555965       -0.589854
1.843                  -0.557818       -0.588091
1.844                  -0.559666       -0.586323
1.845                  -0.561507       -0.584549
1.846                  -0.563343        -0.58277
1.847                  -0.565172       -0.580984
1.848                  -0.566995       -0.579193
1.849                  -0.568813       -0.577396
1.85                   -0.570624       -0.575594
1.851                  -0.572429       -0.573787
1.852                  -0.574228       -0.571973
1.853                  -0.576021       -0.570154
1.854                  -0.577807        -0.56833
1.855                  -0.579588         -0.5665
1.856                  -0.581362       -0.564664
1.857                   -0.58313       -0.562823
1.858                  -0.584892       -0.560977
1.859                  -0.586648       -0.559125
1.86                   -0.588397       -0.557268
1.861                   -0.59014       -0.555406
1.862                  -0.591877       -0.553538
1.863                  -0.593608       -0.551665
1.864                  -0.595332       -0.549786
1.865                   -0.59705       -0.547902
1.866                  -0.598761       -0.546013
1.867                  -0.600467       -0.544119
1.868                  -0.602165        -0.54222
1.869                  -0.603858       -0.540315
1.87                   -0.605544       -0.538405
1.871                  -0.607223        -0.53649
1.872                  -0.608896        -0.53457
1.873                  -0.610563       -0.532645
1.874                  -0.612223       -0.530714
1.875                  -0.613877       -0.528779
1.876                  -0.615524       -0.526839
1.877                  -0.617165       -0.524893
1.878                  -0.618799       -0.522943
1.879                  -0.620427       -0.520987
1.88                   -0.622048       -0.519027
1.881                  -0.623662       -0.517062
1.882                   -0.62527       -0.515092
1.883                  -0.626871       -0.513117
1.884                  -0.628466       -0.511137
1.885                  -0.630054       -0.509152
1.886                  -0.631635       -0.507163
1.887                   -0.63321       -0.505169
1.888                  -0.634778        -0.50317
1.889                  -0.636339       -0.501166
1.89                   -0.637894       -0.499158
1.891                  -0.639442       -0.497144
1.892                  -0.640983       -0.495127
1.893                  -0.642517       -0.493104
1.894                  -0.644045       -0.491077
1.895                  -0.645566       -0.489045
1.896                   -0.64708       -0.487009
1.897                  -0.648587       -0.484969
1.898                  -0.650088       -0.482923
1.899                  -0.651581       -0.480874
1.9                    -0.653068       -0.478819
1.901                  -0.654548        -0.47676
1.902                  -0.656021       -0.474697
1.903                  -0.657488        -0.47263
1.904                  -0.658947       -0.470558
1.905                    -0.6604       -0.468482
1.906                  -0.661845       -0.466401
1.907                  -0.663284       -0.464316
1.908                  -0.664716       -0.462227
1.909                   -0.66614       -0.460134
1.91                   -0.667558       -0.458036
1.911                  -0.668969       -0.455934
1.912                  -0.670373       -0.453828
1.913                   -0.67177       -0.451718
1.914                   -0.67316       -0.449603
1.915                  -0.674543       -0.447485
1.916                  -0.675919       -0.445362
1.917                  -0.677287       -0.443236
1.918                  -0.678649       -0.441105
1.919                  -0.680004        -0.43897
1.92                   -0.681351       -0.436832
1.921                  -0.682692       -0.434689
1.922                  -0.684026       -0.432542
1.923                  -0.685352       -0.430392
1.924                  -0.686671       -0.428238
1.925                  -0.687983       -0.426079
1.926                  -0.689288       -0.423917
1.927                  -0.690586       -0.421752
1.928                  -0.691877       -0.419582
1.929                  -0.693161       -0.417408
1.93                   -0.694437       -0.415231
1.931                  -0.695706        -0.41305
1.932                  -0.696968       -0.410866
1.933                  -0.698223       -0.408677
1.934                  -0.699471       -0.406485
1.935                  -0.700711        -0.40429
1.936                  -0.701944        -0.40209
1.937                   -0.70317       -0.399888
1.938                  -0.704389       -0.397681
1.939                  -0.705601       -0.395472
1.94                   -0.706805       -0.393258
1.941                  -0.708002       -0.391041
1.942                  -0.709192       -0.388821
1.943                  -0.710374       -0.386598
1.944                  -0.711549        -0.38437
1.945                  -0.712717        -0.38214
1.946                  -0.713878       -0.379906
1.947                  -0.715031       -0.377669
1.948                  -0.716177       -0.375429
1.949                  -0.717315       -0.373185
1.95                   -0.718447       -0.370938
1.951                  -0.719571       -0.368688
1.952                  -0.720687       -0.366435
1.953                  -0.721796       -0.364178
1.954                  -0.722898       -0.361918
1.955                  -0.723993       -0.359656
1.956                   -0.72508        -0.35739
1.957                  -0.726159       -0.355121
1.958                  -0.727232       -0.352849
1.959                  -0.728296       -0.350574
1.96                   -0.729354       -0.348296
1.961                  -0.730404       -0.346015
1.962                  -0.731447        -0.34373
1.963                  -0.732482       -0.341444
1.964                   -0.73351       -0.339154
1.965                   -0.73453       -0.336861
1.966                  -0.735543       -0.334565
1.967                  -0.736549       -0.332267
1.968                  -0.737547       -0.329966
1.969                  -0.738537       -0.327662
1.97                    -0.73952       -0.325355
1.971                  -0.740496       -0.323045
1.972                  -0.741464       -0.320733
1.973                  -0.742425       -0.318418
1.974                  -0.743378       -0.316101
1.975                  -0.744324       -0.313781
1.976                  -0.745262       -0.311458
1.977                  -0.746193       -0.309132
1.978                  -0.747116       -0.306804
1.979                  -0.748031       -0.304474
1.98                    -0.74894       -0.302141
1.981                   -0.74984       -0.299805
1.982                  -0.750734       -0.297467
1.983                  -0.751619       -0.295127
1.984                  -0.752497       -0.292784
1.985                  -0.753368       -0.290439
1.986                  -0.754231       -0.288091
1.987                  -0.755086       -0.285741
1.988                  -0.755934       -0.283389
1.989                  -0.756774       -0.281034
1.99                   -0.757607       -0.278678
1.991                  -0.758433       -0.276318
1.992                   -0.75925       -0.273957
1.993                   -0.76006       -0.271593
1.994                  -0.760863       -0.269228
1.995                  -0.761658        -0.26686
1.996                  -0.762445        -0.26449
1.997                  -0.763225       -0.262118
1.998                  -0.763997       -0.259744
1.999                  -0.764762       -0.257367
2                      -0.765519       -0.254989
