! TOUCHSTONE file generated by CST MICROWAVE STUDIO
! Date and time: Sun Aug  2 00:10:31 2026
! Project name: Sonda-Coaxial_21mm_DisifixB_v2_Agua_Destilada.cst
! Parameters = {h_recipiente=20; l_conector=50; r_arandela=35; r_ext=10.5; r_int=3; r_recipiente=100; z_recipiente=-100}
! Header version: 2018
! Port assignment regex: !\s*Touchstone port\s*([0-9]+)\s*=\s*(CST MWS port|CST DS port)\s*([0-9]+|Zmin|Zmax)\s*\(\"(.*)\"\)(\s*mode\s*([0-9]+))?.*
! Touchstone port assignment:
! Touchstone port 1 = CST MWS port 1 ("")
# GHz S RI R 50
0.001                  -0.102521     -0.00105846
0.002                  -0.102538     -0.00211679
0.003                  -0.102567     -0.00317498
0.004                  -0.102608      -0.0042329
0.005                  -0.102659     -0.00529047
0.006                  -0.102723     -0.00634759
0.007                  -0.102797     -0.00740418
0.008                  -0.102884     -0.00846014
0.009                  -0.102981      -0.0095154
0.01                   -0.103091      -0.0105699
0.011                  -0.103211      -0.0116234
0.012                  -0.103343       -0.012676
0.013                  -0.103487      -0.0137275
0.014                  -0.103642      -0.0147778
0.015                  -0.103808      -0.0158269
0.016                  -0.103986      -0.0168746
0.017                  -0.104175      -0.0179209
0.018                  -0.104375      -0.0189657
0.019                  -0.104587      -0.0200088
0.02                    -0.10481      -0.0210502
0.021                  -0.105045      -0.0220898
0.022                   -0.10529      -0.0231275
0.023                  -0.105547      -0.0241632
0.024                  -0.105815      -0.0251968
0.025                  -0.106095      -0.0262283
0.026                  -0.106386      -0.0272574
0.027                  -0.106687      -0.0282842
0.028                     -0.107      -0.0293085
0.029                  -0.107325      -0.0303303
0.03                    -0.10766      -0.0313494
0.031                  -0.108006      -0.0323658
0.032                  -0.108364      -0.0333794
0.033                  -0.108732      -0.0343901
0.034                  -0.109112      -0.0353977
0.035                  -0.109502      -0.0364022
0.036                  -0.109903      -0.0374035
0.037                  -0.110316      -0.0384016
0.038                  -0.110739      -0.0393962
0.039                  -0.111173      -0.0403875
0.04                   -0.111619      -0.0413751
0.041                  -0.112074      -0.0423591
0.042                  -0.112541      -0.0433394
0.043                  -0.113019      -0.0443159
0.044                  -0.113507      -0.0452884
0.045                  -0.114006       -0.046257
0.046                  -0.114515      -0.0472215
0.047                  -0.115036      -0.0481818
0.048                  -0.115566      -0.0491378
0.049                  -0.116108      -0.0500895
0.05                    -0.11666      -0.0510368
0.051                  -0.117222      -0.0519795
0.052                  -0.117795      -0.0529177
0.053                  -0.118379      -0.0538512
0.054                  -0.118972      -0.0547799
0.055                  -0.119576      -0.0557037
0.056                  -0.120191      -0.0566226
0.057                  -0.120816      -0.0575365
0.058                   -0.12145      -0.0584452
0.059                  -0.122096      -0.0593488
0.06                   -0.122751      -0.0602471
0.061                  -0.123416      -0.0611401
0.062                  -0.124092      -0.0620277
0.063                  -0.124777      -0.0629097
0.064                  -0.125473      -0.0637861
0.065                  -0.126178      -0.0646568
0.066                  -0.126893      -0.0655218
0.067                  -0.127618      -0.0663809
0.068                  -0.128353      -0.0672342
0.069                  -0.129098      -0.0680814
0.07                   -0.129852      -0.0689226
0.071                  -0.130616      -0.0697576
0.072                  -0.131389      -0.0705864
0.073                  -0.132173      -0.0714089
0.074                  -0.132965       -0.072225
0.075                  -0.133767      -0.0730347
0.076                  -0.134579      -0.0738378
0.077                  -0.135399      -0.0746343
0.078                  -0.136229      -0.0754242
0.079                  -0.137069      -0.0762072
0.08                   -0.137917      -0.0769835
0.081                  -0.138775      -0.0777528
0.082                  -0.139642      -0.0785152
0.083                  -0.140517      -0.0792706
0.084                  -0.141402      -0.0800188
0.085                  -0.142295      -0.0807598
0.086                  -0.143198      -0.0814936
0.087                  -0.144109      -0.0822201
0.088                  -0.145029      -0.0829391
0.089                  -0.145958      -0.0836507
0.09                   -0.146895      -0.0843547
0.091                  -0.147841      -0.0850512
0.092                  -0.148795        -0.08574
0.093                  -0.149757       -0.086421
0.094                  -0.150728      -0.0870942
0.095                  -0.151708      -0.0877595
0.096                  -0.152695       -0.088417
0.097                  -0.153691      -0.0890664
0.098                  -0.154695      -0.0897077
0.099                  -0.155707       -0.090341
0.1                    -0.156727       -0.090966
0.101                  -0.157755      -0.0915828
0.102                  -0.158791      -0.0921912
0.103                  -0.159834      -0.0927913
0.104                  -0.160885       -0.093383
0.105                  -0.161944      -0.0939661
0.106                  -0.163011      -0.0945406
0.107                  -0.164085      -0.0951066
0.108                  -0.165166      -0.0956639
0.109                  -0.166255      -0.0962124
0.11                   -0.167351      -0.0967522
0.111                  -0.168455      -0.0972831
0.112                  -0.169565       -0.097805
0.113                  -0.170683      -0.0983181
0.114                  -0.171808      -0.0988221
0.115                   -0.17294       -0.099317
0.116                  -0.174078      -0.0998028
0.117                  -0.175224       -0.100279
0.118                  -0.176376       -0.100747
0.119                  -0.177535       -0.101205
0.12                   -0.178701       -0.101654
0.121                  -0.179873       -0.102093
0.122                  -0.181051       -0.102523
0.123                  -0.182236       -0.102943
0.124                  -0.183428       -0.103354
0.125                  -0.184625       -0.103756
0.126                  -0.185829       -0.104147
0.127                  -0.187039       -0.104529
0.128                  -0.188255       -0.104901
0.129                  -0.189476       -0.105264
0.13                   -0.190704       -0.105617
0.131                  -0.191937       -0.105959
0.132                  -0.193177       -0.106292
0.133                  -0.194421       -0.106615
0.134                  -0.195672       -0.106928
0.135                  -0.196928       -0.107231
0.136                  -0.198189       -0.107524
0.137                  -0.199455       -0.107807
0.138                  -0.200727       -0.108079
0.139                  -0.202004       -0.108341
0.14                   -0.203286       -0.108594
0.141                  -0.204574       -0.108835
0.142                  -0.205866       -0.109067
0.143                  -0.207163       -0.109288
0.144                  -0.208464       -0.109499
0.145                  -0.209771       -0.109699
0.146                  -0.211082       -0.109889
0.147                  -0.212398       -0.110068
0.148                  -0.213718       -0.110237
0.149                  -0.215042       -0.110395
0.15                   -0.216371       -0.110543
0.151                  -0.217704        -0.11068
0.152                  -0.219041       -0.110806
0.153                  -0.220382       -0.110922
0.154                  -0.221727       -0.111027
0.155                  -0.223077       -0.111121
0.156                  -0.224429       -0.111204
0.157                  -0.225786       -0.111277
0.158                  -0.227146       -0.111338
0.159                   -0.22851       -0.111389
0.16                   -0.229878       -0.111429
0.161                  -0.231248       -0.111458
0.162                  -0.232622       -0.111476
0.163                     -0.234       -0.111483
0.164                   -0.23538       -0.111479
0.165                  -0.236764       -0.111464
0.166                   -0.23815       -0.111438
0.167                   -0.23954       -0.111401
0.168                  -0.240932       -0.111353
0.169                  -0.242327       -0.111294
0.17                   -0.243725       -0.111224
0.171                  -0.245125       -0.111142
0.172                  -0.246528        -0.11105
0.173                  -0.247933       -0.110946
0.174                  -0.249341       -0.110831
0.175                  -0.250751       -0.110704
0.176                  -0.252163       -0.110567
0.177                  -0.253577       -0.110418
0.178                  -0.254993       -0.110258
0.179                  -0.256411       -0.110087
0.18                   -0.257831       -0.109904
0.181                  -0.259252       -0.109711
0.182                  -0.260675       -0.109505
0.183                    -0.2621       -0.109289
0.184                  -0.263526       -0.109061
0.185                  -0.264954       -0.108822
0.186                  -0.266383       -0.108571
0.187                  -0.267813       -0.108309
0.188                  -0.269245       -0.108036
0.189                  -0.270677       -0.107751
0.19                   -0.272111       -0.107455
0.191                  -0.273545       -0.107148
0.192                   -0.27498       -0.106829
0.193                  -0.276416       -0.106498
0.194                  -0.277853       -0.106157
0.195                   -0.27929       -0.105804
0.196                  -0.280728       -0.105439
0.197                  -0.282166       -0.105063
0.198                  -0.283605       -0.104676
0.199                  -0.285043       -0.104277
0.2                    -0.286482       -0.103866
0.201                  -0.287921       -0.103445
0.202                   -0.28936       -0.103011
0.203                  -0.290799       -0.102567
0.204                  -0.292238       -0.102111
0.205                  -0.293676       -0.101643
0.206                  -0.295114       -0.101164
0.207                  -0.296552       -0.100674
0.208                  -0.297989       -0.100172
0.209                  -0.299426       -0.099659
0.21                   -0.300862      -0.0991343
0.211                  -0.302297      -0.0985982
0.212                  -0.303731      -0.0980508
0.213                  -0.305165       -0.097492
0.214                  -0.306597      -0.0969218
0.215                  -0.308029      -0.0963402
0.216                  -0.309459      -0.0957471
0.217                  -0.310888      -0.0951429
0.218                  -0.312316      -0.0945271
0.219                  -0.313742      -0.0939001
0.22                   -0.315167      -0.0932616
0.221                   -0.31659       -0.092612
0.222                  -0.318012      -0.0919509
0.223                  -0.319432      -0.0912786
0.224                   -0.32085      -0.0905949
0.225                  -0.322266         -0.0899
0.226                  -0.323681      -0.0891938
0.227                  -0.325093      -0.0884764
0.228                  -0.326503      -0.0877477
0.229                  -0.327911      -0.0870078
0.23                   -0.329317      -0.0862568
0.231                   -0.33072      -0.0854945
0.232                  -0.332121      -0.0847211
0.233                   -0.33352      -0.0839365
0.234                  -0.334915      -0.0831407
0.235                  -0.336309      -0.0823339
0.236                  -0.337699      -0.0815161
0.237                  -0.339087       -0.080687
0.238                  -0.340471       -0.079847
0.239                  -0.341853      -0.0789959
0.24                   -0.343232      -0.0781338
0.241                  -0.344607      -0.0772607
0.242                   -0.34598      -0.0763765
0.243                  -0.347349      -0.0754816
0.244                  -0.348714      -0.0745756
0.245                  -0.350077      -0.0736588
0.246                  -0.351435      -0.0727311
0.247                  -0.352791      -0.0717924
0.248                  -0.354142      -0.0708431
0.249                   -0.35549      -0.0698829
0.25                   -0.356834      -0.0689119
0.251                  -0.358174      -0.0679302
0.252                   -0.35951      -0.0669378
0.253                  -0.360842      -0.0659346
0.254                  -0.362171      -0.0649208
0.255                  -0.363494      -0.0638964
0.256                  -0.364814      -0.0628614
0.257                  -0.366129      -0.0618158
0.258                   -0.36744      -0.0607596
0.259                  -0.368747       -0.059693
0.26                   -0.370049      -0.0586158
0.261                  -0.371346      -0.0575283
0.262                  -0.372639      -0.0564302
0.263                  -0.373926      -0.0553218
0.264                   -0.37521      -0.0542031
0.265                  -0.376488       -0.053074
0.266                  -0.377761      -0.0519346
0.267                  -0.379029       -0.050785
0.268                  -0.380292      -0.0496252
0.269                   -0.38155      -0.0484551
0.27                   -0.382803       -0.047275
0.271                   -0.38405      -0.0460847
0.272                  -0.385292      -0.0448844
0.273                  -0.386529      -0.0436739
0.274                   -0.38776      -0.0424535
0.275                  -0.388986      -0.0412231
0.276                  -0.390206      -0.0399829
0.277                   -0.39142      -0.0387327
0.278                  -0.392628      -0.0374726
0.279                  -0.393831      -0.0362028
0.28                   -0.395028      -0.0349233
0.281                  -0.396218      -0.0336339
0.282                  -0.397403      -0.0323349
0.283                  -0.398582      -0.0310262
0.284                  -0.399754      -0.0297079
0.285                   -0.40092      -0.0283801
0.286                   -0.40208      -0.0270427
0.287                  -0.403234      -0.0256959
0.288                  -0.404381      -0.0243395
0.289                  -0.405522      -0.0229739
0.29                   -0.406656      -0.0215988
0.291                  -0.407784      -0.0202145
0.292                  -0.408905      -0.0188209
0.293                  -0.410019      -0.0174181
0.294                  -0.411126      -0.0160061
0.295                  -0.412227      -0.0145849
0.296                  -0.413321      -0.0131547
0.297                  -0.414408      -0.0117155
0.298                  -0.415487      -0.0102672
0.299                   -0.41656     -0.00880995
0.3                    -0.417626     -0.00734396
0.301                  -0.418684     -0.00586897
0.302                  -0.419735     -0.00438531
0.303                  -0.420779     -0.00289282
0.304                  -0.421816     -0.00139163
0.305                  -0.422845     0.000118239
0.306                  -0.423866      0.00163665
0.307                  -0.424881      0.00316366
0.308                  -0.425887      0.00469923
0.309                  -0.426886      0.00624325
0.31                   -0.427877      0.00779566
0.311                  -0.428861      0.00935634
0.312                  -0.429836       0.0109254
0.313                  -0.430804       0.0125027
0.314                  -0.431764       0.0140884
0.315                  -0.432716       0.0156819
0.316                   -0.43366       0.0172838
0.317                  -0.434596       0.0188935
0.318                  -0.435524       0.0205114
0.319                  -0.436444       0.0221373
0.32                   -0.437355       0.0237709
0.321                  -0.438258       0.0254124
0.322                  -0.439153       0.0270617
0.323                   -0.44004       0.0287187
0.324                  -0.440918       0.0303834
0.325                  -0.441788       0.0320557
0.326                  -0.442649       0.0337356
0.327                  -0.443502        0.035423
0.328                  -0.444346        0.037118
0.329                  -0.445181       0.0388202
0.33                   -0.446008       0.0405297
0.331                  -0.446826       0.0422467
0.332                  -0.447636       0.0439709
0.333                  -0.448436       0.0457022
0.334                  -0.449228       0.0474406
0.335                  -0.450011       0.0491861
0.336                  -0.450784       0.0509387
0.337                  -0.451549       0.0526981
0.338                  -0.452305       0.0544645
0.339                  -0.453051       0.0562378
0.34                   -0.453789       0.0580178
0.341                  -0.454517       0.0598045
0.342                  -0.455237       0.0615979
0.343                  -0.455947       0.0633979
0.344                  -0.456647       0.0652044
0.345                  -0.457339       0.0670175
0.346                  -0.458021       0.0688369
0.347                  -0.458693       0.0706627
0.348                  -0.459357       0.0724948
0.349                   -0.46001       0.0743333
0.35                   -0.460654       0.0761779
0.351                  -0.461289       0.0780285
0.352                  -0.461914       0.0798854
0.353                   -0.46253       0.0817483
0.354                  -0.463135        0.083617
0.355                  -0.463731       0.0854918
0.356                  -0.464318       0.0873722
0.357                  -0.464895       0.0892584
0.358                  -0.465461       0.0911505
0.359                  -0.466018       0.0930481
0.36                   -0.466565       0.0949513
0.361                  -0.467103       0.0968601
0.362                   -0.46763       0.0987744
0.363                  -0.468147        0.100694
0.364                  -0.468655        0.102619
0.365                  -0.469152        0.104549
0.366                  -0.469639        0.106485
0.367                  -0.470117        0.108425
0.368                  -0.470584        0.110371
0.369                  -0.471041        0.112322
0.37                   -0.471487        0.114278
0.371                  -0.471924        0.116238
0.372                   -0.47235        0.118204
0.373                  -0.472766        0.120174
0.374                  -0.473172        0.122149
0.375                  -0.473568        0.124129
0.376                  -0.473953        0.126113
0.377                  -0.474328        0.128102
0.378                  -0.474692        0.130096
0.379                  -0.475046        0.132093
0.38                    -0.47539        0.134095
0.381                  -0.475723        0.136102
0.382                  -0.476046        0.138112
0.383                  -0.476358        0.140127
0.384                  -0.476659        0.142146
0.385                  -0.476951        0.144169
0.386                  -0.477231        0.146196
0.387                  -0.477501        0.148226
0.388                   -0.47776        0.150261
0.389                  -0.478009        0.152299
0.39                   -0.478247        0.154342
0.391                  -0.478474        0.156387
0.392                  -0.478691        0.158437
0.393                  -0.478897         0.16049
0.394                  -0.479092        0.162546
0.395                  -0.479276        0.164605
0.396                   -0.47945        0.166669
0.397                  -0.479613        0.168735
0.398                  -0.479765        0.170804
0.399                  -0.479906        0.172877
0.4                    -0.480036        0.174953
0.401                  -0.480156        0.177032
0.402                  -0.480264        0.179114
0.403                  -0.480362        0.181198
0.404                  -0.480449        0.183286
0.405                  -0.480525        0.185376
0.406                   -0.48059        0.187469
0.407                  -0.480644        0.189564
0.408                  -0.480687        0.191662
0.409                  -0.480719        0.193763
0.41                   -0.480741        0.195866
0.411                  -0.480751        0.197971
0.412                   -0.48075        0.200079
0.413                  -0.480738        0.202189
0.414                  -0.480715        0.204301
0.415                  -0.480681        0.206415
0.416                  -0.480636        0.208532
0.417                   -0.48058         0.21065
0.418                  -0.480513         0.21277
0.419                  -0.480435        0.214892
0.42                   -0.480346        0.217016
0.421                  -0.480245        0.219142
0.422                  -0.480134        0.221269
0.423                  -0.480011        0.223398
0.424                  -0.479878        0.225529
0.425                  -0.479733        0.227661
0.426                  -0.479577        0.229794
0.427                   -0.47941        0.231929
0.428                  -0.479232        0.234065
0.429                  -0.479043        0.236203
0.43                   -0.478842        0.238341
0.431                  -0.478631        0.240481
0.432                  -0.478408        0.242621
0.433                  -0.478174        0.244763
0.434                  -0.477929        0.246906
0.435                  -0.477673        0.249049
0.436                  -0.477405        0.251193
0.437                  -0.477127        0.253338
0.438                  -0.476837        0.255484
0.439                  -0.476536         0.25763
0.44                   -0.476224        0.259777
0.441                  -0.475901        0.261924
0.442                  -0.475566        0.264072
0.443                  -0.475221         0.26622
0.444                  -0.474864        0.268368
0.445                  -0.474496        0.270517
0.446                  -0.474117        0.272665
0.447                  -0.473727        0.274814
0.448                  -0.473325        0.276963
0.449                  -0.472913        0.279112
0.45                   -0.472489        0.281261
0.451                  -0.472054         0.28341
0.452                  -0.471608        0.285558
0.453                  -0.471151        0.287706
0.454                  -0.470682        0.289854
0.455                  -0.470203        0.292002
0.456                  -0.469712        0.294149
0.457                   -0.46921        0.296296
0.458                  -0.468697        0.298442
0.459                  -0.468173        0.300587
0.46                   -0.467638        0.302732
0.461                  -0.467092        0.304876
0.462                  -0.466534        0.307019
0.463                  -0.465966        0.309161
0.464                  -0.465386        0.311303
0.465                  -0.464796        0.313443
0.466                  -0.464194        0.315583
0.467                  -0.463581        0.317721
0.468                  -0.462957        0.319858
0.469                  -0.462322        0.321994
0.47                   -0.461677        0.324129
0.471                   -0.46102        0.326262
0.472                  -0.460352        0.328394
0.473                  -0.459673        0.330525
0.474                  -0.458982        0.332654
0.475                  -0.458281        0.334781
0.476                  -0.457569        0.336907
0.477                  -0.456847        0.339031
0.478                  -0.456113        0.341154
0.479                  -0.455368        0.343274
0.48                   -0.454612        0.345393
0.481                  -0.453845         0.34751
0.482                  -0.453068        0.349624
0.483                  -0.452279        0.351737
0.484                   -0.45148        0.353848
0.485                   -0.45067        0.355957
0.486                  -0.449848        0.358063
0.487                  -0.449016        0.360167
0.488                  -0.448174        0.362269
0.489                   -0.44732        0.364369
0.49                   -0.446456        0.366466
0.491                  -0.445581         0.36856
0.492                  -0.444695        0.370652
0.493                  -0.443798        0.372742
0.494                   -0.44289        0.374828
0.495                  -0.441972        0.376913
0.496                  -0.441043        0.378994
0.497                  -0.440104        0.381073
0.498                  -0.439154        0.383148
0.499                  -0.438193        0.385221
0.5                    -0.437221        0.387291
0.501                  -0.436239        0.389357
0.502                  -0.435246        0.391421
0.503                  -0.434243        0.393482
0.504                  -0.433229        0.395539
0.505                  -0.432205        0.397593
0.506                   -0.43117        0.399644
0.507                  -0.430124        0.401691
0.508                  -0.429068        0.403735
0.509                  -0.428002        0.405776
0.51                   -0.426925        0.407813
0.511                  -0.425838        0.409847
0.512                   -0.42474        0.411877
0.513                  -0.423632        0.413903
0.514                  -0.422514        0.415926
0.515                  -0.421385        0.417944
0.516                  -0.420246        0.419959
0.517                  -0.419097         0.42197
0.518                  -0.417937        0.423978
0.519                  -0.416767        0.425981
0.52                   -0.415587         0.42798
0.521                  -0.414396        0.429975
0.522                  -0.413196        0.431966
0.523                  -0.411985        0.433953
0.524                  -0.410764        0.435935
0.525                  -0.409533        0.437914
0.526                  -0.408292        0.439888
0.527                  -0.407041        0.441857
0.528                  -0.405779        0.443823
0.529                  -0.404508        0.445783
0.53                   -0.403227         0.44774
0.531                  -0.401936        0.449691
0.532                  -0.400634        0.451638
0.533                  -0.399323         0.45358
0.534                  -0.398002        0.455518
0.535                  -0.396672        0.457451
0.536                  -0.395331        0.459379
0.537                   -0.39398        0.461302
0.538                   -0.39262         0.46322
0.539                   -0.39125        0.465134
0.54                    -0.38987        0.467042
0.541                   -0.38848        0.468945
0.542                  -0.387081        0.470844
0.543                  -0.385672        0.472737
0.544                  -0.384253        0.474624
0.545                  -0.382825        0.476507
0.546                  -0.381387        0.478384
0.547                  -0.379939        0.480256
0.548                  -0.378483        0.482123
0.549                  -0.377016        0.483984
0.55                    -0.37554         0.48584
0.551                  -0.374055         0.48769
0.552                   -0.37256        0.489535
0.553                  -0.371056        0.491374
0.554                  -0.369542        0.493208
0.555                   -0.36802        0.495035
0.556                  -0.366487        0.496857
0.557                  -0.364946        0.498674
0.558                  -0.363395        0.500484
0.559                  -0.361835        0.502289
0.56                   -0.360266        0.504087
0.561                  -0.358688         0.50588
0.562                    -0.3571        0.507667
0.563                  -0.355504        0.509447
0.564                  -0.353898        0.511222
0.565                  -0.352284         0.51299
0.566                   -0.35066        0.514753
0.567                  -0.349027        0.516509
0.568                  -0.347386        0.518259
0.569                  -0.345735        0.520002
0.57                   -0.344076         0.52174
0.571                  -0.342408        0.523471
0.572                  -0.340731        0.525195
0.573                  -0.339045        0.526913
0.574                  -0.337351        0.528625
0.575                  -0.335647         0.53033
0.576                  -0.333935        0.532028
0.577                  -0.332215         0.53372
0.578                  -0.330486        0.535405
0.579                  -0.328748        0.537083
0.58                   -0.327001        0.538755
0.581                  -0.325247         0.54042
0.582                  -0.323483        0.542078
0.583                  -0.321711        0.543729
0.584                  -0.319931        0.545374
0.585                  -0.318142        0.547011
0.586                  -0.316345        0.548641
0.587                   -0.31454        0.550265
0.588                  -0.312726        0.551881
0.589                  -0.310904        0.553491
0.59                   -0.309074        0.555093
0.591                  -0.307236        0.556688
0.592                  -0.305389        0.558276
0.593                  -0.303534        0.559856
0.594                  -0.301671        0.561429
0.595                  -0.299801        0.562995
0.596                  -0.297922        0.564554
0.597                  -0.296035        0.566105
0.598                  -0.294141        0.567649
0.599                  -0.292238        0.569185
0.6                    -0.290327        0.570714
0.601                  -0.288409        0.572236
0.602                  -0.286483         0.57375
0.603                  -0.284549        0.575256
0.604                  -0.282607        0.576754
0.605                  -0.280657        0.578245
0.606                    -0.2787        0.579728
0.607                  -0.276736        0.581204
0.608                  -0.274763        0.582671
0.609                  -0.272784        0.584131
0.61                   -0.270796        0.585583
0.611                  -0.268801        0.587027
0.612                  -0.266799        0.588463
0.613                  -0.264789        0.589892
0.614                  -0.262772        0.591312
0.615                  -0.260748        0.592724
0.616                  -0.258716        0.594128
0.617                  -0.256677        0.595525
0.618                  -0.254631        0.596913
0.619                  -0.252577        0.598292
0.62                   -0.250517        0.599664
0.621                  -0.248449        0.601028
0.622                  -0.246374        0.602383
0.623                  -0.244292         0.60373
0.624                  -0.242204        0.605068
0.625                  -0.240108        0.606399
0.626                  -0.238005        0.607721
0.627                  -0.235896        0.609034
0.628                  -0.233779        0.610339
0.629                  -0.231656        0.611636
0.63                   -0.229526        0.612924
0.631                   -0.22739        0.614203
0.632                  -0.225246        0.615474
0.633                  -0.223096        0.616737
0.634                  -0.220939        0.617991
0.635                  -0.218776        0.619236
0.636                  -0.216606        0.620472
0.637                   -0.21443          0.6217
0.638                  -0.212247        0.622919
0.639                  -0.210058         0.62413
0.64                   -0.207863        0.625331
0.641                  -0.205661        0.626524
0.642                  -0.203453        0.627708
0.643                  -0.201238        0.628882
0.644                  -0.199018        0.630049
0.645                  -0.196791        0.631206
0.646                  -0.194558        0.632354
0.647                  -0.192319        0.633493
0.648                  -0.190074        0.634623
0.649                  -0.187823        0.635744
0.65                   -0.185566        0.636856
0.651                  -0.183303        0.637959
0.652                  -0.181034        0.639053
0.653                   -0.17876        0.640137
0.654                  -0.176479        0.641213
0.655                  -0.174193        0.642279
0.656                  -0.171901        0.643336
0.657                  -0.169603        0.644384
0.658                    -0.1673        0.645422
0.659                  -0.164991        0.646451
0.66                   -0.162676        0.647471
0.661                  -0.160356        0.648481
0.662                  -0.158031        0.649482
0.663                    -0.1557        0.650474
0.664                  -0.153364        0.651456
0.665                  -0.151022        0.652429
0.666                  -0.148675        0.653392
0.667                  -0.146323        0.654346
0.668                  -0.143965         0.65529
0.669                  -0.141603        0.656224
0.67                   -0.139235         0.65715
0.671                  -0.136862        0.658065
0.672                  -0.134484        0.658971
0.673                  -0.132101        0.659867
0.674                  -0.129713        0.660753
0.675                   -0.12732         0.66163
0.676                  -0.124923        0.662497
0.677                   -0.12252        0.663354
0.678                  -0.120113        0.664202
0.679                  -0.117701         0.66504
0.68                   -0.115284        0.665867
0.681                  -0.112862        0.666686
0.682                  -0.110436        0.667494
0.683                  -0.108006        0.668292
0.684                  -0.105571        0.669081
0.685                  -0.103131        0.669859
0.686                  -0.100687        0.670628
0.687                  -0.098238        0.671387
0.688                 -0.0957853        0.672135
0.689                  -0.093328        0.672874
0.69                  -0.0908664        0.673603
0.691                 -0.0884007        0.674321
0.692                 -0.0859309         0.67503
0.693                 -0.0834569        0.675728
0.694                 -0.0809788        0.676416
0.695                 -0.0784966        0.677095
0.696                 -0.0760105        0.677763
0.697                 -0.0735203        0.678421
0.698                 -0.0710265        0.679069
0.699                 -0.0685285        0.679706
0.7                   -0.0660267        0.680334
0.701                 -0.0635212        0.680951
0.702                 -0.0610121        0.681558
0.703                 -0.0584992        0.682155
0.704                 -0.0559825        0.682741
0.705                 -0.0534624        0.683317
0.706                 -0.0509389        0.683883
0.707                 -0.0484115        0.684438
0.708                 -0.0458809        0.684983
0.709                 -0.0433469        0.685518
0.71                  -0.0408094        0.686042
0.711                 -0.0382687        0.686556
0.712                 -0.0357249         0.68706
0.713                 -0.0331773        0.687553
0.714                  -0.030627        0.688036
0.715                 -0.0280735        0.688508
0.716                 -0.0255168         0.68897
0.717                  -0.022957        0.689421
0.718                 -0.0203944        0.689862
0.719                 -0.0178287        0.690292
0.72                  -0.0152601        0.690712
0.721                 -0.0126885        0.691121
0.722                 -0.0101146         0.69152
0.723                -0.00753748        0.691908
0.724                -0.00495779        0.692285
0.725                -0.00237528        0.692652
0.726                0.000209683        0.693009
0.727                 0.00279704        0.693354
0.728                 0.00538708        0.693689
0.729                 0.00797976        0.694014
0.73                    0.010575        0.694327
0.731                  0.0131722         0.69463
0.732                  0.0157721        0.694923
0.733                  0.0183742        0.695204
0.734                  0.0209783        0.695475
0.735                  0.0235848        0.695736
0.736                  0.0261933        0.695985
0.737                   0.028804        0.696224
0.738                  0.0314169        0.696452
0.739                  0.0340317        0.696669
0.74                   0.0366486        0.696876
0.741                  0.0392675        0.697072
0.742                  0.0418878        0.697257
0.743                    0.04451        0.697431
0.744                  0.0471342        0.697594
0.745                  0.0497599        0.697747
0.746                  0.0523875        0.697888
0.747                  0.0550168        0.698019
0.748                  0.0576475        0.698139
0.749                  0.0602799        0.698249
0.75                   0.0629136        0.698347
0.751                  0.0655485        0.698435
0.752                  0.0681854        0.698511
0.753                  0.0708233        0.698577
0.754                  0.0734624        0.698632
0.755                  0.0761028        0.698676
0.756                  0.0787443        0.698709
0.757                  0.0813871        0.698731
0.758                  0.0840308        0.698742
0.759                   0.086676        0.698743
0.76                    0.089322        0.698732
0.761                  0.0919685        0.698711
0.762                  0.0946167        0.698678
0.763                  0.0972652        0.698635
0.764                  0.0999144        0.698581
0.765                   0.102565        0.698515
0.766                   0.105216        0.698439
0.767                   0.107867        0.698352
0.768                   0.110519        0.698254
0.769                   0.113172        0.698145
0.77                    0.115825        0.698025
0.771                   0.118479        0.697894
0.772                   0.121133        0.697752
0.773                   0.123787        0.697599
0.774                   0.126442        0.697435
0.775                   0.129097        0.697261
0.776                   0.131752        0.697075
0.777                   0.134408        0.696878
0.778                   0.137063         0.69667
0.779                   0.139719        0.696451
0.78                    0.142375        0.696222
0.781                   0.145031        0.695981
0.782                   0.147686        0.695729
0.783                   0.150342        0.695467
0.784                   0.152997        0.695193
0.785                   0.155652        0.694908
0.786                   0.158307        0.694613
0.787                   0.160961        0.694306
0.788                   0.163615        0.693989
0.789                   0.166269         0.69366
0.79                    0.168922        0.693321
0.791                   0.171575         0.69297
0.792                   0.174227        0.692608
0.793                   0.176879        0.692236
0.794                   0.179529        0.691853
0.795                    0.18218        0.691458
0.796                   0.184829        0.691053
0.797                   0.187478        0.690636
0.798                   0.190126        0.690209
0.799                   0.192772        0.689771
0.8                     0.195419        0.689322
0.801                   0.198063        0.688862
0.802                   0.200707        0.688391
0.803                    0.20335        0.687909
0.804                   0.205992        0.687416
0.805                   0.208632        0.686912
0.806                   0.211271        0.686397
0.807                   0.213909        0.685872
0.808                   0.216546        0.685335
0.809                   0.219181        0.684787
0.81                    0.221815        0.684229
0.811                   0.224447         0.68366
0.812                   0.227078         0.68308
0.813                   0.229707        0.682488
0.814                   0.232335        0.681886
0.815                    0.23496        0.681274
0.816                   0.237584         0.68065
0.817                   0.240207        0.680016
0.818                   0.242828         0.67937
0.819                   0.245446        0.678714
0.82                    0.248063        0.678047
0.821                   0.250678        0.677369
0.822                    0.25329        0.676681
0.823                   0.255901        0.675981
0.824                    0.25851        0.675271
0.825                   0.261116         0.67455
0.826                   0.263721        0.673818
0.827                   0.266323        0.673076
0.828                   0.268922        0.672322
0.829                    0.27152        0.671558
0.83                    0.274115        0.670784
0.831                   0.276707        0.669998
0.832                   0.279297        0.669202
0.833                   0.281885        0.668395
0.834                    0.28447        0.667578
0.835                   0.287052         0.66675
0.836                   0.289632        0.665911
0.837                   0.292209        0.665062
0.838                   0.294783        0.664201
0.839                   0.297354        0.663331
0.84                    0.299923        0.662449
0.841                   0.302488        0.661557
0.842                   0.305051        0.660655
0.843                    0.30761        0.659742
0.844                   0.310167        0.658818
0.845                   0.312721        0.657884
0.846                   0.315271        0.656939
0.847                   0.317818        0.655984
0.848                   0.320362        0.655019
0.849                   0.322903        0.654042
0.85                     0.32544        0.653056
0.851                   0.327974        0.652059
0.852                   0.330504        0.651051
0.853                   0.333032        0.650034
0.854                   0.335555        0.649005
0.855                   0.338075        0.647967
0.856                   0.340592        0.646917
0.857                   0.343105        0.645858
0.858                   0.345614        0.644788
0.859                   0.348119        0.643708
0.86                    0.350621        0.642618
0.861                   0.353119        0.641517
0.862                   0.355613        0.640407
0.863                   0.358102        0.639286
0.864                   0.360589        0.638154
0.865                   0.363071        0.637013
0.866                   0.365549        0.635861
0.867                   0.368023        0.634699
0.868                   0.370493        0.633527
0.869                   0.372958        0.632345
0.87                     0.37542        0.631153
0.871                   0.377877         0.62995
0.872                    0.38033        0.628738
0.873                   0.382778        0.627515
0.874                   0.385223        0.626283
0.875                   0.387662         0.62504
0.876                   0.390098        0.623788
0.877                   0.392528        0.622525
0.878                   0.394955        0.621253
0.879                   0.397376        0.619971
0.88                    0.399793        0.618678
0.881                   0.402205        0.617376
0.882                   0.404613        0.616064
0.883                   0.407016        0.614742
0.884                   0.409414        0.613411
0.885                   0.411807        0.612069
0.886                   0.414195        0.610718
0.887                   0.416578        0.609357
0.888                   0.418957        0.607987
0.889                    0.42133        0.606606
0.89                    0.423698        0.605216
0.891                   0.426062        0.603817
0.892                   0.428419        0.602407
0.893                   0.430772        0.600988
0.894                    0.43312         0.59956
0.895                   0.435462        0.598122
0.896                   0.437799        0.596674
0.897                   0.440131        0.595217
0.898                   0.442457         0.59375
0.899                   0.444778        0.592274
0.9                     0.447094        0.590789
0.901                   0.449404        0.589294
0.902                   0.451708         0.58779
0.903                   0.454007        0.586276
0.904                     0.4563        0.584753
0.905                   0.458588        0.583221
0.906                    0.46087         0.58168
0.907                   0.463146        0.580129
0.908                   0.465416        0.578569
0.909                   0.467681           0.577
0.91                     0.46994        0.575421
0.911                   0.472193        0.573834
0.912                    0.47444        0.572237
0.913                   0.476681        0.570631
0.914                   0.478916        0.569016
0.915                   0.481145        0.567393
0.916                   0.483367         0.56576
0.917                   0.485584        0.564118
0.918                   0.487795        0.562467
0.919                   0.489999        0.560808
0.92                    0.492198        0.559139
0.921                    0.49439        0.557462
0.922                   0.496575        0.555775
0.923                   0.498755         0.55408
0.924                   0.500928        0.552376
0.925                   0.503095        0.550664
0.926                   0.505255        0.548942
0.927                   0.507409        0.547212
0.928                   0.509556        0.545474
0.929                   0.511697        0.543726
0.93                    0.513831         0.54197
0.931                   0.515958        0.540206
0.932                   0.518079        0.538433
0.933                   0.520194        0.536651
0.934                   0.522301        0.534861
0.935                   0.524402        0.533063
0.936                   0.526496        0.531256
0.937                   0.528583        0.529441
0.938                   0.530664        0.527617
0.939                   0.532737        0.525785
0.94                    0.534804        0.523945
0.941                   0.536864        0.522096
0.942                   0.538917        0.520239
0.943                   0.540962        0.518374
0.944                   0.543001        0.516501
0.945                   0.545033         0.51462
0.946                   0.547057         0.51273
0.947                   0.549075        0.510833
0.948                   0.551085        0.508927
0.949                   0.553088        0.507013
0.95                    0.555084        0.505092
0.951                   0.557073        0.503162
0.952                   0.559054        0.501225
0.953                   0.561028         0.49928
0.954                   0.562995        0.497326
0.955                   0.564954        0.495365
0.956                   0.566906        0.493397
0.957                    0.56885         0.49142
0.958                   0.570787        0.489436
0.959                   0.572717        0.487444
0.96                    0.574639        0.485444
0.961                   0.576553        0.483437
0.962                    0.57846        0.481422
0.963                   0.580359          0.4794
0.964                   0.582251         0.47737
0.965                   0.584135        0.475332
0.966                   0.586011        0.473287
0.967                    0.58788        0.471235
0.968                   0.589741        0.469175
0.969                   0.591594        0.467108
0.97                    0.593439        0.465034
0.971                   0.595276        0.462952
0.972                   0.597106        0.460863
0.973                   0.598927        0.458767
0.974                   0.600741        0.456664
0.975                   0.602547        0.454553
0.976                   0.604345        0.452436
0.977                   0.606134        0.450311
0.978                   0.607916        0.448179
0.979                    0.60969        0.446041
0.98                    0.611456        0.443895
0.981                   0.613213        0.441742
0.982                   0.614963        0.439583
0.983                   0.616704        0.437416
0.984                   0.618437        0.435243
0.985                   0.620162        0.433063
0.986                   0.621879        0.430876
0.987                   0.623587        0.428682
0.988                   0.625287        0.426482
0.989                   0.626979        0.424275
0.99                    0.628663        0.422062
0.991                   0.630338        0.419841
0.992                   0.632005        0.417615
0.993                   0.633663        0.415381
0.994                   0.635313        0.413142
0.995                   0.636955        0.410895
0.996                   0.638588        0.408643
0.997                   0.640213        0.406384
0.998                   0.641829        0.404118
0.999                   0.643436        0.401847
1                       0.645036        0.399569
1.001                   0.646626        0.397285
1.002                   0.648208        0.394994
1.003                   0.649781        0.392698
1.004                   0.651346        0.390395
1.005                   0.652902        0.388086
1.006                   0.654449        0.385771
1.007                   0.655988         0.38345
1.008                   0.657518        0.381124
1.009                   0.659039        0.378791
1.01                    0.660551        0.376452
1.011                   0.662055        0.374107
1.012                   0.663549        0.371757
1.013                   0.665035        0.369401
1.014                   0.666512        0.367039
1.015                   0.667981        0.364671
1.016                    0.66944        0.362298
1.017                    0.67089        0.359919
1.018                   0.672332        0.357534
1.019                   0.673764        0.355144
1.02                    0.675188        0.352748
1.021                   0.676603        0.350347
1.022                   0.678008         0.34794
1.023                   0.679405        0.345527
1.024                   0.680792         0.34311
1.025                   0.682171        0.340687
1.026                    0.68354        0.338258
1.027                     0.6849        0.335825
1.028                   0.686251        0.333386
1.029                   0.687593        0.330942
1.03                    0.688926        0.328493
1.031                    0.69025        0.326038
1.032                   0.691565        0.323579
1.033                    0.69287        0.321114
1.034                   0.694166        0.318644
1.035                   0.695453         0.31617
1.036                   0.696731         0.31369
1.037                   0.697999        0.311206
1.038                   0.699258        0.308716
1.039                   0.700508        0.306222
1.04                    0.701748        0.303723
1.041                   0.702979        0.301219
1.042                   0.704201        0.298711
1.043                   0.705413        0.296197
1.044                   0.706616        0.293679
1.045                    0.70781        0.291157
1.046                   0.708994         0.28863
1.047                   0.710169        0.286098
1.048                   0.711334        0.283562
1.049                    0.71249        0.281021
1.05                    0.713637        0.278476
1.051                   0.714774        0.275927
1.052                   0.715901        0.273373
1.053                   0.717019        0.270815
1.054                   0.718127        0.268252
1.055                   0.719226        0.265686
1.056                   0.720315        0.263115
1.057                   0.721395         0.26054
1.058                   0.722465         0.25796
1.059                   0.723526        0.255377
1.06                    0.724577         0.25279
1.061                   0.725618        0.250198
1.062                    0.72665        0.247603
1.063                   0.727672        0.245004
1.064                   0.728684          0.2424
1.065                   0.729687        0.239793
1.066                    0.73068        0.237182
1.067                   0.731663        0.234568
1.068                   0.732637        0.231949
1.069                   0.733601        0.229327
1.07                    0.734555        0.226701
1.071                   0.735499        0.224071
1.072                   0.736434        0.221438
1.073                   0.737359        0.218802
1.074                   0.738274        0.216161
1.075                   0.739179        0.213518
1.076                   0.740075         0.21087
1.077                    0.74096         0.20822
1.078                   0.741836        0.205566
1.079                   0.742702        0.202909
1.08                    0.743558        0.200248
1.081                   0.744405        0.197584
1.082                   0.745241        0.194917
1.083                   0.746068        0.192247
1.084                   0.746884        0.189573
1.085                   0.747691        0.186897
1.086                   0.748488        0.184217
1.087                   0.749275        0.181534
1.088                   0.750052        0.178848
1.089                   0.750819         0.17616
1.09                    0.751577        0.173468
1.091                   0.752324        0.170774
1.092                   0.753061        0.168076
1.093                   0.753788        0.165376
1.094                   0.754506        0.162673
1.095                   0.755213        0.159968
1.096                    0.75591        0.157259
1.097                   0.756598        0.154548
1.098                   0.757275        0.151835
1.099                   0.757943        0.149119
1.1                       0.7586          0.1464
1.101                   0.759247        0.143679
1.102                   0.759884        0.140955
1.103                   0.760512        0.138229
1.104                   0.761129          0.1355
1.105                   0.761736         0.13277
1.106                   0.762333        0.130036
1.107                    0.76292        0.127301
1.108                   0.763497        0.124563
1.109                   0.764063        0.121823
1.11                     0.76462        0.119081
1.111                   0.765167        0.116337
1.112                   0.765703        0.113591
1.113                   0.766229        0.110842
1.114                   0.766746        0.108092
1.115                   0.767252         0.10534
1.116                   0.767748        0.102586
1.117                   0.768234       0.0998295
1.118                   0.768709       0.0970715
1.119                   0.769175       0.0943118
1.12                     0.76963       0.0915502
1.121                   0.770075       0.0887869
1.122                   0.770511       0.0860219
1.123                   0.770935       0.0832552
1.124                    0.77135       0.0804869
1.125                   0.771755        0.077717
1.126                   0.772149       0.0749456
1.127                   0.772533       0.0721726
1.128                   0.772907       0.0693982
1.129                   0.773271       0.0666224
1.13                    0.773625       0.0638451
1.131                   0.773968       0.0610665
1.132                   0.774301       0.0582866
1.133                   0.774624       0.0555054
1.134                   0.774937        0.052723
1.135                    0.77524       0.0499394
1.136                   0.775532       0.0471546
1.137                   0.775814       0.0443686
1.138                   0.776086       0.0415816
1.139                   0.776348       0.0387935
1.14                    0.776599       0.0360044
1.141                    0.77684       0.0332144
1.142                   0.777071       0.0304234
1.143                   0.777292       0.0276315
1.144                   0.777503       0.0248388
1.145                   0.777703       0.0220452
1.146                   0.777893       0.0192509
1.147                   0.778073       0.0164558
1.148                   0.778242         0.01366
1.149                   0.778402       0.0108636
1.15                    0.778551      0.00806649
1.151                   0.778689      0.00526882
1.152                   0.778818      0.00247061
1.153                   0.778936    -0.000328118
1.154                   0.779044     -0.00312732
1.155                   0.779142     -0.00592695
1.156                    0.77923     -0.00872698
1.157                   0.779307      -0.0115274
1.158                   0.779374      -0.0143281
1.159                   0.779431      -0.0171291
1.16                    0.779478      -0.0199303
1.161                   0.779514      -0.0227317
1.162                    0.77954      -0.0255333
1.163                   0.779556       -0.028335
1.164                   0.779561      -0.0311369
1.165                   0.779557      -0.0339387
1.166                   0.779542      -0.0367406
1.167                   0.779517      -0.0395425
1.168                   0.779481      -0.0423442
1.169                   0.779436      -0.0451459
1.17                     0.77938      -0.0479474
1.171                   0.779314      -0.0507488
1.172                   0.779237      -0.0535499
1.173                   0.779151      -0.0563508
1.174                   0.779054      -0.0591514
1.175                   0.778947      -0.0619517
1.176                   0.778829      -0.0647515
1.177                   0.778702       -0.067551
1.178                   0.778564        -0.07035
1.179                   0.778416      -0.0731485
1.18                    0.778258      -0.0759465
1.181                    0.77809       -0.078744
1.182                   0.777911      -0.0815408
1.183                   0.777722       -0.084337
1.184                   0.777523      -0.0871325
1.185                   0.777314      -0.0899273
1.186                   0.777094      -0.0927214
1.187                   0.776865      -0.0955146
1.188                   0.776625       -0.098307
1.189                   0.776375       -0.101099
1.19                    0.776115       -0.103889
1.191                   0.775844       -0.106679
1.192                   0.775564       -0.109468
1.193                   0.775273       -0.112255
1.194                   0.774972       -0.115042
1.195                   0.774661       -0.117827
1.196                    0.77434       -0.120612
1.197                   0.774009       -0.123395
1.198                   0.773667       -0.126177
1.199                   0.773316       -0.128958
1.2                     0.772954       -0.131737
1.201                   0.772582       -0.134515
1.202                     0.7722       -0.137292
1.203                   0.771808       -0.140067
1.204                   0.771406       -0.142841
1.205                   0.770994       -0.145614
1.206                   0.770571       -0.148385
1.207                   0.770139       -0.151154
1.208                   0.769697       -0.153922
1.209                   0.769244       -0.156688
1.21                    0.768781       -0.159452
1.211                   0.768309       -0.162215
1.212                   0.767826       -0.164976
1.213                   0.767333       -0.167735
1.214                    0.76683       -0.170492
1.215                   0.766317       -0.173248
1.216                   0.765795       -0.176002
1.217                   0.765262       -0.178753
1.218                   0.764719       -0.181503
1.219                   0.764166       -0.184251
1.22                    0.763603       -0.186996
1.221                    0.76303        -0.18974
1.222                   0.762447       -0.192481
1.223                   0.761855       -0.195221
1.224                   0.761252       -0.197958
1.225                   0.760639       -0.200693
1.226                   0.760017       -0.203425
1.227                   0.759384       -0.206155
1.228                   0.758742       -0.208883
1.229                    0.75809       -0.211609
1.23                    0.757427       -0.214332
1.231                   0.756755       -0.217053
1.232                   0.756074       -0.219771
1.233                   0.755382       -0.222486
1.234                    0.75468         -0.2252
1.235                   0.753969        -0.22791
1.236                   0.753248       -0.230618
1.237                   0.752516       -0.233323
1.238                   0.751776       -0.236025
1.239                   0.751025       -0.238725
1.24                    0.750265       -0.241422
1.241                   0.749494       -0.244116
1.242                   0.748714       -0.246807
1.243                   0.747925       -0.249495
1.244                   0.747125       -0.252181
1.245                   0.746316       -0.254863
1.246                   0.745497       -0.257542
1.247                   0.744669       -0.260219
1.248                   0.743831       -0.262892
1.249                   0.742983       -0.265562
1.25                    0.742125       -0.268229
1.251                   0.741258       -0.270892
1.252                   0.740381       -0.273553
1.253                   0.739495        -0.27621
1.254                   0.738599       -0.278864
1.255                   0.737693       -0.281515
1.256                   0.736778       -0.284162
1.257                   0.735854       -0.286806
1.258                   0.734919       -0.289446
1.259                   0.733976       -0.292083
1.26                    0.733022       -0.294716
1.261                    0.73206       -0.297346
1.262                   0.731087       -0.299972
1.263                   0.730106       -0.302595
1.264                   0.729114       -0.305214
1.265                   0.728114       -0.307829
1.266                   0.727104        -0.31044
1.267                   0.726084       -0.313048
1.268                   0.725055       -0.315652
1.269                   0.724017       -0.318252
1.27                     0.72297       -0.320848
1.271                   0.721913       -0.323441
1.272                   0.720847       -0.326029
1.273                   0.719771       -0.328614
1.274                   0.718686       -0.331194
1.275                   0.717592        -0.33377
1.276                   0.716489       -0.336342
1.277                   0.715376       -0.338911
1.278                   0.714255       -0.341475
1.279                   0.713124       -0.344035
1.28                    0.711983        -0.34659
1.281                   0.710834       -0.349141
1.282                   0.709675       -0.351689
1.283                   0.708508       -0.354231
1.284                   0.707331        -0.35677
1.285                   0.706145       -0.359304
1.286                    0.70495       -0.361833
1.287                   0.703746       -0.364358
1.288                   0.702533       -0.366879
1.289                   0.701311       -0.369395
1.29                     0.70008       -0.371906
1.291                    0.69884       -0.374413
1.292                   0.697591       -0.376916
1.293                   0.696333       -0.379413
1.294                   0.695066       -0.381906
1.295                    0.69379       -0.384395
1.296                   0.692506       -0.386878
1.297                   0.691212       -0.389357
1.298                    0.68991       -0.391831
1.299                   0.688599         -0.3943
1.3                     0.687279       -0.396764
1.301                    0.68595       -0.399223
1.302                   0.684612       -0.401677
1.303                   0.683266       -0.404126
1.304                   0.681911       -0.406571
1.305                   0.680547        -0.40901
1.306                   0.679175       -0.411444
1.307                   0.677793       -0.413873
1.308                   0.676404       -0.416297
1.309                   0.675005       -0.418715
1.31                    0.673598       -0.421129
1.311                   0.672183       -0.423537
1.312                   0.670759        -0.42594
1.313                   0.669326       -0.428338
1.314                   0.667885        -0.43073
1.315                   0.666435       -0.433117
1.316                   0.664977       -0.435498
1.317                   0.663511       -0.437874
1.318                   0.662036       -0.440245
1.319                   0.660552        -0.44261
1.32                    0.659061        -0.44497
1.321                   0.657561       -0.447324
1.322                   0.656052       -0.449672
1.323                   0.654535       -0.452015
1.324                    0.65301       -0.454352
1.325                   0.651477       -0.456684
1.326                   0.649936        -0.45901
1.327                   0.648386        -0.46133
1.328                   0.646828       -0.463644
1.329                   0.645262       -0.465953
1.33                    0.643688       -0.468256
1.331                   0.642106       -0.470553
1.332                   0.640515       -0.472844
1.333                   0.638917       -0.475129
1.334                    0.63731       -0.477408
1.335                   0.635696       -0.479681
1.336                   0.634073       -0.481948
1.337                   0.632443       -0.484209
1.338                   0.630804       -0.486464
1.339                   0.629158       -0.488713
1.34                    0.627504       -0.490956
1.341                   0.625842       -0.493193
1.342                   0.624172       -0.495424
1.343                   0.622494       -0.497648
1.344                   0.620809       -0.499866
1.345                   0.619115       -0.502078
1.346                   0.617414       -0.504284
1.347                   0.615705       -0.506483
1.348                   0.613989       -0.508676
1.349                   0.612265       -0.510863
1.35                    0.610533       -0.513043
1.351                   0.608794       -0.515217
1.352                   0.607047       -0.517384
1.353                   0.605292       -0.519545
1.354                    0.60353       -0.521699
1.355                   0.601761       -0.523847
1.356                   0.599984       -0.525989
1.357                   0.598199       -0.528123
1.358                   0.596407       -0.530252
1.359                   0.594608       -0.532373
1.36                    0.592802       -0.534488
1.361                   0.590987       -0.536596
1.362                   0.589166       -0.538698
1.363                   0.587338       -0.540792
1.364                   0.585502        -0.54288
1.365                   0.583659       -0.544962
1.366                   0.581808       -0.547036
1.367                   0.579951       -0.549104
1.368                   0.578087       -0.551164
1.369                   0.576215       -0.553218
1.37                    0.574336       -0.555265
1.371                    0.57245       -0.557305
1.372                   0.570557       -0.559338
1.373                   0.568657       -0.561364
1.374                   0.566751       -0.563383
1.375                   0.564837       -0.565395
1.376                   0.562916         -0.5674
1.377                   0.560988       -0.569398
1.378                   0.559054       -0.571389
1.379                   0.557113       -0.573372
1.38                    0.555165       -0.575349
1.381                    0.55321       -0.577318
1.382                   0.551248        -0.57928
1.383                    0.54928       -0.581235
1.384                   0.547305       -0.583183
1.385                   0.545323       -0.585123
1.386                   0.543335       -0.587056
1.387                    0.54134       -0.588982
1.388                   0.539338         -0.5909
1.389                    0.53733       -0.592811
1.39                    0.535316       -0.594715
1.391                   0.533295       -0.596611
1.392                   0.531267         -0.5985
1.393                   0.529233       -0.600382
1.394                   0.527193       -0.602256
1.395                   0.525146       -0.604122
1.396                   0.523094       -0.605981
1.397                   0.521034       -0.607833
1.398                   0.518969       -0.609677
1.399                   0.516897       -0.611513
1.4                     0.514819       -0.613342
1.401                   0.512735       -0.615163
1.402                   0.510645       -0.616977
1.403                   0.508548       -0.618783
1.404                   0.506446       -0.620581
1.405                   0.504337       -0.622372
1.406                   0.502223       -0.624154
1.407                   0.500102       -0.625929
1.408                   0.497975       -0.627697
1.409                   0.495843       -0.629456
1.41                    0.493705       -0.631208
1.411                    0.49156       -0.632952
1.412                   0.489411       -0.634688
1.413                   0.487255       -0.636417
1.414                   0.485093       -0.638137
1.415                   0.482926        -0.63985
1.416                   0.480752       -0.641554
1.417                   0.478574       -0.643251
1.418                   0.476389        -0.64494
1.419                   0.474199       -0.646621
1.42                    0.472004       -0.648294
1.421                   0.469803       -0.649959
1.422                   0.467596       -0.651616
1.423                   0.465384       -0.653265
1.424                   0.463166       -0.654905
1.425                   0.460943       -0.656538
1.426                   0.458714       -0.658163
1.427                   0.456481        -0.65978
1.428                   0.454242       -0.661388
1.429                   0.451997       -0.662989
1.43                    0.449747       -0.664581
1.431                   0.447493       -0.666165
1.432                   0.445232       -0.667741
1.433                   0.442967       -0.669308
1.434                   0.440697       -0.670868
1.435                   0.438421       -0.672419
1.436                    0.43614       -0.673962
1.437                   0.433855       -0.675497
1.438                   0.431564       -0.677024
1.439                   0.429269       -0.678542
1.44                    0.426968       -0.680052
1.441                   0.424662       -0.681553
1.442                   0.422352       -0.683047
1.443                   0.420037       -0.684532
1.444                   0.417717       -0.686008
1.445                   0.415392       -0.687477
1.446                   0.413062       -0.688936
1.447                   0.410728       -0.690388
1.448                   0.408389       -0.691831
1.449                   0.406046       -0.693265
1.45                    0.403698       -0.694692
1.451                   0.401345       -0.696109
1.452                   0.398987       -0.697519
1.453                   0.396625       -0.698919
1.454                   0.394259       -0.700312
1.455                   0.391888       -0.701695
1.456                   0.389513        -0.70307
1.457                   0.387134       -0.704437
1.458                    0.38475       -0.705795
1.459                   0.382361       -0.707145
1.46                    0.379969       -0.708486
1.461                   0.377572       -0.709818
1.462                   0.375171       -0.711142
1.463                   0.372766       -0.712458
1.464                   0.370356       -0.713764
1.465                   0.367943       -0.715062
1.466                   0.365526       -0.716351
1.467                   0.363104       -0.717632
1.468                   0.360678       -0.718904
1.469                   0.358249       -0.720168
1.47                    0.355815       -0.721422
1.471                   0.353378       -0.722668
1.472                   0.350936       -0.723906
1.473                   0.348491       -0.725134
1.474                   0.346042       -0.726354
1.475                   0.343589       -0.727565
1.476                   0.341133       -0.728768
1.477                   0.338673       -0.729961
1.478                   0.336209       -0.731146
1.479                   0.333741       -0.732322
1.48                     0.33127       -0.733489
1.481                   0.328795       -0.734648
1.482                   0.326317       -0.735798
1.483                   0.323835       -0.736939
1.484                   0.321349       -0.738071
1.485                   0.318861       -0.739194
1.486                   0.316368       -0.740308
1.487                   0.313873       -0.741414
1.488                   0.311374       -0.742511
1.489                   0.308871       -0.743599
1.49                    0.306366       -0.744678
1.491                   0.303857       -0.745748
1.492                   0.301345       -0.746809
1.493                    0.29883       -0.747861
1.494                   0.296311       -0.748905
1.495                    0.29379       -0.749939
1.496                   0.291265       -0.750965
1.497                   0.288738       -0.751982
1.498                   0.286207       -0.752989
1.499                   0.283673       -0.753988
1.5                     0.281137       -0.754978
1.501                   0.278597       -0.755959
1.502                   0.276055       -0.756931
1.503                    0.27351       -0.757894
1.504                   0.270962       -0.758848
1.505                   0.268411       -0.759793
1.506                   0.265857        -0.76073
1.507                   0.263301       -0.761657
1.508                   0.260742       -0.762575
1.509                   0.258181       -0.763484
1.51                    0.255616       -0.764384
1.511                    0.25305       -0.765275
1.512                   0.250481       -0.766158
1.513                   0.247909       -0.767031
1.514                   0.245334       -0.767895
1.515                   0.242757        -0.76875
1.516                   0.240179       -0.769596
1.517                   0.237597       -0.770433
1.518                   0.235013       -0.771261
1.519                   0.232427        -0.77208
1.52                    0.229838        -0.77289
1.521                   0.227247       -0.773691
1.522                   0.224655       -0.774483
1.523                   0.222059       -0.775266
1.524                   0.219462        -0.77604
1.525                   0.216863       -0.776804
1.526                   0.214261        -0.77756
1.527                   0.211658       -0.778306
1.528                   0.209052       -0.779044
1.529                   0.206445       -0.779772
1.53                    0.203835       -0.780492
1.531                   0.201224       -0.781202
1.532                    0.19861       -0.781903
1.533                   0.195995       -0.782595
1.534                   0.193379       -0.783278
1.535                    0.19076       -0.783952
1.536                   0.188139       -0.784617
1.537                   0.185517       -0.785273
1.538                   0.182893        -0.78592
1.539                   0.180268       -0.786557
1.54                    0.177641       -0.787186
1.541                   0.175012       -0.787805
1.542                   0.172382       -0.788416
1.543                    0.16975       -0.789017
1.544                   0.167116       -0.789609
1.545                   0.164482       -0.790192
1.546                   0.161846       -0.790766
1.547                   0.159208       -0.791331
1.548                   0.156569       -0.791887
1.549                   0.153929       -0.792433
1.55                    0.151287       -0.792971
1.551                   0.148645       -0.793499
1.552                   0.146001       -0.794019
1.553                   0.143355       -0.794529
1.554                   0.140709        -0.79503
1.555                   0.138062       -0.795522
1.556                   0.135413       -0.796005
1.557                   0.132763       -0.796479
1.558                   0.130113       -0.796944
1.559                   0.127461         -0.7974
1.56                    0.124808       -0.797847
1.561                   0.122155       -0.798284
1.562                     0.1195       -0.798713
1.563                   0.116845       -0.799132
1.564                   0.114189       -0.799542
1.565                   0.111531       -0.799943
1.566                   0.108873       -0.800336
1.567                   0.106215       -0.800719
1.568                   0.103555       -0.801093
1.569                   0.100896       -0.801458
1.57                    0.098235       -0.801813
1.571                  0.0955737        -0.80216
1.572                  0.0929119       -0.802498
1.573                  0.0902497       -0.802827
1.574                  0.0875867       -0.803146
1.575                  0.0849234       -0.803457
1.576                  0.0822593       -0.803758
1.577                   0.079595       -0.804051
1.578                  0.0769304       -0.804334
1.579                  0.0742654       -0.804608
1.58                   0.0715999       -0.804874
1.581                  0.0689344        -0.80513
1.582                  0.0662683       -0.805377
1.583                  0.0636022       -0.805616
1.584                  0.0609357       -0.805845
1.585                  0.0582689       -0.806065
1.586                  0.0556023       -0.806276
1.587                  0.0529354       -0.806478
1.588                  0.0502683       -0.806671
1.589                  0.0476015       -0.806856
1.59                   0.0449343       -0.807031
1.591                  0.0422674       -0.807197
1.592                  0.0396002       -0.807354
1.593                  0.0369332       -0.807502
1.594                  0.0342663       -0.807641
1.595                  0.0315996       -0.807772
1.596                  0.0289331       -0.807893
1.597                  0.0262665       -0.808005
1.598                  0.0236003       -0.808108
1.599                  0.0209345       -0.808203
1.6                    0.0182687       -0.808288
1.601                  0.0156034       -0.808365
1.602                  0.0129386       -0.808432
1.603                  0.0102737       -0.808491
1.604                  0.0076095       -0.808541
1.605                 0.00494573       -0.808581
1.606                 0.00228218       -0.808613
1.607               -0.000380725       -0.808636
1.608                -0.00304316        -0.80865
1.609                 -0.0057049       -0.808656
1.61                 -0.00836629       -0.808652
1.611                 -0.0110269       -0.808639
1.612                 -0.0136872       -0.808618
1.613                 -0.0163464       -0.808588
1.614                 -0.0190051       -0.808548
1.615                 -0.0216632         -0.8085
1.616                 -0.0243204       -0.808444
1.617                 -0.0269768       -0.808378
1.618                 -0.0296325       -0.808303
1.619                 -0.0322873        -0.80822
1.62                  -0.0349413       -0.808128
1.621                 -0.0375943       -0.808027
1.622                 -0.0402466       -0.807917
1.623                 -0.0428977       -0.807799
1.624                 -0.0455479       -0.807671
1.625                 -0.0481971       -0.807535
1.626                 -0.0508454        -0.80739
1.627                 -0.0534923       -0.807237
1.628                 -0.0561385       -0.807074
1.629                 -0.0587833       -0.806903
1.63                  -0.0614272       -0.806723
1.631                 -0.0640695       -0.806535
1.632                 -0.0667109       -0.806337
1.633                 -0.0693511       -0.806131
1.634                 -0.0719902       -0.805917
1.635                 -0.0746277       -0.805693
1.636                  -0.077264       -0.805461
1.637                 -0.0798989       -0.805221
1.638                 -0.0825324       -0.804971
1.639                 -0.0851647       -0.804713
1.64                  -0.0877952       -0.804446
1.641                 -0.0904245       -0.804171
1.642                 -0.0930525       -0.803887
1.643                 -0.0956788       -0.803594
1.644                 -0.0983034       -0.803293
1.645                  -0.100927       -0.802983
1.646                  -0.103548       -0.802665
1.647                  -0.106168       -0.802338
1.648                  -0.108787       -0.802002
1.649                  -0.111403       -0.801658
1.65                   -0.114018       -0.801306
1.651                  -0.116631       -0.800944
1.652                  -0.119243       -0.800575
1.653                  -0.121853       -0.800196
1.654                  -0.124461       -0.799809
1.655                  -0.127067       -0.799414
1.656                  -0.129671        -0.79901
1.657                  -0.132273       -0.798598
1.658                  -0.134874       -0.798177
1.659                  -0.137472       -0.797748
1.66                   -0.140069       -0.797311
1.661                  -0.142663       -0.796864
1.662                  -0.145256        -0.79641
1.663                  -0.147846       -0.795947
1.664                  -0.150435       -0.795476
1.665                  -0.153021       -0.794996
1.666                  -0.155605       -0.794508
1.667                  -0.158187       -0.794011
1.668                  -0.160767       -0.793506
1.669                  -0.163345       -0.792993
1.67                   -0.165921       -0.792472
1.671                  -0.168494       -0.791942
1.672                  -0.171065       -0.791404
1.673                  -0.173634       -0.790857
1.674                    -0.1762       -0.790302
1.675                  -0.178764       -0.789739
1.676                  -0.181326       -0.789168
1.677                  -0.183885       -0.788588
1.678                  -0.186442          -0.788
1.679                  -0.188996       -0.787404
1.68                   -0.191548         -0.7868
1.681                  -0.194097       -0.786187
1.682                  -0.196644       -0.785566
1.683                  -0.199189       -0.784937
1.684                   -0.20173         -0.7843
1.685                   -0.20427       -0.783655
1.686                  -0.206806       -0.783001
1.687                   -0.20934        -0.78234
1.688                  -0.211871        -0.78167
1.689                    -0.2144       -0.780992
1.69                   -0.216925       -0.780306
1.691                  -0.219449       -0.779612
1.692                  -0.221969        -0.77891
1.693                  -0.224486       -0.778199
1.694                  -0.227001       -0.777481
1.695                  -0.229513       -0.776755
1.696                  -0.232022        -0.77602
1.697                  -0.234528       -0.775278
1.698                  -0.237031       -0.774527
1.699                  -0.239532       -0.773769
1.7                    -0.242029       -0.773002
1.701                  -0.244524       -0.772228
1.702                  -0.247015       -0.771445
1.703                  -0.249503       -0.770655
1.704                  -0.251989       -0.769857
1.705                  -0.254471       -0.769051
1.706                   -0.25695       -0.768236
1.707                  -0.259426       -0.767415
1.708                  -0.261899       -0.766584
1.709                  -0.264368       -0.765747
1.71                   -0.266835       -0.764901
1.711                  -0.269298       -0.764048
1.712                  -0.271759       -0.763186
1.713                  -0.274215       -0.762317
1.714                  -0.276669        -0.76144
1.715                  -0.279119       -0.760555
1.716                  -0.281566       -0.759663
1.717                  -0.284009       -0.758763
1.718                  -0.286449       -0.757855
1.719                  -0.288886       -0.756939
1.72                    -0.29132       -0.756015
1.721                  -0.293749       -0.755084
1.722                  -0.296176       -0.754145
1.723                  -0.298599       -0.753198
1.724                  -0.301019       -0.752244
1.725                  -0.303434       -0.751282
1.726                  -0.305847       -0.750313
1.727                  -0.308255       -0.749335
1.728                  -0.310661        -0.74835
1.729                  -0.313062       -0.747358
1.73                    -0.31546       -0.746358
1.731                  -0.317855        -0.74535
1.732                  -0.320245       -0.744335
1.733                  -0.322632       -0.743312
1.734                  -0.325015       -0.742282
1.735                  -0.327395       -0.741244
1.736                   -0.32977       -0.740199
1.737                  -0.332142       -0.739146
1.738                   -0.33451       -0.738085
1.739                  -0.336874       -0.737018
1.74                   -0.339235       -0.735942
1.741                  -0.341591        -0.73486
1.742                  -0.343944        -0.73377
1.743                  -0.346292       -0.732672
1.744                  -0.348637       -0.731567
1.745                  -0.350978       -0.730455
1.746                  -0.353315       -0.729335
1.747                  -0.355647       -0.728208
1.748                  -0.357976       -0.727074
1.749                  -0.360301       -0.725932
1.75                   -0.362621       -0.724783
1.751                  -0.364938       -0.723627
1.752                   -0.36725       -0.722463
1.753                  -0.369558       -0.721292
1.754                  -0.371862       -0.720114
1.755                  -0.374162       -0.718929
1.756                  -0.376458       -0.717736
1.757                  -0.378749       -0.716536
1.758                  -0.381036       -0.715329
1.759                  -0.383319       -0.714115
1.76                   -0.385598       -0.712894
1.761                  -0.387872       -0.711665
1.762                  -0.390142        -0.71043
1.763                  -0.392408       -0.709187
1.764                  -0.394669       -0.707937
1.765                  -0.396926        -0.70668
1.766                  -0.399179       -0.705416
1.767                  -0.401427       -0.704145
1.768                  -0.403671       -0.702867
1.769                   -0.40591       -0.701582
1.77                   -0.408145        -0.70029
1.771                  -0.410375        -0.69899
1.772                    -0.4126       -0.697684
1.773                  -0.414821       -0.696371
1.774                  -0.417038       -0.695051
1.775                   -0.41925       -0.693724
1.776                  -0.421457        -0.69239
1.777                   -0.42366        -0.69105
1.778                  -0.425858       -0.689702
1.779                  -0.428051       -0.688347
1.78                    -0.43024       -0.686986
1.781                  -0.432424       -0.685617
1.782                  -0.434603       -0.684242
1.783                  -0.436778        -0.68286
1.784                  -0.438948       -0.681471
1.785                  -0.441112       -0.680076
1.786                  -0.443272       -0.678674
1.787                  -0.445428       -0.677265
1.788                  -0.447578       -0.675849
1.789                  -0.449724       -0.674427
1.79                   -0.451864       -0.672997
1.791                     -0.454       -0.671562
1.792                  -0.456131       -0.670119
1.793                  -0.458256        -0.66867
1.794                  -0.460378       -0.667214
1.795                  -0.462493       -0.665752
1.796                  -0.464604       -0.664283
1.797                   -0.46671       -0.662807
1.798                  -0.468811       -0.661325
1.799                  -0.470907       -0.659836
1.8                    -0.472997       -0.658341
1.801                  -0.475083       -0.656839
1.802                  -0.477163       -0.655331
1.803                  -0.479238       -0.653816
1.804                  -0.481308       -0.652295
1.805                  -0.483373       -0.650767
1.806                  -0.485433       -0.649233
1.807                  -0.487487       -0.647692
1.808                  -0.489536       -0.646145
1.809                   -0.49158       -0.644592
1.81                   -0.493619       -0.643032
1.811                  -0.495652       -0.641466
1.812                   -0.49768       -0.639894
1.813                  -0.499703       -0.638315
1.814                   -0.50172        -0.63673
1.815                  -0.503732       -0.635139
1.816                  -0.505739       -0.633542
1.817                   -0.50774       -0.631938
1.818                  -0.509736       -0.630328
1.819                  -0.511726       -0.628712
1.82                   -0.513711       -0.627089
1.821                   -0.51569       -0.625461
1.822                  -0.517664       -0.623826
1.823                  -0.519632       -0.622185
1.824                  -0.521594       -0.620539
1.825                  -0.523551       -0.618885
1.826                  -0.525503       -0.617226
1.827                  -0.527449       -0.615561
1.828                  -0.529389        -0.61389
1.829                  -0.531324       -0.612213
1.83                   -0.533253       -0.610529
1.831                  -0.535176        -0.60884
1.832                  -0.537094       -0.607145
1.833                  -0.539006       -0.605444
1.834                  -0.540912       -0.603737
1.835                  -0.542812       -0.602024
1.836                  -0.544707       -0.600305
1.837                  -0.546596        -0.59858
1.838                  -0.548479       -0.596849
1.839                  -0.550356       -0.595113
1.84                   -0.552228       -0.593371
1.841                  -0.554093       -0.591622
1.842                  -0.555953       -0.589869
1.843                  -0.557806       -0.588109
1.844                  -0.559654       -0.586344
1.845                  -0.561496       -0.584572
1.846                  -0.563332       -0.582796
1.847                  -0.565162       -0.581013
1.848                  -0.566986       -0.579225
1.849                  -0.568804       -0.577431
1.85                   -0.570616       -0.575632
1.851                  -0.572422       -0.573827
1.852                  -0.574222       -0.572016
1.853                  -0.576016         -0.5702
1.854                  -0.577804       -0.568379
1.855                  -0.579585       -0.566552
1.856                  -0.581361       -0.564719
1.857                   -0.58313        -0.56288
1.858                  -0.584893       -0.561037
1.859                   -0.58665       -0.559188
1.86                   -0.588401       -0.557333
1.861                  -0.590146       -0.555473
1.862                  -0.591884       -0.553608
1.863                  -0.593616       -0.551737
1.864                  -0.595342       -0.549861
1.865                  -0.597062        -0.54798
1.866                  -0.598775       -0.546093
1.867                  -0.600482       -0.544201
1.868                  -0.602183       -0.542304
1.869                  -0.603878       -0.540402
1.87                   -0.605566       -0.538494
1.871                  -0.607247       -0.536582
1.872                  -0.608922       -0.534664
1.873                  -0.610591       -0.532741
1.874                  -0.612254       -0.530812
1.875                   -0.61391       -0.528879
1.876                  -0.615559       -0.526941
1.877                  -0.617202       -0.524997
1.878                  -0.618839       -0.523049
1.879                  -0.620469       -0.521095
1.88                   -0.622093       -0.519137
1.881                   -0.62371       -0.517173
1.882                   -0.62532       -0.515205
1.883                  -0.626924       -0.513232
1.884                  -0.628521       -0.511253
1.885                  -0.630112        -0.50927
1.886                  -0.631696       -0.507282
1.887                  -0.633274       -0.505289
1.888                  -0.634845       -0.503292
1.889                  -0.636409       -0.501289
1.89                   -0.637967       -0.499282
1.891                  -0.639518        -0.49727
1.892                  -0.641062       -0.495253
1.893                  -0.642599       -0.493232
1.894                   -0.64413       -0.491206
1.895                  -0.645654       -0.489175
1.896                  -0.647171       -0.487139
1.897                  -0.648682       -0.485099
1.898                  -0.650185       -0.483055
1.899                  -0.651682       -0.481006
1.9                    -0.653173       -0.478952
1.901                  -0.654656       -0.476894
1.902                  -0.656132       -0.474831
1.903                  -0.657602       -0.472764
1.904                  -0.659064       -0.470693
1.905                  -0.660521       -0.468616
1.906                  -0.661969       -0.466536
1.907                  -0.663411       -0.464451
1.908                  -0.664847       -0.462362
1.909                  -0.666275       -0.460269
1.91                   -0.667696       -0.458171
1.911                   -0.66911       -0.456069
1.912                  -0.670518       -0.453962
1.913                  -0.671918       -0.451852
1.914                  -0.673311       -0.449737
1.915                  -0.674697       -0.447618
1.916                  -0.676077       -0.445495
1.917                  -0.677449       -0.443367
1.918                  -0.678814       -0.441236
1.919                  -0.680173       -0.439101
1.92                   -0.681524       -0.436961
1.921                  -0.682868       -0.434818
1.922                  -0.684204        -0.43267
1.923                  -0.685534       -0.430518
1.924                  -0.686857       -0.428363
1.925                  -0.688172       -0.426203
1.926                  -0.689481        -0.42404
1.927                  -0.690782       -0.421873
1.928                  -0.692076       -0.419702
1.929                  -0.693363       -0.417526
1.93                   -0.694643       -0.415348
1.931                  -0.695916       -0.413165
1.932                  -0.697181       -0.410979
1.933                  -0.698439       -0.408788
1.934                   -0.69969       -0.406595
1.935                  -0.700934       -0.404397
1.936                   -0.70217       -0.402196
1.937                  -0.703399       -0.399991
1.938                  -0.704621       -0.397782
1.939                  -0.705836        -0.39557
1.94                   -0.707043       -0.393355
1.941                  -0.708243       -0.391136
1.942                  -0.709436       -0.388913
1.943                  -0.710621       -0.386687
1.944                  -0.711799       -0.384457
1.945                   -0.71297       -0.382224
1.946                  -0.714133       -0.379988
1.947                  -0.715289       -0.377748
1.948                  -0.716438       -0.375504
1.949                  -0.717579       -0.373258
1.95                   -0.718713       -0.371008
1.951                   -0.71984       -0.368754
1.952                  -0.720959       -0.366498
1.953                   -0.72207       -0.364238
1.954                  -0.723175       -0.361975
1.955                  -0.724272       -0.359709
1.956                  -0.725361        -0.35744
1.957                  -0.726443       -0.355168
1.958                  -0.727518       -0.352892
1.959                  -0.728585       -0.350614
1.96                   -0.729644       -0.348332
1.961                  -0.730696       -0.346047
1.962                  -0.731741       -0.343759
1.963                  -0.732778       -0.341469
1.964                  -0.733808       -0.339175
1.965                   -0.73483       -0.336879
1.966                  -0.735845       -0.334579
1.967                  -0.736852       -0.332277
1.968                  -0.737852       -0.329971
1.969                  -0.738844       -0.327664
1.97                   -0.739829       -0.325353
1.971                  -0.740806       -0.323039
1.972                  -0.741775       -0.320723
1.973                  -0.742737       -0.318404
1.974                  -0.743692       -0.316082
1.975                  -0.744638       -0.313757
1.976                  -0.745578        -0.31143
1.977                  -0.746509         -0.3091
1.978                  -0.747433       -0.306768
1.979                   -0.74835       -0.304433
1.98                   -0.749259       -0.302096
1.981                   -0.75016       -0.299756
1.982                  -0.751054       -0.297413
1.983                   -0.75194       -0.295068
1.984                  -0.752819       -0.292721
1.985                   -0.75369       -0.290371
1.986                  -0.754553       -0.288019
1.987                  -0.755409       -0.285664
1.988                  -0.756257       -0.283307
1.989                  -0.757097       -0.280948
1.99                    -0.75793       -0.278586
1.991                  -0.758755       -0.276223
1.992                  -0.759572       -0.273857
1.993                  -0.760382       -0.271488
1.994                  -0.761184       -0.269118
1.995                  -0.761979       -0.266745
1.996                  -0.762766       -0.264371
1.997                  -0.763545       -0.261994
1.998                  -0.764317       -0.259615
1.999                   -0.76508       -0.257234
2                      -0.765836       -0.254851
