! TOUCHSTONE file generated by CST MICROWAVE STUDIO
! Date and time: Sun Aug  2 00:10:30 2026
! Project name: Sonda-Coaxial_21mm_DisifixB_v2_Agua_Destilada.cst
! Parameters = {h_recipiente=20; l_conector=50; r_arandela=35; r_ext=10.5; r_int=3; r_recipiente=100; z_recipiente=-80}
! Header version: 2018
! Port assignment regex: !\s*Touchstone port\s*([0-9]+)\s*=\s*(CST MWS port|CST DS port)\s*([0-9]+|Zmin|Zmax)\s*\(\"(.*)\"\)(\s*mode\s*([0-9]+))?.*
! Touchstone port assignment:
! Touchstone port 1 = CST MWS port 1 ("")
# GHz S RI R 50
0.001                   -0.10266     -0.00105764
0.002                  -0.102677     -0.00211518
0.003                  -0.102706     -0.00317258
0.004                  -0.102746     -0.00422969
0.005                  -0.102798     -0.00528645
0.006                  -0.102861     -0.00634276
0.007                  -0.102936     -0.00739857
0.008                  -0.103022     -0.00845374
0.009                   -0.10312     -0.00950822
0.01                    -0.10323      -0.0105619
0.011                   -0.10335      -0.0116147
0.012                  -0.103482      -0.0126665
0.013                  -0.103626      -0.0137173
0.014                  -0.103781      -0.0147669
0.015                  -0.103948      -0.0158153
0.016                  -0.104125      -0.0168623
0.017                  -0.104315      -0.0179079
0.018                  -0.104515      -0.0189519
0.019                  -0.104727      -0.0199944
0.02                    -0.10495      -0.0210351
0.021                  -0.105185       -0.022074
0.022                  -0.105431      -0.0231111
0.023                  -0.105688      -0.0241461
0.024                  -0.105956      -0.0251791
0.025                  -0.106235      -0.0262099
0.026                  -0.106526      -0.0272384
0.027                  -0.106828      -0.0282646
0.028                  -0.107141      -0.0292883
0.029                  -0.107465      -0.0303095
0.03                   -0.107801       -0.031328
0.031                  -0.108147      -0.0323438
0.032                  -0.108505      -0.0333568
0.033                  -0.108873      -0.0343669
0.034                  -0.109253      -0.0353739
0.035                  -0.109643      -0.0363779
0.036                  -0.110045      -0.0373787
0.037                  -0.110457      -0.0383762
0.038                   -0.11088      -0.0393703
0.039                  -0.111315       -0.040361
0.04                    -0.11176      -0.0413481
0.041                  -0.112216      -0.0423316
0.042                  -0.112682      -0.0433113
0.043                   -0.11316      -0.0442873
0.044                  -0.113648      -0.0452593
0.045                  -0.114147      -0.0462274
0.046                  -0.114657      -0.0471913
0.047                  -0.115177      -0.0481511
0.048                  -0.115708      -0.0491067
0.049                  -0.116249      -0.0500578
0.05                   -0.116801      -0.0510046
0.051                  -0.117363      -0.0519469
0.052                  -0.117936      -0.0528845
0.053                   -0.11852      -0.0538175
0.054                  -0.119113      -0.0547457
0.055                  -0.119717      -0.0556691
0.056                  -0.120332      -0.0565875
0.057                  -0.120956      -0.0575009
0.058                  -0.121591      -0.0584092
0.059                  -0.122236      -0.0593123
0.06                   -0.122891      -0.0602101
0.061                  -0.123557      -0.0611026
0.062                  -0.124232      -0.0619896
0.063                  -0.124917      -0.0628712
0.064                  -0.125613      -0.0637471
0.065                  -0.126318      -0.0646174
0.066                  -0.127033      -0.0654819
0.067                  -0.127758      -0.0663406
0.068                  -0.128493      -0.0671934
0.069                  -0.129237      -0.0680401
0.07                   -0.129991      -0.0688809
0.071                  -0.130755      -0.0697154
0.072                  -0.131529      -0.0705437
0.073                  -0.132312      -0.0713658
0.074                  -0.133104      -0.0721814
0.075                  -0.133906      -0.0729906
0.076                  -0.134717      -0.0737933
0.077                  -0.135538      -0.0745894
0.078                  -0.136368      -0.0753788
0.079                  -0.137207      -0.0761614
0.08                   -0.138055      -0.0769372
0.081                  -0.138913      -0.0777061
0.082                  -0.139779      -0.0784681
0.083                  -0.140655       -0.079223
0.084                  -0.141539      -0.0799707
0.085                  -0.142433      -0.0807114
0.086                  -0.143335      -0.0814447
0.087                  -0.144246      -0.0821707
0.088                  -0.145166      -0.0828893
0.089                  -0.146094      -0.0836005
0.09                   -0.147031       -0.084304
0.091                  -0.147977      -0.0850001
0.092                  -0.148931      -0.0856884
0.093                  -0.149893       -0.086369
0.094                  -0.150864      -0.0870418
0.095                  -0.151843      -0.0877067
0.096                  -0.152831      -0.0883637
0.097                  -0.153826      -0.0890127
0.098                   -0.15483      -0.0896537
0.099                  -0.155842      -0.0902865
0.1                    -0.156862      -0.0909111
0.101                  -0.157889      -0.0915274
0.102                  -0.158925      -0.0921355
0.103                  -0.159968      -0.0927351
0.104                  -0.161019      -0.0933263
0.105                  -0.162078      -0.0939091
0.106                  -0.163144      -0.0944832
0.107                  -0.164218      -0.0950488
0.108                  -0.165299      -0.0956056
0.109                  -0.166388      -0.0961538
0.11                   -0.167484      -0.0966931
0.111                  -0.168587      -0.0972236
0.112                  -0.169698      -0.0977451
0.113                  -0.170815      -0.0982578
0.114                   -0.17194      -0.0987614
0.115                  -0.173072      -0.0992559
0.116                   -0.17421      -0.0997413
0.117                  -0.175355       -0.100218
0.118                  -0.176507       -0.100684
0.119                  -0.177666       -0.101142
0.12                   -0.178831       -0.101591
0.121                  -0.180003        -0.10203
0.122                  -0.181182       -0.102459
0.123                  -0.182366       -0.102879
0.124                  -0.183558        -0.10329
0.125                  -0.184755       -0.103691
0.126                  -0.185958       -0.104082
0.127                  -0.187168       -0.104463
0.128                  -0.188384       -0.104835
0.129                  -0.189605       -0.105197
0.13                   -0.190833        -0.10555
0.131                  -0.192066       -0.105892
0.132                  -0.193305       -0.106225
0.133                  -0.194549       -0.106547
0.134                  -0.195799        -0.10686
0.135                  -0.197055       -0.107162
0.136                  -0.198316       -0.107455
0.137                  -0.199582       -0.107737
0.138                  -0.200854       -0.108009
0.139                  -0.202131       -0.108271
0.14                   -0.203413       -0.108523
0.141                    -0.2047       -0.108764
0.142                  -0.205992       -0.108995
0.143                  -0.207288       -0.109216
0.144                   -0.20859       -0.109426
0.145                  -0.209896       -0.109626
0.146                  -0.211207       -0.109816
0.147                  -0.212522       -0.109995
0.148                  -0.213842       -0.110163
0.149                  -0.215167       -0.110321
0.15                   -0.216495       -0.110468
0.151                  -0.217828       -0.110605
0.152                  -0.219165       -0.110731
0.153                  -0.220506       -0.110846
0.154                  -0.221851        -0.11095
0.155                    -0.2232       -0.111044
0.156                  -0.224552       -0.111127
0.157                  -0.225909       -0.111199
0.158                  -0.227269       -0.111261
0.159                  -0.228632       -0.111311
0.16                   -0.229999       -0.111351
0.161                   -0.23137       -0.111379
0.162                  -0.232744       -0.111397
0.163                  -0.234121       -0.111404
0.164                  -0.235501       -0.111399
0.165                  -0.236885       -0.111384
0.166                  -0.238271       -0.111358
0.167                   -0.23966        -0.11132
0.168                  -0.241052       -0.111272
0.169                  -0.242447       -0.111212
0.17                   -0.243845       -0.111141
0.171                  -0.245245        -0.11106
0.172                  -0.246647       -0.110967
0.173                  -0.248052       -0.110862
0.174                   -0.24946       -0.110747
0.175                  -0.250869        -0.11062
0.176                  -0.252281       -0.110483
0.177                  -0.253695       -0.110333
0.178                   -0.25511       -0.110173
0.179                  -0.256528       -0.110001
0.18                   -0.257948       -0.109818
0.181                  -0.259369       -0.109624
0.182                  -0.260792       -0.109419
0.183                  -0.262216       -0.109202
0.184                  -0.263643       -0.108974
0.185                   -0.26507       -0.108734
0.186                  -0.266499       -0.108483
0.187                  -0.267929       -0.108221
0.188                   -0.26936       -0.107947
0.189                  -0.270792       -0.107662
0.19                   -0.272225       -0.107365
0.191                   -0.27366       -0.107057
0.192                  -0.275095       -0.106738
0.193                   -0.27653       -0.106407
0.194                  -0.277967       -0.106065
0.195                  -0.279404       -0.105712
0.196                  -0.280841       -0.105347
0.197                  -0.282279        -0.10497
0.198                  -0.283717       -0.104583
0.199                  -0.285156       -0.104183
0.2                    -0.286594       -0.103773
0.201                  -0.288033       -0.103351
0.202                  -0.289472       -0.102917
0.203                   -0.29091       -0.102472
0.204                  -0.292349       -0.102016
0.205                  -0.293787       -0.101548
0.206                  -0.295225       -0.101068
0.207                  -0.296662       -0.100578
0.208                  -0.298099       -0.100075
0.209                  -0.299536      -0.0995617
0.21                   -0.300971      -0.0990367
0.211                  -0.302406      -0.0985004
0.212                   -0.30384      -0.0979525
0.213                  -0.305274      -0.0973933
0.214                  -0.306706      -0.0968227
0.215                  -0.308137      -0.0962408
0.216                  -0.309567      -0.0956474
0.217                  -0.310996      -0.0950426
0.218                  -0.312423      -0.0944265
0.219                  -0.313849      -0.0937991
0.22                   -0.315274      -0.0931603
0.221                  -0.316697      -0.0925102
0.222                  -0.318118      -0.0918487
0.223                  -0.319538      -0.0911759
0.224                  -0.320956      -0.0904919
0.225                  -0.322372      -0.0897966
0.226                  -0.323786        -0.08909
0.227                  -0.325198      -0.0883723
0.228                  -0.326608      -0.0876432
0.229                  -0.328015      -0.0869029
0.23                   -0.329421      -0.0861515
0.231                  -0.330824      -0.0853888
0.232                  -0.332224       -0.084615
0.233                  -0.333622        -0.08383
0.234                  -0.335018      -0.0830339
0.235                  -0.336411      -0.0822266
0.236                  -0.337801      -0.0814083
0.237                  -0.339188       -0.080579
0.238                  -0.340572      -0.0797384
0.239                  -0.341954       -0.078887
0.24                   -0.343332      -0.0780245
0.241                  -0.344707       -0.077151
0.242                  -0.346079      -0.0762665
0.243                  -0.347448      -0.0753711
0.244                  -0.348814      -0.0744648
0.245                  -0.350175      -0.0735476
0.246                  -0.351534      -0.0726194
0.247                  -0.352889      -0.0716805
0.248                   -0.35424      -0.0707307
0.249                  -0.355587      -0.0697701
0.25                   -0.356931      -0.0687988
0.251                  -0.358271      -0.0678166
0.252                  -0.359607      -0.0668238
0.253                  -0.360938      -0.0658203
0.254                  -0.362266      -0.0648061
0.255                   -0.36359      -0.0637813
0.256                  -0.364909      -0.0627459
0.257                  -0.366224      -0.0616999
0.258                  -0.367534      -0.0606433
0.259                   -0.36884      -0.0595763
0.26                   -0.370142      -0.0584988
0.261                  -0.371439      -0.0574107
0.262                  -0.372731      -0.0563124
0.263                  -0.374019      -0.0552036
0.264                  -0.375301      -0.0540845
0.265                  -0.376579       -0.052955
0.266                  -0.377852      -0.0518152
0.267                   -0.37912      -0.0506652
0.268                  -0.380383       -0.049505
0.269                   -0.38164      -0.0483345
0.27                   -0.382892       -0.047154
0.271                  -0.384139      -0.0459634
0.272                  -0.385381      -0.0447626
0.273                  -0.386617      -0.0435518
0.274                  -0.387848      -0.0423311
0.275                  -0.389073      -0.0411003
0.276                  -0.390293      -0.0398597
0.277                  -0.391506      -0.0386091
0.278                  -0.392714      -0.0373487
0.279                  -0.393917      -0.0360785
0.28                   -0.395113      -0.0347985
0.281                  -0.396303      -0.0335087
0.282                  -0.397487      -0.0322094
0.283                  -0.398666      -0.0309004
0.284                  -0.399838      -0.0295818
0.285                  -0.401004      -0.0282535
0.286                  -0.402163      -0.0269158
0.287                  -0.403316      -0.0255686
0.288                  -0.404463       -0.024212
0.289                  -0.405603      -0.0228459
0.29                   -0.406737      -0.0214705
0.291                  -0.407864      -0.0200858
0.292                  -0.408985      -0.0186918
0.293                  -0.410098      -0.0172886
0.294                  -0.411205      -0.0158762
0.295                  -0.412306      -0.0144548
0.296                  -0.413399      -0.0130242
0.297                  -0.414485      -0.0115847
0.298                  -0.415565      -0.0101361
0.299                  -0.416637     -0.00867855
0.3                    -0.417702     -0.00721211
0.301                   -0.41876     -0.00573687
0.302                  -0.419811     -0.00425277
0.303                  -0.420854     -0.00275994
0.304                   -0.42189      -0.0012584
0.305                  -0.422919     0.000251797
0.306                   -0.42394      0.00177054
0.307                  -0.424953      0.00329797
0.308                  -0.425959      0.00483377
0.309                  -0.426958       0.0063781
0.31                   -0.427948      0.00793073
0.311                  -0.428931      0.00949182
0.312                  -0.429907       0.0110612
0.313                  -0.430874       0.0126389
0.314                  -0.431833       0.0142247
0.315                  -0.432785       0.0158187
0.316                  -0.433728       0.0174209
0.317                  -0.434664        0.019031
0.318                  -0.435591       0.0206491
0.319                   -0.43651       0.0222752
0.32                   -0.437421       0.0239091
0.321                  -0.438324       0.0255509
0.322                  -0.439218       0.0272005
0.323                  -0.440104       0.0288578
0.324                  -0.440982       0.0305228
0.325                  -0.441851       0.0321954
0.326                  -0.442712       0.0338756
0.327                  -0.443564       0.0355634
0.328                  -0.444408       0.0372584
0.329                  -0.445243       0.0389611
0.33                   -0.446069       0.0406709
0.331                  -0.446886        0.042388
0.332                  -0.447695       0.0441124
0.333                  -0.448495        0.045844
0.334                  -0.449286       0.0475828
0.335                  -0.450068       0.0493285
0.336                  -0.450841       0.0510813
0.337                  -0.451606        0.052841
0.338                  -0.452361       0.0546078
0.339                  -0.453107       0.0563812
0.34                   -0.453844       0.0581613
0.341                  -0.454572       0.0599484
0.342                   -0.45529       0.0617419
0.343                     -0.456       0.0635422
0.344                    -0.4567        0.065349
0.345                  -0.457391       0.0671623
0.346                  -0.458072       0.0689819
0.347                  -0.458744       0.0708079
0.348                  -0.459407       0.0726404
0.349                   -0.46006       0.0744789
0.35                   -0.460704       0.0763238
0.351                  -0.461338       0.0781747
0.352                  -0.461962       0.0800318
0.353                  -0.462577       0.0818947
0.354                  -0.463182       0.0837638
0.355                  -0.463778       0.0856386
0.356                  -0.464363       0.0875192
0.357                  -0.464939       0.0894058
0.358                  -0.465506       0.0912979
0.359                  -0.466062       0.0931957
0.36                   -0.466609       0.0950992
0.361                  -0.467145       0.0970081
0.362                  -0.467672       0.0989225
0.363                  -0.468189        0.100842
0.364                  -0.468695        0.102768
0.365                  -0.469192        0.104698
0.366                  -0.469679        0.106633
0.367                  -0.470155        0.108574
0.368                  -0.470622         0.11052
0.369                  -0.471078        0.112471
0.37                   -0.471525        0.114427
0.371                   -0.47196        0.116388
0.372                  -0.472386        0.118354
0.373                  -0.472802        0.120324
0.374                  -0.473207        0.122299
0.375                  -0.473602        0.124279
0.376                  -0.473986        0.126264
0.377                  -0.474361        0.128253
0.378                  -0.474724        0.130246
0.379                  -0.475078        0.132244
0.38                   -0.475421        0.134246
0.381                  -0.475753        0.136253
0.382                  -0.476075        0.138263
0.383                  -0.476387        0.140278
0.384                  -0.476688        0.142297
0.385                  -0.476978         0.14432
0.386                  -0.477258        0.146347
0.387                  -0.477528        0.148378
0.388                  -0.477786        0.150413
0.389                  -0.478034        0.152451
0.39                   -0.478272        0.154493
0.391                  -0.478498        0.156539
0.392                  -0.478714        0.158588
0.393                   -0.47892        0.160641
0.394                  -0.479114        0.162698
0.395                  -0.479298        0.164758
0.396                  -0.479471        0.166821
0.397                  -0.479633        0.168887
0.398                  -0.479785        0.170957
0.399                  -0.479925        0.173029
0.4                    -0.480055        0.175105
0.401                  -0.480174        0.177184
0.402                  -0.480282        0.179266
0.403                  -0.480379         0.18135
0.404                  -0.480465        0.183438
0.405                   -0.48054        0.185528
0.406                  -0.480605        0.187621
0.407                  -0.480658        0.189716
0.408                  -0.480701        0.191815
0.409                  -0.480732        0.193915
0.41                   -0.480753        0.196018
0.411                  -0.480762        0.198124
0.412                  -0.480761        0.200231
0.413                  -0.480748        0.202341
0.414                  -0.480725        0.204454
0.415                   -0.48069        0.206568
0.416                  -0.480645        0.208684
0.417                  -0.480588        0.210802
0.418                   -0.48052        0.212923
0.419                  -0.480442        0.215045
0.42                   -0.480352        0.217169
0.421                  -0.480251        0.219294
0.422                  -0.480139        0.221422
0.423                  -0.480016        0.223551
0.424                  -0.479881        0.225681
0.425                  -0.479736        0.227813
0.426                  -0.479579        0.229947
0.427                  -0.479412        0.232081
0.428                  -0.479233        0.234217
0.429                  -0.479043        0.236355
0.43                   -0.478842        0.238493
0.431                   -0.47863        0.240633
0.432                  -0.478407        0.242773
0.433                  -0.478172        0.244915
0.434                  -0.477926        0.247057
0.435                   -0.47767        0.249201
0.436                  -0.477402        0.251345
0.437                  -0.477122         0.25349
0.438                  -0.476832        0.255635
0.439                  -0.476531        0.257781
0.44                   -0.476218        0.259928
0.441                  -0.475894        0.262075
0.442                  -0.475559        0.264223
0.443                  -0.475213        0.266371
0.444                  -0.474855        0.268519
0.445                  -0.474487        0.270667
0.446                  -0.474107        0.272816
0.447                  -0.473716        0.274965
0.448                  -0.473314        0.277114
0.449                  -0.472901        0.279262
0.45                   -0.472477        0.281411
0.451                  -0.472041         0.28356
0.452                  -0.471595        0.285708
0.453                  -0.471137        0.287856
0.454                  -0.470668        0.290004
0.455                  -0.470188        0.292152
0.456                  -0.469696        0.294298
0.457                  -0.469194        0.296445
0.458                  -0.468681        0.298591
0.459                  -0.468156        0.300736
0.46                    -0.46762        0.302881
0.461                  -0.467073        0.305025
0.462                  -0.466516        0.307168
0.463                  -0.465946         0.30931
0.464                  -0.465366        0.311451
0.465                  -0.464775        0.313592
0.466                  -0.464173        0.315731
0.467                   -0.46356        0.317869
0.468                  -0.462935        0.320006
0.469                    -0.4623        0.322142
0.47                   -0.461653        0.324276
0.471                  -0.460996         0.32641
0.472                  -0.460327        0.328541
0.473                  -0.459647        0.330672
0.474                  -0.458957        0.332801
0.475                  -0.458255        0.334928
0.476                  -0.457543        0.337054
0.477                  -0.456819        0.339177
0.478                  -0.456085          0.3413
0.479                  -0.455339         0.34342
0.48                   -0.454583        0.345539
0.481                  -0.453816        0.347655
0.482                  -0.453038         0.34977
0.483                  -0.452249        0.351883
0.484                  -0.451449        0.353993
0.485                  -0.450638        0.356102
0.486                  -0.449816        0.358208
0.487                  -0.448984        0.360312
0.488                   -0.44814        0.362413
0.489                  -0.447286        0.364513
0.49                   -0.446421        0.366609
0.491                  -0.445546        0.368704
0.492                  -0.444659        0.370796
0.493                  -0.443762        0.372885
0.494                  -0.442854        0.374972
0.495                  -0.441935        0.377055
0.496                  -0.441006        0.379137
0.497                  -0.440066        0.381215
0.498                  -0.439115         0.38329
0.499                  -0.438154        0.385363
0.5                    -0.437182        0.387432
0.501                  -0.436199        0.389499
0.502                  -0.435206        0.391562
0.503                  -0.434202        0.393623
0.504                  -0.433188         0.39568
0.505                  -0.432163        0.397734
0.506                  -0.431127        0.399784
0.507                  -0.430081        0.401832
0.508                  -0.429025        0.403875
0.509                  -0.427958        0.405916
0.51                   -0.426881        0.407953
0.511                  -0.425793        0.409986
0.512                  -0.424695        0.412016
0.513                  -0.423586        0.414042
0.514                  -0.422467        0.416064
0.515                  -0.421338        0.418083
0.516                  -0.420198        0.420097
0.517                  -0.419048        0.422108
0.518                  -0.417888        0.424115
0.519                  -0.416718        0.426118
0.52                   -0.415537        0.428117
0.521                  -0.414346        0.430112
0.522                  -0.413145        0.432103
0.523                  -0.411934        0.434089
0.524                  -0.410712        0.436072
0.525                  -0.409481         0.43805
0.526                  -0.408239        0.440023
0.527                  -0.406988        0.441993
0.528                  -0.405726        0.443958
0.529                  -0.404454        0.445918
0.53                   -0.403173        0.447874
0.531                  -0.401881        0.449825
0.532                  -0.400579        0.451772
0.533                  -0.399268        0.453714
0.534                  -0.397946        0.455651
0.535                  -0.396615        0.457584
0.536                  -0.395273        0.459512
0.537                  -0.393922        0.461435
0.538                  -0.392561        0.463353
0.539                  -0.391191        0.465266
0.54                    -0.38981        0.467174
0.541                   -0.38842        0.469077
0.542                  -0.387021        0.470975
0.543                  -0.385611        0.472868
0.544                  -0.384192        0.474755
0.545                  -0.382763        0.476637
0.546                  -0.381325        0.478514
0.547                  -0.379877        0.480386
0.548                   -0.37842        0.482253
0.549                  -0.376953        0.484114
0.55                   -0.375476        0.485969
0.551                  -0.373991        0.487819
0.552                  -0.372495        0.489663
0.553                  -0.370991        0.491502
0.554                  -0.369477        0.493335
0.555                  -0.367953        0.495163
0.556                  -0.366421        0.496984
0.557                  -0.364879          0.4988
0.558                  -0.363328        0.500611
0.559                  -0.361767        0.502415
0.56                   -0.360198        0.504213
0.561                  -0.358619        0.506006
0.562                  -0.357031        0.507792
0.563                  -0.355434        0.509572
0.564                  -0.353828        0.511347
0.565                  -0.352213        0.513115
0.566                  -0.350589        0.514877
0.567                  -0.348956        0.516633
0.568                  -0.347314        0.518382
0.569                  -0.345663        0.520126
0.57                   -0.344004        0.521863
0.571                  -0.342335        0.523593
0.572                  -0.340658        0.525317
0.573                  -0.338971        0.527035
0.574                  -0.337277        0.528746
0.575                  -0.335573        0.530451
0.576                   -0.33386        0.532149
0.577                   -0.33214         0.53384
0.578                   -0.33041        0.535525
0.579                  -0.328671        0.537203
0.58                   -0.326925        0.538875
0.581                  -0.325169        0.540539
0.582                  -0.323406        0.542197
0.583                  -0.321633        0.543848
0.584                  -0.319853        0.545492
0.585                  -0.318064        0.547129
0.586                  -0.316266        0.548759
0.587                   -0.31446        0.550382
0.588                  -0.312646        0.551998
0.589                  -0.310824        0.553607
0.59                   -0.308993        0.555209
0.591                  -0.307154        0.556804
0.592                  -0.305308        0.558391
0.593                  -0.303452        0.559971
0.594                  -0.301589        0.561544
0.595                  -0.299718         0.56311
0.596                  -0.297839        0.564668
0.597                  -0.295952        0.566219
0.598                  -0.294056        0.567763
0.599                  -0.292153        0.569299
0.6                    -0.290243        0.570827
0.601                  -0.288324        0.572348
0.602                  -0.286397        0.573861
0.603                  -0.284463        0.575367
0.604                  -0.282521        0.576865
0.605                  -0.280571        0.578356
0.606                  -0.278613        0.579839
0.607                  -0.276648        0.581314
0.608                  -0.274676        0.582781
0.609                  -0.272695        0.584241
0.61                   -0.270708        0.585692
0.611                  -0.268712        0.587136
0.612                   -0.26671        0.588572
0.613                    -0.2647            0.59
0.614                  -0.262682        0.591419
0.615                  -0.260657        0.592831
0.616                  -0.258625        0.594235
0.617                  -0.256586        0.595631
0.618                  -0.254539        0.597019
0.619                  -0.252485        0.598398
0.62                   -0.250425        0.599769
0.621                  -0.248357        0.601132
0.622                  -0.246281        0.602487
0.623                  -0.244199        0.603834
0.624                   -0.24211        0.605172
0.625                  -0.240014        0.606502
0.626                  -0.237911        0.607823
0.627                  -0.235801        0.609136
0.628                  -0.233684        0.610441
0.629                  -0.231561        0.611737
0.63                    -0.22943        0.613025
0.631                  -0.227294        0.614304
0.632                   -0.22515        0.615575
0.633                  -0.222999        0.616837
0.634                  -0.220842         0.61809
0.635                  -0.218679        0.619335
0.636                  -0.216509        0.620571
0.637                  -0.214332        0.621798
0.638                  -0.212149        0.623017
0.639                   -0.20996        0.624227
0.64                   -0.207764        0.625428
0.641                  -0.205562         0.62662
0.642                  -0.203353        0.627804
0.643                  -0.201139        0.628978
0.644                  -0.198918        0.630144
0.645                  -0.196691        0.631301
0.646                  -0.194457        0.632448
0.647                  -0.192218        0.633587
0.648                  -0.189973        0.634717
0.649                  -0.187721        0.635837
0.65                   -0.185464        0.636949
0.651                  -0.183201        0.638051
0.652                  -0.180932        0.639145
0.653                  -0.178657        0.640229
0.654                  -0.176376        0.641304
0.655                  -0.174089         0.64237
0.656                  -0.171797        0.643426
0.657                  -0.169499        0.644473
0.658                  -0.167195        0.645511
0.659                  -0.164886         0.64654
0.66                   -0.162571        0.647559
0.661                  -0.160251        0.648569
0.662                  -0.157925         0.64957
0.663                  -0.155594        0.650561
0.664                  -0.153258        0.651543
0.665                  -0.150916        0.652515
0.666                  -0.148568        0.653478
0.667                  -0.146216        0.654431
0.668                  -0.143858        0.655375
0.669                  -0.141495        0.656309
0.67                   -0.139127        0.657233
0.671                  -0.136754        0.658148
0.672                  -0.134376        0.659054
0.673                  -0.131992        0.659949
0.674                  -0.129604        0.660835
0.675                  -0.127211        0.661712
0.676                  -0.124813        0.662578
0.677                   -0.12241        0.663435
0.678                  -0.120003        0.664282
0.679                   -0.11759        0.665119
0.68                   -0.115173        0.665947
0.681                  -0.112752        0.666765
0.682                  -0.110325        0.667572
0.683                  -0.107894         0.66837
0.684                  -0.105459        0.669158
0.685                  -0.103019        0.669936
0.686                  -0.100575        0.670704
0.687                 -0.0981258        0.671463
0.688                 -0.0956727        0.672211
0.689                 -0.0932154        0.672949
0.69                  -0.0907537        0.673677
0.691                 -0.0882876        0.674395
0.692                 -0.0858177        0.675103
0.693                 -0.0833434        0.675801
0.694                 -0.0808651        0.676489
0.695                 -0.0783826        0.677167
0.696                 -0.0758962        0.677835
0.697                  -0.073406        0.678492
0.698                 -0.0709118         0.67914
0.699                 -0.0684135        0.679777
0.7                   -0.0659118        0.680403
0.701                 -0.0634061         0.68102
0.702                 -0.0608967        0.681627
0.703                 -0.0583836        0.682223
0.704                 -0.0558669        0.682809
0.705                 -0.0533466        0.683384
0.706                 -0.0508228         0.68395
0.707                 -0.0482952        0.684505
0.708                 -0.0457645        0.685049
0.709                 -0.0432303        0.685584
0.71                  -0.0406925        0.686107
0.711                 -0.0381517        0.686621
0.712                 -0.0356074        0.687124
0.713                 -0.0330602        0.687617
0.714                 -0.0305094        0.688099
0.715                 -0.0279557         0.68857
0.716                 -0.0253988        0.689032
0.717                 -0.0228391        0.689483
0.718                 -0.0202762        0.689923
0.719                 -0.0177104        0.690353
0.72                  -0.0151415        0.690772
0.721                 -0.0125702        0.691181
0.722                -0.00999568        0.691579
0.723                -0.00741856        0.691966
0.724                -0.00483891        0.692343
0.725                -0.00225643         0.69271
0.726                 0.00032882        0.693066
0.727                  0.0029168        0.693411
0.728                  0.0055068        0.693745
0.729                 0.00809975        0.694069
0.73                   0.0106946        0.694382
0.731                  0.0132924        0.694685
0.732                  0.0158923        0.694977
0.733                  0.0184943        0.695258
0.734                  0.0210987        0.695528
0.735                  0.0237055        0.695788
0.736                  0.0263139        0.696037
0.737                  0.0289249        0.696275
0.738                  0.0315378        0.696503
0.739                  0.0341528         0.69672
0.74                   0.0367696        0.696926
0.741                  0.0393884        0.697121
0.742                  0.0420093        0.697306
0.743                  0.0446315        0.697479
0.744                  0.0472559        0.697642
0.745                  0.0498819        0.697794
0.746                  0.0525093        0.697935
0.747                  0.0551385        0.698066
0.748                  0.0577695        0.698185
0.749                  0.0604018        0.698294
0.75                   0.0630354        0.698392
0.751                  0.0656706        0.698479
0.752                  0.0683073        0.698555
0.753                  0.0709455         0.69862
0.754                  0.0735844        0.698675
0.755                  0.0762251        0.698718
0.756                  0.0788668        0.698751
0.757                  0.0815095        0.698772
0.758                  0.0841537        0.698783
0.759                  0.0867985        0.698783
0.76                   0.0894447        0.698772
0.761                  0.0920914         0.69875
0.762                  0.0947391        0.698717
0.763                  0.0973882        0.698673
0.764                   0.100038        0.698619
0.765                   0.102688        0.698553
0.766                   0.105339        0.698476
0.767                    0.10799        0.698389
0.768                   0.110642         0.69829
0.769                   0.113295         0.69818
0.77                    0.115948         0.69806
0.771                   0.118602        0.697929
0.772                   0.121256        0.697786
0.773                   0.123911        0.697633
0.774                   0.126566        0.697468
0.775                   0.129221        0.697293
0.776                   0.131876        0.697107
0.777                   0.134531         0.69691
0.778                   0.137187        0.696701
0.779                   0.139843        0.696482
0.78                    0.142498        0.696252
0.781                   0.145154        0.696011
0.782                   0.147809        0.695758
0.783                   0.150465        0.695495
0.784                    0.15312        0.695221
0.785                   0.155775        0.694936
0.786                    0.15843         0.69464
0.787                   0.161084        0.694333
0.788                   0.163739        0.694015
0.789                   0.166393        0.693686
0.79                    0.169046        0.693346
0.791                   0.171699        0.692995
0.792                    0.17435        0.692633
0.793                   0.177002         0.69226
0.794                   0.179653        0.691876
0.795                   0.182303        0.691481
0.796                   0.184953        0.691075
0.797                   0.187601        0.690658
0.798                   0.190249        0.690231
0.799                   0.192896        0.689792
0.8                     0.195542        0.689342
0.801                   0.198186        0.688882
0.802                    0.20083         0.68841
0.803                   0.203473        0.687928
0.804                   0.206115        0.687434
0.805                   0.208755         0.68693
0.806                   0.211394        0.686415
0.807                   0.214032        0.685889
0.808                   0.216669        0.685352
0.809                   0.219304        0.684804
0.81                    0.221938        0.684245
0.811                    0.22457        0.683675
0.812                   0.227201        0.683094
0.813                    0.22983        0.682503
0.814                   0.232457          0.6819
0.815                   0.235083        0.681287
0.816                   0.237707        0.680663
0.817                   0.240329        0.680028
0.818                    0.24295        0.679382
0.819                   0.245569        0.678726
0.82                    0.248185        0.678058
0.821                     0.2508         0.67738
0.822                   0.253413        0.676691
0.823                   0.256023        0.675991
0.824                   0.258632         0.67528
0.825                   0.261238        0.674559
0.826                   0.263842        0.673827
0.827                   0.266444        0.673084
0.828                   0.269044         0.67233
0.829                   0.271641        0.671566
0.83                    0.274236         0.67079
0.831                   0.276829        0.670005
0.832                   0.279419        0.669208
0.833                   0.282006        0.668401
0.834                   0.284591        0.667583
0.835                   0.287173        0.666754
0.836                   0.289753        0.665915
0.837                   0.292329        0.665065
0.838                   0.294904        0.664204
0.839                   0.297475        0.663333
0.84                    0.300043        0.662452
0.841                   0.302609        0.661559
0.842                   0.305171        0.660656
0.843                   0.307731        0.659743
0.844                   0.310287        0.658819
0.845                   0.312841        0.657884
0.846                   0.315391        0.656939
0.847                   0.317938        0.655984
0.848                   0.320482        0.655017
0.849                   0.323022        0.654041
0.85                    0.325559        0.653054
0.851                   0.328093        0.652056
0.852                   0.330624        0.651048
0.853                   0.333151         0.65003
0.854                   0.335674        0.649001
0.855                   0.338194        0.647962
0.856                   0.340711        0.646913
0.857                   0.343223        0.645853
0.858                   0.345732        0.644783
0.859                   0.348237        0.643702
0.86                    0.350739        0.642612
0.861                   0.353237        0.641511
0.862                   0.355731        0.640399
0.863                   0.358221        0.639278
0.864                   0.360706        0.638146
0.865                   0.363188        0.637004
0.866                   0.365666        0.635852
0.867                    0.36814         0.63469
0.868                    0.37061        0.633518
0.869                   0.373075        0.632335
0.87                    0.375537        0.631142
0.871                   0.377994        0.629939
0.872                   0.380447        0.628727
0.873                   0.382895        0.627504
0.874                   0.385339        0.626271
0.875                   0.387779        0.625028
0.876                   0.390214        0.623775
0.877                   0.392645        0.622512
0.878                   0.395071        0.621239
0.879                   0.397492        0.619957
0.88                    0.399909        0.618664
0.881                   0.402321        0.617361
0.882                   0.404728        0.616049
0.883                   0.407131        0.614727
0.884                   0.409529        0.613395
0.885                   0.411922        0.612053
0.886                    0.41431        0.610701
0.887                   0.416693         0.60934
0.888                   0.419071        0.607969
0.889                   0.421444        0.606588
0.89                    0.423812        0.605198
0.891                   0.426176        0.603798
0.892                   0.428533        0.602388
0.893                   0.430886        0.600969
0.894                   0.433233         0.59954
0.895                   0.435576        0.598101
0.896                   0.437912        0.596653
0.897                   0.440244        0.595196
0.898                    0.44257        0.593729
0.899                   0.444891        0.592253
0.9                     0.447206        0.590767
0.901                   0.449516        0.589271
0.902                    0.45182        0.587767
0.903                   0.454119        0.586253
0.904                   0.456412         0.58473
0.905                     0.4587        0.583197
0.906                   0.460981        0.581655
0.907                   0.463257        0.580104
0.908                   0.465527        0.578544
0.909                   0.467792        0.576974
0.91                     0.47005        0.575395
0.911                   0.472303        0.573807
0.912                    0.47455         0.57221
0.913                   0.476791        0.570604
0.914                   0.479025        0.568989
0.915                   0.481254        0.567365
0.916                   0.483477        0.565732
0.917                   0.485694         0.56409
0.918                   0.487904        0.562438
0.919                   0.490108        0.560778
0.92                    0.492307        0.559109
0.921                   0.494498        0.557432
0.922                   0.496684        0.555745
0.923                   0.498863         0.55405
0.924                   0.501036        0.552345
0.925                   0.503202        0.550632
0.926                   0.505362        0.548911
0.927                   0.507516         0.54718
0.928                   0.509663        0.545441
0.929                   0.511804        0.543694
0.93                    0.513938        0.541937
0.931                   0.516065        0.540172
0.932                   0.518186        0.538399
0.933                     0.5203        0.536617
0.934                   0.522407        0.534827
0.935                   0.524508        0.533028
0.936                   0.526602        0.531221
0.937                   0.528689        0.529405
0.938                   0.530769        0.527581
0.939                   0.532842        0.525749
0.94                    0.534909        0.523908
0.941                   0.536968        0.522059
0.942                   0.539021        0.520202
0.943                   0.541066        0.518337
0.944                   0.543105        0.516463
0.945                   0.545136        0.514581
0.946                   0.547161        0.512691
0.947                   0.549178        0.510794
0.948                   0.551188        0.508888
0.949                   0.553191        0.506974
0.95                    0.555187        0.505052
0.951                   0.557175        0.503122
0.952                   0.559156        0.501184
0.953                    0.56113        0.499239
0.954                   0.563096        0.497285
0.955                   0.565055        0.495324
0.956                   0.567007        0.493355
0.957                   0.568951        0.491378
0.958                   0.570888        0.489393
0.959                   0.572817        0.487401
0.96                    0.574739        0.485401
0.961                   0.576653        0.483393
0.962                    0.57856        0.481378
0.963                   0.580459        0.479355
0.964                    0.58235        0.477325
0.965                   0.584234        0.475287
0.966                    0.58611        0.473242
0.967                   0.587978         0.47119
0.968                   0.589839         0.46913
0.969                   0.591692        0.467062
0.97                    0.593537        0.464987
0.971                   0.595374        0.462906
0.972                   0.597203        0.460816
0.973                   0.599024         0.45872
0.974                   0.600838        0.456616
0.975                   0.602643        0.454505
0.976                   0.604441        0.452388
0.977                    0.60623        0.450263
0.978                   0.608012        0.448131
0.979                   0.609786        0.445991
0.98                    0.611551        0.443846
0.981                   0.613308        0.441693
0.982                   0.615057        0.439533
0.983                   0.616799        0.437366
0.984                   0.618531        0.435192
0.985                   0.620256        0.433012
0.986                   0.621972        0.430825
0.987                   0.623681        0.428631
0.988                   0.625381         0.42643
0.989                   0.627072        0.424223
0.99                    0.628755        0.422009
0.991                    0.63043        0.419789
0.992                   0.632097        0.417562
0.993                   0.633755        0.415328
0.994                   0.635405        0.413088
0.995                   0.637046        0.410841
0.996                   0.638679        0.408589
0.997                   0.640303        0.406329
0.998                   0.641919        0.404064
0.999                   0.643527        0.401792
1                       0.645125        0.399513
1.001                   0.646716        0.397229
1.002                   0.648297        0.394938
1.003                    0.64987        0.392641
1.004                   0.651435        0.390339
1.005                    0.65299        0.388029
1.006                   0.654537        0.385714
1.007                   0.656076        0.383393
1.008                   0.657605        0.381066
1.009                   0.659126        0.378733
1.01                    0.660638        0.376394
1.011                   0.662141        0.374049
1.012                   0.663636        0.371699
1.013                   0.665122        0.369342
1.014                   0.666598         0.36698
1.015                   0.668066        0.364612
1.016                   0.669525        0.362238
1.017                   0.670975        0.359859
1.018                   0.672417        0.357474
1.019                   0.673849        0.355083
1.02                    0.675272        0.352687
1.021                   0.676686        0.350286
1.022                   0.678092        0.347879
1.023                   0.679488        0.345466
1.024                   0.680875        0.343048
1.025                   0.682253        0.340625
1.026                   0.683622        0.338196
1.027                   0.684982        0.335763
1.028                   0.686333        0.333323
1.029                   0.687675        0.330879
1.03                    0.689007         0.32843
1.031                   0.690331        0.325975
1.032                   0.691645        0.323515
1.033                    0.69295         0.32105
1.034                   0.694246         0.31858
1.035                   0.695532        0.316106
1.036                    0.69681        0.313626
1.037                   0.698078        0.311141
1.038                   0.699336        0.308651
1.039                   0.700586        0.306157
1.04                    0.701826        0.303658
1.041                   0.703057        0.301154
1.042                   0.704278        0.298645
1.043                    0.70549        0.296131
1.044                   0.706693        0.293613
1.045                   0.707886        0.291091
1.046                    0.70907        0.288563
1.047                   0.710245        0.286031
1.048                    0.71141        0.283495
1.049                   0.712565        0.280954
1.05                    0.713711        0.278409
1.051                   0.714848        0.275859
1.052                   0.715975        0.273305
1.053                   0.717093        0.270747
1.054                   0.718201        0.268184
1.055                   0.719299        0.265617
1.056                   0.720388        0.263046
1.057                   0.721468        0.260471
1.058                   0.722537        0.257892
1.059                   0.723598        0.255308
1.06                    0.724648         0.25272
1.061                   0.725689        0.250129
1.062                    0.72672        0.247533
1.063                   0.727742        0.244934
1.064                   0.728754         0.24233
1.065                   0.729757        0.239723
1.066                   0.730749        0.237112
1.067                   0.731732        0.234497
1.068                   0.732706        0.231878
1.069                   0.733669        0.229256
1.07                    0.734623         0.22663
1.071                   0.735567           0.224
1.072                   0.736501        0.221367
1.073                   0.737426         0.21873
1.074                   0.738341         0.21609
1.075                   0.739245        0.213446
1.076                   0.740141        0.210799
1.077                   0.741026        0.208148
1.078                   0.741902        0.205494
1.079                   0.742767        0.202836
1.08                    0.743623        0.200175
1.081                   0.744469        0.197511
1.082                   0.745305        0.194844
1.083                   0.746132        0.192174
1.084                   0.746948          0.1895
1.085                   0.747754        0.186823
1.086                   0.748551        0.184143
1.087                   0.749338        0.181461
1.088                   0.750114        0.178775
1.089                   0.750881        0.176086
1.09                    0.751638        0.173394
1.091                   0.752385          0.1707
1.092                   0.753122        0.168002
1.093                   0.753849        0.165302
1.094                   0.754566        0.162599
1.095                   0.755273        0.159893
1.096                    0.75597        0.157185
1.097                   0.756657        0.154474
1.098                   0.757334         0.15176
1.099                   0.758001        0.149044
1.1                     0.758658        0.146325
1.101                   0.759305        0.143604
1.102                   0.759942         0.14088
1.103                   0.760569        0.138153
1.104                   0.761186        0.135425
1.105                   0.761792        0.132694
1.106                   0.762389        0.129961
1.107                   0.762976        0.127225
1.108                   0.763552        0.124487
1.109                   0.764119        0.121747
1.11                    0.764675        0.119005
1.111                   0.765221        0.116261
1.112                   0.765757        0.113514
1.113                   0.766283        0.110766
1.114                   0.766799        0.108016
1.115                   0.767305        0.105263
1.116                   0.767801        0.102509
1.117                   0.768286       0.0997527
1.118                   0.768761       0.0969947
1.119                   0.769227       0.0942348
1.12                    0.769682       0.0914732
1.121                   0.770127       0.0887098
1.122                   0.770561       0.0859447
1.123                   0.770986       0.0831779
1.124                     0.7714       0.0804096
1.125                   0.771805       0.0776396
1.126                   0.772199       0.0748681
1.127                   0.772583       0.0720951
1.128                   0.772956       0.0693206
1.129                    0.77332       0.0665447
1.13                    0.773673       0.0637674
1.131                   0.774016       0.0609887
1.132                   0.774349       0.0582088
1.133                   0.774672       0.0554275
1.134                   0.774984        0.052645
1.135                   0.775286       0.0498613
1.136                   0.775578       0.0470764
1.137                    0.77586       0.0442904
1.138                   0.776132       0.0415034
1.139                   0.776393       0.0387152
1.14                    0.776644       0.0359261
1.141                   0.776885        0.033136
1.142                   0.777116        0.030345
1.143                   0.777336        0.027553
1.144                   0.777546       0.0247602
1.145                   0.777746       0.0219666
1.146                   0.777936       0.0191723
1.147                   0.778116       0.0163771
1.148                   0.778285       0.0135813
1.149                   0.778444       0.0107848
1.15                    0.778593      0.00798768
1.151                   0.778731      0.00518998
1.152                   0.778859      0.00239173
1.153                   0.778977    -0.000407037
1.154                   0.779085     -0.00320627
1.155                   0.779183     -0.00600594
1.156                    0.77927       -0.008806
1.157                   0.779347      -0.0116064
1.158                   0.779414      -0.0144072
1.159                    0.77947      -0.0172082
1.16                    0.779516      -0.0200094
1.161                   0.779553      -0.0228109
1.162                   0.779578      -0.0256125
1.163                   0.779594      -0.0284143
1.164                   0.779599      -0.0312161
1.165                   0.779594       -0.034018
1.166                   0.779579      -0.0368199
1.167                   0.779553      -0.0396218
1.168                   0.779518      -0.0424236
1.169                   0.779472      -0.0452253
1.17                    0.779415      -0.0480268
1.171                   0.779349      -0.0508282
1.172                   0.779272      -0.0536293
1.173                   0.779185      -0.0564302
1.174                   0.779088      -0.0592308
1.175                   0.778981      -0.0620311
1.176                   0.778863       -0.064831
1.177                   0.778736      -0.0676305
1.178                   0.778597      -0.0704295
1.179                   0.778449       -0.073228
1.18                    0.778291      -0.0760261
1.181                   0.778122      -0.0788235
1.182                   0.777943      -0.0816203
1.183                   0.777754      -0.0844165
1.184                   0.777555      -0.0872121
1.185                   0.777345      -0.0900069
1.186                   0.777125      -0.0928009
1.187                   0.776896      -0.0955942
1.188                   0.776655      -0.0983866
1.189                   0.776405       -0.101178
1.19                    0.776145       -0.103969
1.191                   0.775874       -0.106758
1.192                   0.775593       -0.109547
1.193                   0.775302       -0.112335
1.194                   0.775001       -0.115121
1.195                    0.77469       -0.117907
1.196                   0.774368       -0.120691
1.197                   0.774037       -0.123474
1.198                   0.773695       -0.126256
1.199                   0.773343       -0.129037
1.2                     0.772981       -0.131817
1.201                   0.772609       -0.134595
1.202                   0.772227       -0.137371
1.203                   0.771834       -0.140147
1.204                   0.771432       -0.142921
1.205                   0.771019       -0.145693
1.206                   0.770597       -0.148464
1.207                   0.770164       -0.151233
1.208                   0.769721       -0.154001
1.209                   0.769268       -0.156767
1.21                    0.768806       -0.159532
1.211                   0.768333       -0.162294
1.212                   0.767849       -0.165055
1.213                   0.767356       -0.167814
1.214                   0.766853       -0.170572
1.215                    0.76634       -0.173327
1.216                   0.765817       -0.176081
1.217                   0.765284       -0.178833
1.218                   0.764741       -0.181582
1.219                   0.764188        -0.18433
1.22                    0.763624       -0.187076
1.221                   0.763051       -0.189819
1.222                   0.762468       -0.192561
1.223                   0.761875         -0.1953
1.224                   0.761272       -0.198037
1.225                   0.760659       -0.200772
1.226                   0.760037       -0.203504
1.227                   0.759404       -0.206235
1.228                   0.758761       -0.208962
1.229                   0.758109       -0.211688
1.23                    0.757446       -0.214411
1.231                   0.756774       -0.217132
1.232                   0.756092        -0.21985
1.233                     0.7554       -0.222565
1.234                   0.754698       -0.225278
1.235                   0.753986       -0.227989
1.236                   0.753265       -0.230697
1.237                   0.752533       -0.233402
1.238                   0.751792       -0.236104
1.239                   0.751041       -0.238804
1.24                    0.750281       -0.241501
1.241                    0.74951       -0.244194
1.242                    0.74873       -0.246886
1.243                    0.74794       -0.249574
1.244                    0.74714       -0.252259
1.245                   0.746331       -0.254941
1.246                   0.745512       -0.257621
1.247                   0.744683       -0.260297
1.248                   0.743845        -0.26297
1.249                   0.742996        -0.26564
1.25                    0.742139       -0.268307
1.251                   0.741271       -0.270971
1.252                   0.740394       -0.273631
1.253                   0.739508       -0.276288
1.254                   0.738611       -0.278942
1.255                   0.737706       -0.281593
1.256                    0.73679        -0.28424
1.257                   0.735865       -0.286884
1.258                   0.734931       -0.289524
1.259                   0.733987       -0.292161
1.26                    0.733033       -0.294794
1.261                    0.73207       -0.297424
1.262                   0.731098        -0.30005
1.263                   0.730116       -0.302673
1.264                   0.729124       -0.305292
1.265                   0.728123       -0.307907
1.266                   0.727113       -0.310519
1.267                   0.726093       -0.313126
1.268                   0.725064        -0.31573
1.269                   0.724026        -0.31833
1.27                    0.722978       -0.320926
1.271                   0.721921       -0.323518
1.272                   0.720855       -0.326106
1.273                   0.719779       -0.328691
1.274                   0.718694       -0.331271
1.275                   0.717599       -0.333848
1.276                   0.716496        -0.33642
1.277                   0.715383       -0.338988
1.278                   0.714261       -0.341552
1.279                   0.713129       -0.344112
1.28                    0.711989       -0.346667
1.281                   0.710839       -0.349218
1.282                   0.709681       -0.351765
1.283                   0.708513       -0.354308
1.284                   0.707336       -0.356846
1.285                    0.70615        -0.35938
1.286                   0.704954        -0.36191
1.287                    0.70375       -0.364435
1.288                   0.702537       -0.366955
1.289                   0.701315       -0.369471
1.29                    0.700083       -0.371983
1.291                   0.698843        -0.37449
1.292                   0.697594       -0.376992
1.293                   0.696336       -0.379489
1.294                   0.695068       -0.381982
1.295                   0.693792        -0.38447
1.296                   0.692507       -0.386954
1.297                   0.691214       -0.389432
1.298                   0.689911       -0.391906
1.299                   0.688599       -0.394375
1.3                     0.687279       -0.396839
1.301                    0.68595       -0.399298
1.302                   0.684612       -0.401752
1.303                   0.683266       -0.404202
1.304                    0.68191       -0.406646
1.305                   0.680546       -0.409085
1.306                   0.679174       -0.411519
1.307                   0.677792       -0.413948
1.308                   0.676402       -0.416372
1.309                   0.675004        -0.41879
1.31                    0.673596       -0.421204
1.311                   0.672181       -0.423612
1.312                   0.670756       -0.426014
1.313                   0.669323       -0.428412
1.314                   0.667882       -0.430804
1.315                   0.666432       -0.433191
1.316                   0.664974       -0.435572
1.317                   0.663507       -0.437948
1.318                   0.662032       -0.440319
1.319                   0.660548       -0.442684
1.32                    0.659056       -0.445044
1.321                   0.657556       -0.447398
1.322                   0.656047       -0.449746
1.323                    0.65453       -0.452089
1.324                   0.653005       -0.454426
1.325                   0.651472       -0.456757
1.326                    0.64993       -0.459083
1.327                    0.64838       -0.461403
1.328                   0.646822       -0.463717
1.329                   0.645256       -0.466026
1.33                    0.643681       -0.468328
1.331                   0.642099       -0.470625
1.332                   0.640508       -0.472916
1.333                   0.638909       -0.475201
1.334                   0.637303        -0.47748
1.335                   0.635688       -0.479753
1.336                   0.634065        -0.48202
1.337                   0.632434       -0.484281
1.338                   0.630796       -0.486536
1.339                   0.629149       -0.488785
1.34                    0.627495       -0.491028
1.341                   0.625832       -0.493265
1.342                   0.624162       -0.495495
1.343                   0.622484       -0.497719
1.344                   0.620798       -0.499937
1.345                   0.619105       -0.502149
1.346                   0.617404       -0.504355
1.347                   0.615695       -0.506554
1.348                   0.613978       -0.508747
1.349                   0.612254       -0.510933
1.35                    0.610522       -0.513113
1.351                   0.608782       -0.515287
1.352                   0.607035       -0.517454
1.353                    0.60528       -0.519615
1.354                   0.603518       -0.521769
1.355                   0.601748       -0.523917
1.356                   0.599971       -0.526058
1.357                   0.598186       -0.528193
1.358                   0.596394       -0.530321
1.359                   0.594595       -0.532442
1.36                    0.592788       -0.534557
1.361                   0.590974       -0.536665
1.362                   0.589152       -0.538766
1.363                   0.587323       -0.540861
1.364                   0.585487       -0.542949
1.365                   0.583644        -0.54503
1.366                   0.581794       -0.547104
1.367                   0.579936       -0.549172
1.368                   0.578071       -0.551232
1.369                   0.576199       -0.553286
1.37                     0.57432       -0.555333
1.371                   0.572434       -0.557372
1.372                   0.570541       -0.559405
1.373                   0.568641       -0.561431
1.374                   0.566734        -0.56345
1.375                    0.56482       -0.565462
1.376                   0.562899       -0.567467
1.377                   0.560971       -0.569464
1.378                   0.559037       -0.571455
1.379                   0.557095       -0.573438
1.38                    0.555147       -0.575415
1.381                   0.553192       -0.577384
1.382                    0.55123       -0.579346
1.383                   0.549261       -0.581301
1.384                   0.547286       -0.583248
1.385                   0.545304       -0.585188
1.386                   0.543316       -0.587121
1.387                    0.54132       -0.589047
1.388                   0.539319       -0.590965
1.389                   0.537311       -0.592876
1.39                    0.535296        -0.59478
1.391                   0.533275       -0.596676
1.392                   0.531247       -0.598565
1.393                   0.529213       -0.600446
1.394                   0.527173        -0.60232
1.395                   0.525126       -0.604186
1.396                   0.523073       -0.606045
1.397                   0.521013       -0.607896
1.398                   0.518948        -0.60974
1.399                   0.516876       -0.611576
1.4                     0.514797       -0.613405
1.401                   0.512713       -0.615226
1.402                   0.510623       -0.617039
1.403                   0.508526       -0.618845
1.404                   0.506423       -0.620643
1.405                   0.504315       -0.622434
1.406                     0.5022       -0.624216
1.407                   0.500079       -0.625991
1.408                   0.497953       -0.627758
1.409                    0.49582       -0.629518
1.41                    0.493682       -0.631269
1.411                   0.491537       -0.633013
1.412                   0.489387       -0.634749
1.413                   0.487231       -0.636477
1.414                   0.485069       -0.638198
1.415                   0.482902        -0.63991
1.416                   0.480728       -0.641615
1.417                   0.478549       -0.643311
1.418                   0.476365          -0.645
1.419                   0.474175       -0.646681
1.42                    0.471979       -0.648353
1.421                   0.469778       -0.650018
1.422                   0.467571       -0.651675
1.423                   0.465358       -0.653324
1.424                   0.463141       -0.654964
1.425                   0.460918       -0.656597
1.426                   0.458689       -0.658221
1.427                   0.456455       -0.659838
1.428                   0.454216       -0.661446
1.429                   0.451971       -0.663046
1.43                    0.449721       -0.664638
1.431                   0.447466       -0.666222
1.432                   0.445206       -0.667798
1.433                    0.44294       -0.669366
1.434                    0.44067       -0.670925
1.435                   0.438394       -0.672476
1.436                   0.436114       -0.674019
1.437                   0.433828       -0.675554
1.438                   0.431537        -0.67708
1.439                   0.429241       -0.678598
1.44                     0.42694       -0.680108
1.441                   0.424635       -0.681609
1.442                   0.422324       -0.683102
1.443                   0.420009       -0.684587
1.444                   0.417689       -0.686063
1.445                   0.415364       -0.687531
1.446                   0.413034       -0.688991
1.447                     0.4107       -0.690442
1.448                   0.408361       -0.691885
1.449                   0.406017        -0.69332
1.45                    0.403669       -0.694746
1.451                   0.401316       -0.696163
1.452                   0.398959       -0.697572
1.453                   0.396597       -0.698973
1.454                    0.39423       -0.700365
1.455                   0.391859       -0.701748
1.456                   0.389484       -0.703124
1.457                   0.387104        -0.70449
1.458                    0.38472       -0.705848
1.459                   0.382332       -0.707197
1.46                    0.379939       -0.708538
1.461                   0.377542       -0.709871
1.462                   0.375141       -0.711194
1.463                   0.372736       -0.712509
1.464                   0.370327       -0.713816
1.465                   0.367913       -0.715114
1.466                   0.365495       -0.716403
1.467                   0.363074       -0.717683
1.468                   0.360648       -0.718955
1.469                   0.358218       -0.720218
1.47                    0.355785       -0.721473
1.471                   0.353347       -0.722719
1.472                   0.350906       -0.723956
1.473                    0.34846       -0.725184
1.474                   0.346011       -0.726404
1.475                   0.343559       -0.727615
1.476                   0.341102       -0.728817
1.477                   0.338642       -0.730011
1.478                   0.336177       -0.731195
1.479                    0.33371       -0.732371
1.48                    0.331238       -0.733538
1.481                   0.328764       -0.734697
1.482                   0.326285       -0.735846
1.483                   0.323803       -0.736987
1.484                   0.321318       -0.738119
1.485                   0.318829       -0.739242
1.486                   0.316336       -0.740356
1.487                   0.313841       -0.741462
1.488                   0.311342       -0.742558
1.489                   0.308839       -0.743646
1.49                    0.306334       -0.744725
1.491                   0.303825       -0.745795
1.492                   0.301313       -0.746856
1.493                   0.298797       -0.747908
1.494                   0.296279       -0.748951
1.495                   0.293757       -0.749986
1.496                   0.291233       -0.751011
1.497                   0.288705       -0.752028
1.498                   0.286175       -0.753035
1.499                   0.283641       -0.754034
1.5                     0.281104       -0.755024
1.501                   0.278565       -0.756005
1.502                   0.276022       -0.756977
1.503                   0.273477        -0.75794
1.504                   0.270929       -0.758893
1.505                   0.268378       -0.759838
1.506                   0.265824       -0.760774
1.507                   0.263268       -0.761701
1.508                   0.260709       -0.762619
1.509                   0.258147       -0.763528
1.51                    0.255583       -0.764429
1.511                   0.253016        -0.76532
1.512                   0.250447       -0.766202
1.513                   0.247875       -0.767075
1.514                   0.245301       -0.767939
1.515                   0.242724       -0.768794
1.516                   0.240145        -0.76964
1.517                   0.237563       -0.770477
1.518                   0.234979       -0.771304
1.519                   0.232393       -0.772123
1.52                    0.229804       -0.772933
1.521                   0.227213       -0.773734
1.522                   0.224621       -0.774526
1.523                   0.222025       -0.775308
1.524                   0.219428       -0.776082
1.525                   0.216828       -0.776846
1.526                   0.214227       -0.777602
1.527                   0.211623       -0.778348
1.528                   0.209018       -0.779086
1.529                    0.20641       -0.779814
1.53                    0.203801       -0.780533
1.531                   0.201189       -0.781243
1.532                   0.198576       -0.781944
1.533                   0.195961       -0.782636
1.534                   0.193344       -0.783319
1.535                   0.190725       -0.783993
1.536                   0.188104       -0.784658
1.537                   0.185482       -0.785314
1.538                   0.182858        -0.78596
1.539                   0.180233       -0.786598
1.54                    0.177605       -0.787226
1.541                   0.174977       -0.787845
1.542                   0.172347       -0.788456
1.543                   0.169715       -0.789057
1.544                   0.167081       -0.789649
1.545                   0.164446       -0.790232
1.546                    0.16181       -0.790806
1.547                   0.159173        -0.79137
1.548                   0.156534       -0.791926
1.549                   0.153893       -0.792472
1.55                    0.151252        -0.79301
1.551                   0.148609       -0.793538
1.552                   0.145965       -0.794057
1.553                    0.14332       -0.794568
1.554                   0.140673       -0.795069
1.555                   0.138026       -0.795561
1.556                   0.135377       -0.796044
1.557                   0.132727       -0.796517
1.558                   0.130077       -0.796982
1.559                   0.127425       -0.797438
1.56                    0.124772       -0.797884
1.561                   0.122118       -0.798322
1.562                   0.119464        -0.79875
1.563                   0.116808       -0.799169
1.564                   0.114152       -0.799579
1.565                   0.111495       -0.799981
1.566                   0.108837       -0.800373
1.567                   0.106178       -0.800756
1.568                   0.103519       -0.801129
1.569                   0.100859       -0.801494
1.57                   0.0981984        -0.80185
1.571                  0.0955369       -0.802197
1.572                   0.092875       -0.802534
1.573                  0.0902127       -0.802863
1.574                  0.0875498       -0.803182
1.575                  0.0848862       -0.803493
1.576                  0.0822224       -0.803794
1.577                   0.079558       -0.804086
1.578                  0.0768933        -0.80437
1.579                  0.0742282       -0.804644
1.58                   0.0715625       -0.804909
1.581                  0.0688969       -0.805165
1.582                  0.0662307       -0.805412
1.583                  0.0635644        -0.80565
1.584                  0.0608981        -0.80588
1.585                  0.0582314         -0.8061
1.586                  0.0555646       -0.806311
1.587                  0.0528975       -0.806513
1.588                  0.0502304       -0.806706
1.589                  0.0475635        -0.80689
1.59                   0.0448962       -0.807065
1.591                  0.0422292       -0.807231
1.592                  0.0395621       -0.807388
1.593                  0.0368952       -0.807536
1.594                   0.034228       -0.807675
1.595                  0.0315612       -0.807805
1.596                  0.0288946       -0.807926
1.597                  0.0262281       -0.808038
1.598                  0.0235618       -0.808141
1.599                  0.0208958       -0.808236
1.6                      0.01823       -0.808321
1.601                  0.0155645       -0.808397
1.602                  0.0128996       -0.808465
1.603                  0.0102348       -0.808523
1.604                 0.00757053       -0.808573
1.605                 0.00490647       -0.808614
1.606                 0.00224301       -0.808645
1.607               -0.000419807       -0.808668
1.608                -0.00308234       -0.808682
1.609                -0.00574417       -0.808687
1.61                 -0.00840567       -0.808683
1.611                 -0.0110664       -0.808671
1.612                 -0.0137265       -0.808649
1.613                 -0.0163861       -0.808619
1.614                 -0.0190447       -0.808579
1.615                 -0.0217027       -0.808531
1.616                   -0.02436       -0.808474
1.617                 -0.0270167       -0.808408
1.618                 -0.0296724       -0.808334
1.619                 -0.0323272        -0.80825
1.62                  -0.0349813       -0.808158
1.621                 -0.0376343       -0.808057
1.622                 -0.0402867       -0.807947
1.623                 -0.0429379       -0.807828
1.624                  -0.045588       -0.807701
1.625                 -0.0482373       -0.807564
1.626                 -0.0508857       -0.807419
1.627                 -0.0535329       -0.807266
1.628                 -0.0561789       -0.807103
1.629                 -0.0588238       -0.806932
1.63                  -0.0614676       -0.806752
1.631                 -0.0641105       -0.806563
1.632                 -0.0667517       -0.806366
1.633                  -0.069392       -0.806159
1.634                  -0.072031       -0.805944
1.635                 -0.0746685       -0.805721
1.636                  -0.077305       -0.805489
1.637                 -0.0799399       -0.805248
1.638                 -0.0825735       -0.804998
1.639                 -0.0852057        -0.80474
1.64                  -0.0878365       -0.804473
1.641                 -0.0904658       -0.804198
1.642                 -0.0930937       -0.803913
1.643                 -0.0957201       -0.803621
1.644                  -0.098345       -0.803319
1.645                  -0.100968       -0.803009
1.646                   -0.10359       -0.802691
1.647                   -0.10621       -0.802363
1.648                  -0.108828       -0.802028
1.649                  -0.111445       -0.801683
1.65                    -0.11406       -0.801331
1.651                  -0.116673       -0.800969
1.652                  -0.119285       -0.800599
1.653                  -0.121895       -0.800221
1.654                  -0.124503       -0.799834
1.655                  -0.127109       -0.799438
1.656                  -0.129713       -0.799034
1.657                  -0.132315       -0.798622
1.658                  -0.134916       -0.798201
1.659                  -0.137514       -0.797772
1.66                   -0.140111       -0.797334
1.661                  -0.142705       -0.796888
1.662                  -0.145298       -0.796433
1.663                  -0.147889        -0.79597
1.664                  -0.150477       -0.795498
1.665                  -0.153064       -0.795018
1.666                  -0.155648        -0.79453
1.667                   -0.15823       -0.794033
1.668                   -0.16081       -0.793528
1.669                  -0.163388       -0.793015
1.67                   -0.165963       -0.792493
1.671                  -0.168537       -0.791963
1.672                  -0.171107       -0.791425
1.673                  -0.173676       -0.790878
1.674                  -0.176243       -0.790323
1.675                  -0.178806        -0.78976
1.676                  -0.181368       -0.789188
1.677                  -0.183928       -0.788608
1.678                  -0.186484        -0.78802
1.679                  -0.189039       -0.787424
1.68                   -0.191591       -0.786819
1.681                   -0.19414       -0.786207
1.682                  -0.196687       -0.785586
1.683                  -0.199231       -0.784956
1.684                  -0.201773       -0.784319
1.685                  -0.204312       -0.783674
1.686                  -0.206848        -0.78302
1.687                  -0.209383       -0.782358
1.688                  -0.211914       -0.781688
1.689                  -0.214442        -0.78101
1.69                   -0.216968       -0.780324
1.691                  -0.219491       -0.779629
1.692                  -0.222012       -0.778927
1.693                  -0.224529       -0.778217
1.694                  -0.227044       -0.777498
1.695                  -0.229556       -0.776771
1.696                  -0.232065       -0.776037
1.697                  -0.234571       -0.775294
1.698                  -0.237074       -0.774544
1.699                  -0.239574       -0.773785
1.7                    -0.242072       -0.773018
1.701                  -0.244566       -0.772244
1.702                  -0.247057       -0.771461
1.703                  -0.249546        -0.77067
1.704                  -0.252031       -0.769872
1.705                  -0.254513       -0.769066
1.706                  -0.256992       -0.768251
1.707                  -0.259468       -0.767429
1.708                  -0.261941       -0.766599
1.709                  -0.264411       -0.765761
1.71                   -0.266877       -0.764915
1.711                  -0.269341       -0.764062
1.712                    -0.2718         -0.7632
1.713                  -0.274257       -0.762331
1.714                  -0.276711       -0.761454
1.715                  -0.279161       -0.760569
1.716                  -0.281608       -0.759676
1.717                  -0.284051       -0.758776
1.718                  -0.286491       -0.757867
1.719                  -0.288928       -0.756951
1.72                   -0.291361       -0.756028
1.721                  -0.293791       -0.755096
1.722                  -0.296218       -0.754157
1.723                  -0.298641        -0.75321
1.724                   -0.30106       -0.752256
1.725                  -0.303476       -0.751294
1.726                  -0.305888       -0.750324
1.727                  -0.308297       -0.749346
1.728                  -0.310702       -0.748361
1.729                  -0.313103       -0.747369
1.73                   -0.315502       -0.746368
1.731                  -0.317896       -0.745361
1.732                  -0.320286       -0.744345
1.733                  -0.322673       -0.743322
1.734                  -0.325056       -0.742292
1.735                  -0.327435       -0.741254
1.736                  -0.329811       -0.740208
1.737                  -0.332183       -0.739155
1.738                  -0.334551       -0.738095
1.739                  -0.336915       -0.737027
1.74                   -0.339275       -0.735951
1.741                  -0.341632       -0.734868
1.742                  -0.343984       -0.733778
1.743                  -0.346332       -0.732681
1.744                  -0.348677       -0.731576
1.745                  -0.351018       -0.730463
1.746                  -0.353354       -0.729343
1.747                  -0.355687       -0.728216
1.748                  -0.358016       -0.727082
1.749                   -0.36034        -0.72594
1.75                    -0.36266       -0.724791
1.751                  -0.364977       -0.723634
1.752                  -0.367289        -0.72247
1.753                  -0.369597       -0.721299
1.754                  -0.371901       -0.720121
1.755                  -0.374201       -0.718936
1.756                  -0.376497       -0.717743
1.757                  -0.378788       -0.716543
1.758                  -0.381075       -0.715336
1.759                  -0.383358       -0.714122
1.76                   -0.385637         -0.7129
1.761                  -0.387911       -0.711672
1.762                  -0.390181       -0.710436
1.763                  -0.392446       -0.709193
1.764                  -0.394707       -0.707943
1.765                  -0.396964       -0.706686
1.766                  -0.399217       -0.705422
1.767                  -0.401465       -0.704151
1.768                  -0.403708       -0.702872
1.769                  -0.405948       -0.701587
1.77                   -0.408182       -0.700295
1.771                  -0.410412       -0.698996
1.772                  -0.412638       -0.697689
1.773                  -0.414859       -0.696376
1.774                  -0.417075       -0.695056
1.775                  -0.419287       -0.693729
1.776                  -0.421494       -0.692395
1.777                  -0.423697       -0.691054
1.778                  -0.425894       -0.689706
1.779                  -0.428088       -0.688351
1.78                   -0.430276        -0.68699
1.781                   -0.43246       -0.685621
1.782                  -0.434639       -0.684246
1.783                  -0.436813       -0.682864
1.784                  -0.438983       -0.681476
1.785                  -0.441148        -0.68008
1.786                  -0.443308       -0.678678
1.787                  -0.445463       -0.677268
1.788                  -0.447613       -0.675853
1.789                  -0.449759        -0.67443
1.79                   -0.451899       -0.673001
1.791                  -0.454035       -0.671565
1.792                  -0.456166       -0.670122
1.793                  -0.458291       -0.668673
1.794                  -0.460412       -0.667217
1.795                  -0.462528       -0.665755
1.796                  -0.464639       -0.664286
1.797                  -0.466744        -0.66281
1.798                  -0.468845       -0.661328
1.799                   -0.47094       -0.659839
1.8                    -0.473031       -0.658344
1.801                  -0.475116       -0.656842
1.802                  -0.477197       -0.655334
1.803                  -0.479272       -0.653819
1.804                  -0.481342       -0.652298
1.805                  -0.483407        -0.65077
1.806                  -0.485466       -0.649236
1.807                  -0.487521       -0.647695
1.808                  -0.489569       -0.646148
1.809                  -0.491614       -0.644595
1.81                   -0.493652       -0.643035
1.811                  -0.495685       -0.641469
1.812                  -0.497713       -0.639897
1.813                  -0.499736       -0.638318
1.814                  -0.501753       -0.636733
1.815                  -0.503765       -0.635142
1.816                  -0.505771       -0.633544
1.817                  -0.507772        -0.63194
1.818                  -0.509768       -0.630331
1.819                  -0.511758       -0.628714
1.82                   -0.513743       -0.627092
1.821                  -0.515722       -0.625463
1.822                  -0.517696       -0.623829
1.823                  -0.519664       -0.622188
1.824                  -0.521626       -0.620541
1.825                  -0.523583       -0.618888
1.826                  -0.525535       -0.617229
1.827                  -0.527481       -0.615564
1.828                  -0.529421       -0.613892
1.829                  -0.531356       -0.612215
1.83                   -0.533285       -0.610532
1.831                  -0.535208       -0.608843
1.832                  -0.537125       -0.607148
1.833                  -0.539037       -0.605446
1.834                  -0.540943       -0.603739
1.835                  -0.542844       -0.602026
1.836                  -0.544738       -0.600307
1.837                  -0.546627       -0.598582
1.838                   -0.54851       -0.596852
1.839                  -0.550387       -0.595116
1.84                   -0.552259       -0.593373
1.841                  -0.554124       -0.591625
1.842                  -0.555984       -0.589871
1.843                  -0.557837       -0.588112
1.844                  -0.559685       -0.586346
1.845                  -0.561527       -0.584575
1.846                  -0.563363       -0.582798
1.847                  -0.565193       -0.581016
1.848                  -0.567017       -0.579228
1.849                  -0.568835       -0.577434
1.85                   -0.570647       -0.575635
1.851                  -0.572453        -0.57383
1.852                  -0.574253       -0.572019
1.853                  -0.576047       -0.570203
1.854                  -0.577834       -0.568381
1.855                  -0.579616       -0.566554
1.856                  -0.581392       -0.564721
1.857                  -0.583161       -0.562883
1.858                  -0.584924        -0.56104
1.859                  -0.586681       -0.559191
1.86                   -0.588432       -0.557336
1.861                  -0.590177       -0.555476
1.862                  -0.591915       -0.553611
1.863                  -0.593647        -0.55174
1.864                  -0.595373       -0.549864
1.865                  -0.597093       -0.547983
1.866                  -0.598806       -0.546096
1.867                  -0.600513       -0.544204
1.868                  -0.602214       -0.542307
1.869                  -0.603908       -0.540405
1.87                   -0.605596       -0.538497
1.871                  -0.607278       -0.536584
1.872                  -0.608953       -0.534667
1.873                  -0.610622       -0.532744
1.874                  -0.612285       -0.530815
1.875                  -0.613941       -0.528882
1.876                   -0.61559       -0.526943
1.877                  -0.617233          -0.525
1.878                   -0.61887       -0.523052
1.879                    -0.6205       -0.521098
1.88                   -0.622124        -0.51914
1.881                  -0.623741       -0.517176
1.882                  -0.625351       -0.515208
1.883                  -0.626955       -0.513234
1.884                  -0.628553       -0.511256
1.885                  -0.630144       -0.509273
1.886                  -0.631728       -0.507285
1.887                  -0.633305       -0.505292
1.888                  -0.634876       -0.503294
1.889                  -0.636441       -0.501292
1.89                   -0.637998       -0.499285
1.891                  -0.639549       -0.497272
1.892                  -0.641093       -0.495256
1.893                  -0.642631       -0.493234
1.894                  -0.644162       -0.491208
1.895                  -0.645686       -0.489177
1.896                  -0.647203       -0.487142
1.897                  -0.648714       -0.485102
1.898                  -0.650218       -0.483057
1.899                  -0.651715       -0.481008
1.9                    -0.653205       -0.478954
1.901                  -0.654688       -0.476896
1.902                  -0.656164       -0.474833
1.903                  -0.657634       -0.472766
1.904                  -0.659097       -0.470694
1.905                  -0.660553       -0.468618
1.906                  -0.662002       -0.466538
1.907                  -0.663444       -0.464453
1.908                  -0.664879       -0.462364
1.909                  -0.666307        -0.46027
1.91                   -0.667729       -0.458172
1.911                  -0.669143        -0.45607
1.912                  -0.670551       -0.453964
1.913                  -0.671951       -0.451853
1.914                  -0.673344       -0.449738
1.915                  -0.674731       -0.447619
1.916                   -0.67611       -0.445496
1.917                  -0.677482       -0.443369
1.918                  -0.678848       -0.441237
1.919                  -0.680206       -0.439101
1.92                   -0.681557       -0.436962
1.921                  -0.682901       -0.434818
1.922                  -0.684238        -0.43267
1.923                  -0.685568       -0.430519
1.924                  -0.686891       -0.428363
1.925                  -0.688206       -0.426203
1.926                  -0.689515        -0.42404
1.927                  -0.690816       -0.421873
1.928                   -0.69211       -0.419701
1.929                  -0.693397       -0.417526
1.93                   -0.694677       -0.415347
1.931                   -0.69595       -0.413164
1.932                  -0.697215       -0.410978
1.933                  -0.698473       -0.408788
1.934                  -0.699724       -0.406594
1.935                  -0.700968       -0.404396
1.936                  -0.702204       -0.402195
1.937                  -0.703434       -0.399989
1.938                  -0.704656       -0.397781
1.939                   -0.70587       -0.395569
1.94                   -0.707078       -0.393353
1.941                  -0.708278       -0.391134
1.942                   -0.70947       -0.388911
1.943                  -0.710656       -0.386684
1.944                  -0.711834       -0.384455
1.945                  -0.713005       -0.382221
1.946                  -0.714168       -0.379985
1.947                  -0.715324       -0.377745
1.948                  -0.716473       -0.375501
1.949                  -0.717614       -0.373255
1.95                   -0.718748       -0.371004
1.951                  -0.719875       -0.368751
1.952                  -0.720994       -0.366494
1.953                  -0.722105       -0.364234
1.954                   -0.72321       -0.361971
1.955                  -0.724307       -0.359705
1.956                  -0.725396       -0.357435
1.957                  -0.726478       -0.355163
1.958                  -0.727553       -0.352887
1.959                   -0.72862       -0.350608
1.96                   -0.729679       -0.348327
1.961                  -0.730731       -0.346042
1.962                  -0.731776       -0.343754
1.963                  -0.732813       -0.341463
1.964                  -0.733843       -0.339169
1.965                  -0.734865       -0.336872
1.966                   -0.73588       -0.334573
1.967                  -0.736887        -0.33227
1.968                  -0.737887       -0.329965
1.969                  -0.738879       -0.327657
1.97                   -0.739863       -0.325345
1.971                   -0.74084       -0.323032
1.972                   -0.74181       -0.320715
1.973                  -0.742772       -0.318396
1.974                  -0.743726       -0.316074
1.975                  -0.744673       -0.313749
1.976                  -0.745612       -0.311422
1.977                  -0.746544       -0.309092
1.978                  -0.747468       -0.306759
1.979                  -0.748385       -0.304424
1.98                   -0.749293       -0.302087
1.981                  -0.750195       -0.299746
1.982                  -0.751088       -0.297404
1.983                  -0.751974       -0.295058
1.984                  -0.752853       -0.292711
1.985                  -0.753724       -0.290361
1.986                  -0.754587       -0.288008
1.987                  -0.755443       -0.285654
1.988                   -0.75629       -0.283296
1.989                  -0.757131       -0.280937
1.99                   -0.757963       -0.278575
1.991                  -0.758788       -0.276211
1.992                  -0.759606       -0.273845
1.993                  -0.760415       -0.271476
1.994                  -0.761218       -0.269106
1.995                  -0.762012       -0.266733
1.996                  -0.762799       -0.264358
1.997                  -0.763578       -0.261981
1.998                  -0.764349       -0.259602
1.999                  -0.765113       -0.257221
2                      -0.765869       -0.254838
