! TOUCHSTONE file generated by CST MICROWAVE STUDIO
! Date and time: Sun Aug  2 00:10:29 2026
! Project name: Sonda-Coaxial_21mm_DisifixB_v2_Agua_Destilada.cst
! Parameters = {h_recipiente=20; l_conector=50; r_arandela=35; r_ext=10.5; r_int=3; r_recipiente=100; z_recipiente=-50}
! Header version: 2018
! Port assignment regex: !\s*Touchstone port\s*([0-9]+)\s*=\s*(CST MWS port|CST DS port)\s*([0-9]+|Zmin|Zmax)\s*\(\"(.*)\"\)(\s*mode\s*([0-9]+))?.*
! Touchstone port assignment:
! Touchstone port 1 = CST MWS port 1 ("")
# GHz S RI R 50
0.001                  -0.102503     -0.00106117
0.002                   -0.10252     -0.00212223
0.003                  -0.102548     -0.00318309
0.004                  -0.102587     -0.00424361
0.005                  -0.102637      -0.0053037
0.006                  -0.102698     -0.00636326
0.007                  -0.102771     -0.00742219
0.008                  -0.102855     -0.00848038
0.009                   -0.10295     -0.00953769
0.01                   -0.103056      -0.0105941
0.011                  -0.103173      -0.0116494
0.012                  -0.103301      -0.0127036
0.013                  -0.103441      -0.0137565
0.014                  -0.103592      -0.0148081
0.015                  -0.103754      -0.0158583
0.016                  -0.103928      -0.0169069
0.017                  -0.104112      -0.0179539
0.018                  -0.104308      -0.0189992
0.019                  -0.104515      -0.0200427
0.02                   -0.104733      -0.0210843
0.021                  -0.104962      -0.0221239
0.022                  -0.105203      -0.0231614
0.023                  -0.105455      -0.0241968
0.024                  -0.105718        -0.02523
0.025                  -0.105992      -0.0262609
0.026                  -0.106277      -0.0272893
0.027                  -0.106573      -0.0283152
0.028                  -0.106881      -0.0293386
0.029                    -0.1072      -0.0303593
0.03                   -0.107529      -0.0313773
0.031                   -0.10787      -0.0323924
0.032                  -0.108222      -0.0334046
0.033                  -0.108585      -0.0344139
0.034                  -0.108959        -0.03542
0.035                  -0.109344       -0.036423
0.036                   -0.10974      -0.0374227
0.037                  -0.110147      -0.0384192
0.038                  -0.110565      -0.0394122
0.039                  -0.110994      -0.0404017
0.04                   -0.111433      -0.0413876
0.041                  -0.111884      -0.0423699
0.042                  -0.112345      -0.0433485
0.043                  -0.112817      -0.0443232
0.044                    -0.1133       -0.045294
0.045                  -0.113794      -0.0462609
0.046                  -0.114298      -0.0472236
0.047                  -0.114813      -0.0481822
0.048                  -0.115339      -0.0491366
0.049                  -0.115875      -0.0500866
0.05                   -0.116422      -0.0510323
0.051                  -0.116979      -0.0519735
0.052                  -0.117547        -0.05291
0.053                  -0.118125       -0.053842
0.054                  -0.118713      -0.0547692
0.055                  -0.119312      -0.0556917
0.056                  -0.119922      -0.0566092
0.057                  -0.120541      -0.0575217
0.058                  -0.121171      -0.0584293
0.059                  -0.121811      -0.0593316
0.06                   -0.122461      -0.0602288
0.061                  -0.123122      -0.0611207
0.062                  -0.123792      -0.0620072
0.063                  -0.124472      -0.0628882
0.064                  -0.125163      -0.0637637
0.065                  -0.125863      -0.0646336
0.066                  -0.126574      -0.0654978
0.067                  -0.127294      -0.0663563
0.068                  -0.128024      -0.0672089
0.069                  -0.128763      -0.0680556
0.07                   -0.129513      -0.0688963
0.071                  -0.130272      -0.0697309
0.072                  -0.131041      -0.0705593
0.073                  -0.131819      -0.0713816
0.074                  -0.132607      -0.0721975
0.075                  -0.133404      -0.0730071
0.076                  -0.134211      -0.0738101
0.077                  -0.135027      -0.0746067
0.078                  -0.135852      -0.0753967
0.079                  -0.136687        -0.07618
0.08                    -0.13753      -0.0769566
0.081                  -0.138383      -0.0777262
0.082                  -0.139245      -0.0784891
0.083                  -0.140116      -0.0792449
0.084                  -0.140997      -0.0799938
0.085                  -0.141885      -0.0807355
0.086                  -0.142783        -0.08147
0.087                   -0.14369      -0.0821973
0.088                  -0.144605      -0.0829173
0.089                   -0.14553      -0.0836299
0.09                   -0.146462       -0.084335
0.091                  -0.147404      -0.0850326
0.092                  -0.148354      -0.0857226
0.093                  -0.149312      -0.0864049
0.094                  -0.150279      -0.0870795
0.095                  -0.151254      -0.0877464
0.096                  -0.152237      -0.0884053
0.097                  -0.153229      -0.0890564
0.098                  -0.154229      -0.0896994
0.099                  -0.155236      -0.0903344
0.1                    -0.156252      -0.0909613
0.101                  -0.157276        -0.09158
0.102                  -0.158308      -0.0921905
0.103                  -0.159347      -0.0927926
0.104                  -0.160395      -0.0933864
0.105                   -0.16145      -0.0939718
0.106                  -0.162512      -0.0945487
0.107                  -0.163582       -0.095117
0.108                   -0.16466      -0.0956767
0.109                  -0.165745      -0.0962277
0.11                   -0.166838        -0.09677
0.111                  -0.167938      -0.0973036
0.112                  -0.169045      -0.0978283
0.113                  -0.170159      -0.0983441
0.114                   -0.17128      -0.0988509
0.115                  -0.172409      -0.0993488
0.116                  -0.173544      -0.0998375
0.117                  -0.174686       -0.100317
0.118                  -0.175835       -0.100788
0.119                  -0.176991       -0.101249
0.12                   -0.178153       -0.101701
0.121                  -0.179322       -0.102144
0.122                  -0.180498       -0.102577
0.123                   -0.18168       -0.103001
0.124                  -0.182868       -0.103415
0.125                  -0.184063        -0.10382
0.126                  -0.185264       -0.104215
0.127                  -0.186471       -0.104601
0.128                  -0.187684       -0.104977
0.129                  -0.188903       -0.105343
0.13                   -0.190128       -0.105699
0.131                  -0.191359       -0.106046
0.132                  -0.192596       -0.106383
0.133                  -0.193838        -0.10671
0.134                  -0.195086       -0.107027
0.135                   -0.19634       -0.107333
0.136                  -0.197599        -0.10763
0.137                  -0.198864       -0.107917
0.138                  -0.200133       -0.108194
0.139                  -0.201409        -0.10846
0.14                   -0.202689       -0.108716
0.141                  -0.203974       -0.108963
0.142                  -0.205264       -0.109198
0.143                   -0.20656       -0.109424
0.144                   -0.20786       -0.109639
0.145                  -0.209165       -0.109843
0.146                  -0.210474       -0.110038
0.147                  -0.211788       -0.110222
0.148                  -0.213107       -0.110395
0.149                   -0.21443       -0.110558
0.15                   -0.215758        -0.11071
0.151                   -0.21709       -0.110851
0.152                  -0.218426       -0.110982
0.153                  -0.219766       -0.111102
0.154                   -0.22111       -0.111212
0.155                  -0.222458       -0.111311
0.156                  -0.223811       -0.111399
0.157                  -0.225166       -0.111476
0.158                  -0.226526       -0.111542
0.159                  -0.227889       -0.111598
0.16                   -0.229256       -0.111642
0.161                  -0.230627       -0.111676
0.162                     -0.232       -0.111699
0.163                  -0.233377       -0.111711
0.164                  -0.234758       -0.111712
0.165                  -0.236141       -0.111702
0.166                  -0.237528        -0.11168
0.167                  -0.238917       -0.111648
0.168                  -0.240309       -0.111605
0.169                  -0.241705        -0.11155
0.17                   -0.243103       -0.111485
0.171                  -0.244503       -0.111408
0.172                  -0.245906        -0.11132
0.173                  -0.247312       -0.111221
0.174                   -0.24872       -0.111111
0.175                   -0.25013       -0.110989
0.176                  -0.251543       -0.110857
0.177                  -0.252958       -0.110713
0.178                  -0.254375       -0.110557
0.179                  -0.255793       -0.110391
0.18                   -0.257214       -0.110213
0.181                  -0.258637       -0.110024
0.182                  -0.260061       -0.109823
0.183                  -0.261487       -0.109612
0.184                  -0.262914       -0.109388
0.185                  -0.264343       -0.109154
0.186                  -0.265773       -0.108908
0.187                  -0.267205        -0.10865
0.188                  -0.268638       -0.108382
0.189                  -0.270072       -0.108102
0.19                   -0.271507        -0.10781
0.191                  -0.272943       -0.107507
0.192                   -0.27438       -0.107193
0.193                  -0.275818       -0.106867
0.194                  -0.277256       -0.106529
0.195                  -0.278695       -0.106181
0.196                  -0.280135       -0.105821
0.197                  -0.281575       -0.105449
0.198                  -0.283016       -0.105066
0.199                  -0.284456       -0.104671
0.2                    -0.285897       -0.104265
0.201                  -0.287339       -0.103848
0.202                   -0.28878       -0.103419
0.203                  -0.290221       -0.102978
0.204                  -0.291662       -0.102526
0.205                  -0.293103       -0.102063
0.206                  -0.294543       -0.101588
0.207                  -0.295984       -0.101101
0.208                  -0.297423       -0.100604
0.209                  -0.298863       -0.100094
0.21                   -0.300301      -0.0995737
0.211                  -0.301739      -0.0990415
0.212                  -0.303176      -0.0984979
0.213                  -0.304613      -0.0979428
0.214                  -0.306048      -0.0973763
0.215                  -0.307482      -0.0967984
0.216                  -0.308915       -0.096209
0.217                  -0.310348      -0.0956083
0.218                  -0.311778      -0.0949962
0.219                  -0.313208      -0.0943726
0.22                   -0.314636      -0.0937376
0.221                  -0.316062      -0.0930914
0.222                  -0.317487      -0.0924337
0.223                   -0.31891      -0.0917646
0.224                  -0.320331      -0.0910843
0.225                  -0.321751      -0.0903926
0.226                  -0.323168      -0.0896896
0.227                  -0.324584      -0.0889753
0.228                  -0.325998      -0.0882498
0.229                  -0.327409      -0.0875129
0.23                   -0.328818      -0.0867647
0.231                  -0.330225      -0.0860055
0.232                  -0.331629      -0.0852349
0.233                  -0.333031      -0.0844532
0.234                   -0.33443      -0.0836602
0.235                  -0.335827      -0.0828561
0.236                  -0.337221      -0.0820408
0.237                  -0.338612      -0.0812145
0.238                  -0.340001       -0.080377
0.239                  -0.341386      -0.0795284
0.24                   -0.342768      -0.0786688
0.241                  -0.344147      -0.0777981
0.242                  -0.345523      -0.0769164
0.243                  -0.346896      -0.0760237
0.244                  -0.348266        -0.07512
0.245                  -0.349632      -0.0742054
0.246                  -0.350994      -0.0732798
0.247                  -0.352353      -0.0723433
0.248                  -0.353708       -0.071396
0.249                   -0.35506      -0.0704378
0.25                   -0.356408      -0.0694688
0.251                  -0.357752       -0.068489
0.252                  -0.359092      -0.0674984
0.253                  -0.360427      -0.0664971
0.254                  -0.361759      -0.0654851
0.255                  -0.363087      -0.0644624
0.256                   -0.36441      -0.0634289
0.257                  -0.365729      -0.0623849
0.258                  -0.367044      -0.0613304
0.259                  -0.368354      -0.0602652
0.26                    -0.36966      -0.0591894
0.261                  -0.370961      -0.0581033
0.262                  -0.372258      -0.0570066
0.263                  -0.373549      -0.0558995
0.264                  -0.374836       -0.054782
0.265                  -0.376118      -0.0536541
0.266                  -0.377395      -0.0525159
0.267                  -0.378667      -0.0513674
0.268                  -0.379934      -0.0502086
0.269                  -0.381196      -0.0490396
0.27                   -0.382452      -0.0478604
0.271                  -0.383703      -0.0466711
0.272                  -0.384949      -0.0454716
0.273                  -0.386189      -0.0442621
0.274                  -0.387424      -0.0430425
0.275                  -0.388654      -0.0418129
0.276                  -0.389877      -0.0405734
0.277                  -0.391095      -0.0393237
0.278                  -0.392307      -0.0380644
0.279                  -0.393513      -0.0367951
0.28                   -0.394714      -0.0355161
0.281                  -0.395908      -0.0342272
0.282                  -0.397096      -0.0329287
0.283                  -0.398278      -0.0316204
0.284                  -0.399454      -0.0303024
0.285                  -0.400624      -0.0289751
0.286                  -0.401788       -0.027638
0.287                  -0.402945      -0.0262914
0.288                  -0.404095      -0.0249353
0.289                   -0.40524      -0.0235698
0.29                   -0.406377       -0.022195
0.291                  -0.407508      -0.0208107
0.292                  -0.408633      -0.0194172
0.293                   -0.40975      -0.0180145
0.294                  -0.410861      -0.0166024
0.295                  -0.411965      -0.0151814
0.296                  -0.413062      -0.0137511
0.297                  -0.414152      -0.0123118
0.298                  -0.415235      -0.0108636
0.299                  -0.416311     -0.00940619
0.3                     -0.41738        -0.00794
0.301                  -0.418441     -0.00646489
0.302                  -0.419496     -0.00498089
0.303                  -0.420543      -0.0034882
0.304                  -0.421582     -0.00198679
0.305                  -0.422614     -0.00047667
0.306                  -0.423639      0.00104211
0.307                  -0.424656      0.00256944
0.308                  -0.425665      0.00410535
0.309                  -0.426667      0.00564973
0.31                   -0.427661      0.00720254
0.311                  -0.428648      0.00876365
0.312                  -0.429626       0.0103331
0.313                  -0.430597       0.0119109
0.314                   -0.43156       0.0134968
0.315                  -0.432514       0.0150909
0.316                  -0.433461       0.0166932
0.317                    -0.4344       0.0183036
0.318                   -0.43533        0.019922
0.319                  -0.436253       0.0215483
0.32                   -0.437167       0.0231826
0.321                  -0.438073       0.0248246
0.322                   -0.43897       0.0264745
0.323                  -0.439859       0.0281321
0.324                   -0.44074       0.0297975
0.325                  -0.441612       0.0314704
0.326                  -0.442476       0.0331509
0.327                  -0.443331        0.034839
0.328                  -0.444177       0.0365344
0.329                  -0.445015       0.0382374
0.33                   -0.445844       0.0399476
0.331                  -0.446665       0.0416652
0.332                  -0.447476         0.04339
0.333                  -0.448279       0.0451221
0.334                  -0.449073       0.0468612
0.335                  -0.449858       0.0486074
0.336                  -0.450633       0.0503605
0.337                    -0.4514       0.0521208
0.338                  -0.452158       0.0538878
0.339                  -0.452907       0.0556617
0.34                   -0.453646       0.0574423
0.341                  -0.454377       0.0592297
0.342                  -0.455098       0.0610238
0.343                   -0.45581       0.0628245
0.344                  -0.456513       0.0646318
0.345                  -0.457206       0.0664455
0.346                   -0.45789       0.0682656
0.347                  -0.458564        0.070092
0.348                  -0.459229       0.0719249
0.349                  -0.459885        0.073764
0.35                   -0.460531       0.0756093
0.351                  -0.461167       0.0774606
0.352                  -0.461794       0.0793181
0.353                  -0.462411       0.0811816
0.354                  -0.463018       0.0830509
0.355                  -0.463616       0.0849262
0.356                  -0.464204       0.0868074
0.357                  -0.464782       0.0886942
0.358                  -0.465351       0.0905869
0.359                  -0.465909        0.092485
0.36                   -0.466458       0.0943889
0.361                  -0.466997       0.0962982
0.362                  -0.467526        0.098213
0.363                  -0.468045        0.100133
0.364                  -0.468553        0.102059
0.365                  -0.469052         0.10399
0.366                  -0.469541        0.105926
0.367                   -0.47002        0.107867
0.368                  -0.470488        0.109813
0.369                  -0.470946        0.111764
0.37                   -0.471394         0.11372
0.371                  -0.471833        0.115681
0.372                   -0.47226        0.117647
0.373                  -0.472678        0.119618
0.374                  -0.473085        0.121594
0.375                  -0.473482        0.123574
0.376                  -0.473868        0.125559
0.377                  -0.474244        0.127548
0.378                   -0.47461        0.129541
0.379                  -0.474965        0.131539
0.38                    -0.47531        0.133542
0.381                  -0.475644        0.135549
0.382                  -0.475968        0.137559
0.383                  -0.476282        0.139574
0.384                  -0.476585        0.141594
0.385                  -0.476877        0.143617
0.386                  -0.477159        0.145644
0.387                   -0.47743        0.147675
0.388                   -0.47769        0.149709
0.389                   -0.47794        0.151748
0.39                   -0.478179         0.15379
0.391                  -0.478408        0.155836
0.392                  -0.478625        0.157886
0.393                  -0.478832        0.159939
0.394                  -0.479029        0.161995
0.395                  -0.479214        0.164055
0.396                  -0.479389        0.166118
0.397                  -0.479553        0.168184
0.398                  -0.479706        0.170254
0.399                  -0.479849        0.172326
0.4                     -0.47998        0.174402
0.401                  -0.480101        0.176481
0.402                  -0.480211        0.178563
0.403                   -0.48031        0.180647
0.404                  -0.480398        0.182735
0.405                  -0.480475        0.184825
0.406                  -0.480541        0.186917
0.407                  -0.480596        0.189013
0.408                  -0.480641        0.191111
0.409                  -0.480674        0.193211
0.41                   -0.480696        0.195314
0.411                  -0.480708        0.197419
0.412                  -0.480708        0.199527
0.413                  -0.480697        0.201637
0.414                  -0.480676        0.203748
0.415                  -0.480643        0.205863
0.416                  -0.480599        0.207979
0.417                  -0.480544        0.210097
0.418                  -0.480479        0.212217
0.419                  -0.480402        0.214339
0.42                   -0.480314        0.216462
0.421                  -0.480215        0.218588
0.422                  -0.480105        0.220715
0.423                  -0.479983        0.222843
0.424                  -0.479851        0.224974
0.425                  -0.479708        0.227105
0.426                  -0.479553        0.229238
0.427                  -0.479387        0.231373
0.428                  -0.479211        0.233508
0.429                  -0.479023        0.235645
0.43                   -0.478824        0.237783
0.431                  -0.478614        0.239922
0.432                  -0.478392        0.242063
0.433                   -0.47816        0.244204
0.434                  -0.477916        0.246346
0.435                  -0.477661        0.248489
0.436                  -0.477395        0.250633
0.437                  -0.477118        0.252777
0.438                   -0.47683        0.254922
0.439                  -0.476531        0.257068
0.44                    -0.47622        0.259215
0.441                  -0.475899        0.261361
0.442                  -0.475566        0.263509
0.443                  -0.475222        0.265656
0.444                  -0.474867        0.267804
0.445                    -0.4745        0.269952
0.446                  -0.474123          0.2721
0.447                  -0.473734        0.274249
0.448                  -0.473335        0.276397
0.449                  -0.472924        0.278545
0.45                   -0.472502        0.280694
0.451                  -0.472068        0.282842
0.452                  -0.471624         0.28499
0.453                  -0.471169        0.287138
0.454                  -0.470702        0.289285
0.455                  -0.470224        0.291432
0.456                  -0.469735        0.293579
0.457                  -0.469236        0.295725
0.458                  -0.468724         0.29787
0.459                  -0.468202        0.300015
0.46                   -0.467669         0.30216
0.461                  -0.467125        0.304303
0.462                  -0.466569        0.306446
0.463                  -0.466003        0.308588
0.464                  -0.465425        0.310729
0.465                  -0.464837        0.312869
0.466                  -0.464237        0.315008
0.467                  -0.463626        0.317146
0.468                  -0.463004        0.319282
0.469                  -0.462372        0.321418
0.47                   -0.461728        0.323552
0.471                  -0.461073        0.325685
0.472                  -0.460407        0.327817
0.473                   -0.45973        0.329947
0.474                  -0.459042        0.332075
0.475                  -0.458343        0.334203
0.476                  -0.457634        0.336328
0.477                  -0.456913        0.338452
0.478                  -0.456181        0.340574
0.479                  -0.455439        0.342694
0.48                   -0.454685        0.344813
0.481                  -0.453921        0.346929
0.482                  -0.453146        0.349044
0.483                  -0.452359        0.351156
0.484                  -0.451562        0.353267
0.485                  -0.450755        0.355375
0.486                  -0.449936        0.357481
0.487                  -0.449106        0.359585
0.488                  -0.448266        0.361687
0.489                  -0.447415        0.363786
0.49                   -0.446553        0.365883
0.491                   -0.44568        0.367977
0.492                  -0.444797        0.370069
0.493                  -0.443902        0.372159
0.494                  -0.442997        0.374245
0.495                  -0.442082        0.376329
0.496                  -0.441155        0.378411
0.497                  -0.440218        0.380489
0.498                  -0.439271        0.382565
0.499                  -0.438312        0.384638
0.5                    -0.437344        0.386707
0.501                  -0.436364        0.388774
0.502                  -0.435374        0.390838
0.503                  -0.434373        0.392899
0.504                  -0.433362        0.394956
0.505                   -0.43234         0.39701
0.506                  -0.431308        0.399061
0.507                  -0.430265        0.401109
0.508                  -0.429212        0.403153
0.509                  -0.428148        0.405194
0.51                   -0.427074        0.407232
0.511                  -0.425989        0.409265
0.512                  -0.424894        0.411296
0.513                  -0.423789        0.413322
0.514                  -0.422673        0.415345
0.515                  -0.421547        0.417364
0.516                  -0.420411         0.41938
0.517                  -0.419264        0.421391
0.518                  -0.418107        0.423399
0.519                   -0.41694        0.425402
0.52                   -0.415762        0.427402
0.521                  -0.414575        0.429398
0.522                  -0.413377        0.431389
0.523                  -0.412169        0.433377
0.524                  -0.410951         0.43536
0.525                  -0.409723        0.437339
0.526                  -0.408484        0.439313
0.527                  -0.407236        0.441284
0.528                  -0.405977         0.44325
0.529                  -0.404709        0.445211
0.53                    -0.40343        0.447168
0.531                  -0.402142         0.44912
0.532                  -0.400843        0.451068
0.533                  -0.399535        0.453011
0.534                  -0.398217         0.45495
0.535                  -0.396888        0.456884
0.536                  -0.395551        0.458813
0.537                  -0.394203        0.460737
0.538                  -0.392845        0.462656
0.539                  -0.391478         0.46457
0.54                     -0.3901         0.46648
0.541                  -0.388713        0.468384
0.542                  -0.387317        0.470283
0.543                   -0.38591        0.472177
0.544                  -0.384495        0.474066
0.545                  -0.383069         0.47595
0.546                  -0.381634        0.477828
0.547                  -0.380189        0.479702
0.548                  -0.378735         0.48157
0.549                  -0.377271        0.483432
0.55                   -0.375798        0.485289
0.551                  -0.374315         0.48714
0.552                  -0.372823        0.488986
0.553                  -0.371321        0.490827
0.554                  -0.369811        0.492662
0.555                   -0.36829        0.494491
0.556                  -0.366761        0.496314
0.557                  -0.365222        0.498132
0.558                  -0.363674        0.499944
0.559                  -0.362117         0.50175
0.56                    -0.36055         0.50355
0.561                  -0.358974        0.505344
0.562                  -0.357389        0.507133
0.563                  -0.355795        0.508915
0.564                  -0.354192        0.510691
0.565                   -0.35258        0.512461
0.566                  -0.350959        0.514225
0.567                  -0.349329        0.515983
0.568                   -0.34769        0.517734
0.569                  -0.346042         0.51948
0.57                   -0.344385        0.521219
0.571                  -0.342719        0.522951
0.572                  -0.341045        0.524678
0.573                  -0.339361        0.526397
0.574                  -0.337669        0.528111
0.575                  -0.335968        0.529818
0.576                  -0.334258        0.531518
0.577                   -0.33254        0.533211
0.578                  -0.330813        0.534898
0.579                  -0.329077        0.536579
0.58                   -0.327333        0.538252
0.581                  -0.325581        0.539919
0.582                  -0.323819        0.541579
0.583                   -0.32205        0.543233
0.584                  -0.320272        0.544879
0.585                  -0.318485        0.546518
0.586                   -0.31669        0.548151
0.587                  -0.314887        0.549776
0.588                  -0.313075        0.551395
0.589                  -0.311255        0.553006
0.59                   -0.309427         0.55461
0.591                  -0.307591        0.556208
0.592                  -0.305746        0.557797
0.593                  -0.303893         0.55938
0.594                  -0.302033        0.560956
0.595                  -0.300164        0.562524
0.596                  -0.298287        0.564085
0.597                  -0.296402        0.565638
0.598                  -0.294509        0.567184
0.599                  -0.292608        0.568723
0.6                      -0.2907        0.570254
0.601                  -0.288783        0.571777
0.602                  -0.286858        0.573293
0.603                  -0.284926        0.574802
0.604                  -0.282986        0.576302
0.605                  -0.281039        0.577795
0.606                  -0.279083        0.579281
0.607                   -0.27712        0.580759
0.608                  -0.275149        0.582229
0.609                  -0.273171        0.583691
0.61                   -0.271185        0.585145
0.611                  -0.269192        0.586591
0.612                  -0.267191         0.58803
0.613                  -0.265183         0.58946
0.614                  -0.263167        0.590883
0.615                  -0.261144        0.592298
0.616                  -0.259114        0.593704
0.617                  -0.257077        0.595103
0.618                  -0.255032        0.596493
0.619                   -0.25298        0.597875
0.62                    -0.25092        0.599249
0.621                  -0.248854        0.600615
0.622                  -0.246781        0.601972
0.623                    -0.2447        0.603322
0.624                  -0.242613        0.604663
0.625                  -0.240518        0.605995
0.626                  -0.238417         0.60732
0.627                  -0.236308        0.608635
0.628                  -0.234193        0.609943
0.629                  -0.232071        0.611242
0.63                   -0.229942        0.612532
0.631                  -0.227807        0.613814
0.632                  -0.225664        0.615088
0.633                  -0.223515        0.616353
0.634                   -0.22136        0.617609
0.635                  -0.219198        0.618856
0.636                  -0.217029        0.620095
0.637                  -0.214854        0.621325
0.638                  -0.212672        0.622546
0.639                  -0.210484        0.623759
0.64                   -0.208289        0.624963
0.641                  -0.206088        0.626158
0.642                  -0.203881        0.627344
0.643                  -0.201667        0.628521
0.644                  -0.199448         0.62969
0.645                  -0.197222        0.630849
0.646                   -0.19499           0.632
0.647                  -0.192751        0.633141
0.648                  -0.190507        0.634273
0.649                  -0.188257        0.635397
0.65                      -0.186        0.636511
0.651                  -0.183738        0.637616
0.652                   -0.18147        0.638712
0.653                  -0.179196        0.639799
0.654                  -0.176916        0.640877
0.655                   -0.17463        0.641945
0.656                  -0.172339        0.643004
0.657                  -0.170042        0.644054
0.658                  -0.167739        0.645095
0.659                  -0.165431        0.646126
0.66                   -0.163117        0.647148
0.661                  -0.160797        0.648161
0.662                  -0.158472        0.649164
0.663                  -0.156142        0.650158
0.664                  -0.153806        0.651142
0.665                  -0.151465        0.652117
0.666                  -0.149118        0.653082
0.667                  -0.146766        0.654038
0.668                  -0.144409        0.654984
0.669                  -0.142047        0.655921
0.67                    -0.13968        0.656848
0.671                  -0.137307        0.657766
0.672                  -0.134929        0.658673
0.673                  -0.132547        0.659572
0.674                  -0.130159         0.66046
0.675                  -0.127767        0.661339
0.676                  -0.125369        0.662208
0.677                  -0.122967        0.663067
0.678                   -0.12056        0.663917
0.679                  -0.118148        0.664757
0.68                   -0.115732        0.665586
0.681                   -0.11331        0.666407
0.682                  -0.110885        0.667217
0.683                  -0.108454        0.668017
0.684                  -0.106019        0.668807
0.685                   -0.10358        0.669588
0.686                  -0.101136        0.670358
0.687                 -0.0986876        0.671119
0.688                 -0.0962348        0.671869
0.689                 -0.0937779         0.67261
0.69                  -0.0913167         0.67334
0.691                  -0.088851        0.674061
0.692                 -0.0863813        0.674771
0.693                 -0.0839077        0.675472
0.694                 -0.0814296        0.676162
0.695                 -0.0789476        0.676842
0.696                 -0.0764615        0.677512
0.697                 -0.0739716        0.678172
0.698                 -0.0714778        0.678821
0.699                 -0.0689799        0.679461
0.7                   -0.0664783         0.68009
0.701                 -0.0639731        0.680709
0.702                  -0.061464        0.681317
0.703                 -0.0589512        0.681916
0.704                 -0.0564347        0.682504
0.705                 -0.0539147        0.683081
0.706                 -0.0513911        0.683649
0.707                 -0.0488641        0.684206
0.708                 -0.0463335        0.684753
0.709                 -0.0437995        0.685289
0.71                  -0.0412622        0.685815
0.711                 -0.0387215        0.686331
0.712                 -0.0361777        0.686836
0.713                 -0.0336306        0.687331
0.714                 -0.0310802        0.687815
0.715                 -0.0285267        0.688289
0.716                 -0.0259703        0.688752
0.717                 -0.0234105        0.689205
0.718                 -0.0208479        0.689647
0.719                 -0.0182825        0.690079
0.72                   -0.015714          0.6905
0.721                 -0.0131428        0.690911
0.722                 -0.0105684        0.691311
0.723                -0.00799164        0.691701
0.724                -0.00541204         0.69208
0.725                -0.00282961        0.692448
0.726               -0.000244726        0.692806
0.727                 0.00234256        0.693153
0.728                 0.00493254         0.69349
0.729                 0.00752482        0.693815
0.73                     0.01012        0.694131
0.731                  0.0127171        0.694435
0.732                  0.0153171        0.694729
0.733                  0.0179188        0.695012
0.734                  0.0205229        0.695284
0.735                   0.023129        0.695546
0.736                  0.0257378        0.695797
0.737                  0.0283485        0.696037
0.738                  0.0309611        0.696267
0.739                  0.0335756        0.696485
0.74                   0.0361924        0.696693
0.741                  0.0388107         0.69689
0.742                  0.0414313        0.697077
0.743                  0.0440533        0.697252
0.744                  0.0466775        0.697417
0.745                  0.0493032        0.697571
0.746                  0.0519305        0.697714
0.747                  0.0545595        0.697846
0.748                  0.0571896        0.697968
0.749                  0.0598221        0.698078
0.75                   0.0624558        0.698178
0.751                  0.0650905        0.698267
0.752                  0.0677267        0.698345
0.753                  0.0703644        0.698412
0.754                  0.0730036        0.698468
0.755                  0.0756435        0.698514
0.756                   0.078285        0.698548
0.757                  0.0809276        0.698572
0.758                  0.0835714        0.698584
0.759                   0.086216        0.698586
0.76                   0.0888618        0.698577
0.761                  0.0915081        0.698557
0.762                  0.0941557        0.698526
0.763                   0.096804        0.698483
0.764                  0.0994533        0.698431
0.765                   0.102103        0.698367
0.766                   0.104754        0.698292
0.767                   0.107405        0.698206
0.768                   0.110057        0.698109
0.769                   0.112709        0.698002
0.77                    0.115362        0.697883
0.771                   0.118015        0.697753
0.772                   0.120669        0.697613
0.773                   0.123323        0.697461
0.774                   0.125978        0.697299
0.775                   0.128633        0.697125
0.776                   0.131288        0.696941
0.777                   0.133943        0.696746
0.778                   0.136598        0.696539
0.779                   0.139254        0.696322
0.78                    0.141909        0.696093
0.781                   0.144564        0.695854
0.782                   0.147219        0.695604
0.783                   0.149874        0.695343
0.784                   0.152529         0.69507
0.785                   0.155184        0.694787
0.786                   0.157839        0.694493
0.787                   0.160493        0.694188
0.788                   0.163146        0.693872
0.789                     0.1658        0.693545
0.79                    0.168453        0.693206
0.791                   0.171105        0.692857
0.792                   0.173757        0.692497
0.793                   0.176408        0.692126
0.794                   0.179058        0.691745
0.795                   0.181708        0.691352
0.796                   0.184358        0.690948
0.797                   0.187006        0.690533
0.798                   0.189653        0.690107
0.799                     0.1923         0.68967
0.8                     0.194946        0.689223
0.801                    0.19759        0.688764
0.802                   0.200233        0.688295
0.803                   0.202876        0.687814
0.804                   0.205517        0.687323
0.805                   0.208157        0.686821
0.806                   0.210796        0.686307
0.807                   0.213434        0.685783
0.808                    0.21607        0.685248
0.809                   0.218704        0.684702
0.81                    0.221338        0.684146
0.811                    0.22397        0.683578
0.812                     0.2266        0.682999
0.813                   0.229229         0.68241
0.814                   0.231856         0.68181
0.815                   0.234482        0.681199
0.816                   0.237106        0.680577
0.817                   0.239728        0.679944
0.818                   0.242348          0.6793
0.819                   0.244966        0.678646
0.82                    0.247583         0.67798
0.821                   0.250197        0.677304
0.822                    0.25281        0.676617
0.823                    0.25542         0.67592
0.824                   0.258028        0.675211
0.825                   0.260635        0.674492
0.826                   0.263238        0.673762
0.827                    0.26584        0.673021
0.828                    0.26844         0.67227
0.829                   0.271037        0.671508
0.83                    0.273632        0.670735
0.831                   0.276224        0.669951
0.832                   0.278814        0.669157
0.833                   0.281401        0.668352
0.834                   0.283986        0.667536
0.835                   0.286568         0.66671
0.836                   0.289147        0.665873
0.837                   0.291724        0.665025
0.838                   0.294298        0.664167
0.839                   0.296869        0.663298
0.84                    0.299437        0.662419
0.841                   0.302003        0.661529
0.842                   0.304565        0.660628
0.843                   0.307125        0.659717
0.844                   0.309681        0.658796
0.845                   0.312235        0.657863
0.846                   0.314785        0.656921
0.847                   0.317332        0.655967
0.848                   0.319876        0.655004
0.849                   0.322416        0.654029
0.85                    0.324954        0.653045
0.851                   0.327488         0.65205
0.852                   0.330018        0.651044
0.853                   0.332545        0.650028
0.854                   0.335069        0.649002
0.855                   0.337589        0.647965
0.856                   0.340105        0.646918
0.857                   0.342618        0.645861
0.858                   0.345127        0.644793
0.859                   0.347633        0.643715
0.86                    0.350135        0.642627
0.861                   0.352633        0.641529
0.862                   0.355126         0.64042
0.863                   0.357617        0.639301
0.864                   0.360103        0.638171
0.865                   0.362585        0.637032
0.866                   0.365063        0.635882
0.867                   0.367538        0.634723
0.868                   0.370008        0.633553
0.869                   0.372473        0.632372
0.87                    0.374935        0.631182
0.871                   0.377393        0.629982
0.872                   0.379846        0.628772
0.873                   0.382295        0.627551
0.874                   0.384739        0.626321
0.875                   0.387179        0.625081
0.876                   0.389615         0.62383
0.877                   0.392046         0.62257
0.878                   0.394472        0.621299
0.879                   0.396894        0.620019
0.88                    0.399312        0.618729
0.881                   0.401724        0.617429
0.882                   0.404132        0.616119
0.883                   0.406535          0.6148
0.884                   0.408934         0.61347
0.885                   0.411328        0.612131
0.886                   0.413716        0.610782
0.887                     0.4161        0.609423
0.888                   0.418479        0.608054
0.889                   0.420853        0.606676
0.89                    0.423222        0.605288
0.891                   0.425585         0.60389
0.892                   0.427944        0.602483
0.893                   0.430297        0.601066
0.894                   0.432646         0.59964
0.895                   0.434989        0.598204
0.896                   0.437326        0.596759
0.897                   0.439659        0.595303
0.898                   0.441986        0.593839
0.899                   0.444307        0.592365
0.9                     0.446624        0.590882
0.901                   0.448934        0.589389
0.902                    0.45124        0.587887
0.903                   0.453539        0.586375
0.904                   0.455833        0.584854
0.905                   0.458122        0.583324
0.906                   0.460404        0.581784
0.907                   0.462681        0.580236
0.908                   0.464953        0.578678
0.909                   0.467218         0.57711
0.91                    0.469478        0.575534
0.911                   0.471731        0.573949
0.912                   0.473979        0.572354
0.913                   0.476221         0.57075
0.914                   0.478457        0.569137
0.915                   0.480687        0.567516
0.916                   0.482911        0.565885
0.917                   0.485129        0.564245
0.918                   0.487341        0.562596
0.919                   0.489546        0.560938
0.92                    0.491745        0.559272
0.921                   0.493939        0.557596
0.922                   0.496125        0.555912
0.923                   0.498306        0.554219
0.924                    0.50048        0.552516
0.925                   0.502648        0.550806
0.926                   0.504809        0.549086
0.927                   0.506964        0.547358
0.928                   0.509113        0.545621
0.929                   0.511255        0.543876
0.93                     0.51339        0.542122
0.931                   0.515519        0.540359
0.932                   0.517641        0.538588
0.933                   0.519757        0.536808
0.934                   0.521865         0.53502
0.935                   0.523968        0.533223
0.936                   0.526063        0.531418
0.937                   0.528151        0.529604
0.938                   0.530233        0.527782
0.939                   0.532308        0.525952
0.94                    0.534376        0.524113
0.941                   0.536437        0.522266
0.942                   0.538491        0.520411
0.943                   0.540538        0.518548
0.944                   0.542578        0.516676
0.945                   0.544611        0.514796
0.946                   0.546637        0.512908
0.947                   0.548656        0.511012
0.948                   0.550668        0.509108
0.949                   0.552673        0.507196
0.95                     0.55467        0.505276
0.951                    0.55666        0.503348
0.952                   0.558643        0.501412
0.953                   0.560618        0.499469
0.954                   0.562586        0.497517
0.955                   0.564547        0.495557
0.956                   0.566501         0.49359
0.957                   0.568446        0.491615
0.958                   0.570385        0.489632
0.959                   0.572316        0.487641
0.96                     0.57424        0.485643
0.961                   0.576155        0.483637
0.962                   0.578064        0.481624
0.963                   0.579965        0.479602
0.964                   0.581858        0.477574
0.965                   0.583743        0.475538
0.966                   0.585621        0.473494
0.967                   0.587491        0.471443
0.968                   0.589353        0.469385
0.969                   0.591208        0.467319
0.97                    0.593055        0.465245
0.971                   0.594894        0.463165
0.972                   0.596725        0.461077
0.973                   0.598548        0.458982
0.974                   0.600363         0.45688
0.975                   0.602171        0.454771
0.976                    0.60397        0.452654
0.977                   0.605761        0.450531
0.978                   0.607545          0.4484
0.979                    0.60932        0.446262
0.98                    0.611087        0.444117
0.981                   0.612846        0.441966
0.982                   0.614597        0.439807
0.983                    0.61634        0.437642
0.984                   0.618075        0.435469
0.985                   0.619802         0.43329
0.986                    0.62152        0.431104
0.987                    0.62323        0.428912
0.988                   0.624932        0.426712
0.989                   0.626625        0.424506
0.99                     0.62831        0.422293
0.991                   0.629987        0.420074
0.992                   0.631655        0.417848
0.993                   0.633315        0.415616
0.994                   0.634967        0.413377
0.995                    0.63661        0.411131
0.996                   0.638245        0.408879
0.997                   0.639871        0.406621
0.998                   0.641489        0.404356
0.999                   0.643098        0.402086
1                       0.644699        0.399808
1.001                   0.646291        0.397525
1.002                   0.647874        0.395235
1.003                   0.649449        0.392939
1.004                   0.651015        0.390637
1.005                   0.652573        0.388329
1.006                   0.654121        0.386015
1.007                   0.655661        0.383695
1.008                   0.657193        0.381368
1.009                   0.658715        0.379036
1.01                    0.660229        0.376698
1.011                   0.661734        0.374354
1.012                    0.66323        0.372004
1.013                   0.664718        0.369648
1.014                   0.666196        0.367287
1.015                   0.667666         0.36492
1.016                   0.669127        0.362547
1.017                   0.670579        0.360168
1.018                   0.672021        0.357784
1.019                   0.673455        0.355394
1.02                     0.67488        0.352999
1.021                   0.676296        0.350598
1.022                   0.677703        0.348191
1.023                   0.679101         0.34578
1.024                    0.68049        0.343362
1.025                    0.68187         0.34094
1.026                   0.683241        0.338512
1.027                   0.684602        0.336078
1.028                   0.685955         0.33364
1.029                   0.687298        0.331196
1.03                    0.688632        0.328747
1.031                   0.689957        0.326293
1.032                   0.691273        0.323834
1.033                    0.69258         0.32137
1.034                   0.693877          0.3189
1.035                   0.695165        0.316426
1.036                   0.696444        0.313947
1.037                   0.697714        0.311463
1.038                   0.698974        0.308973
1.039                   0.700225         0.30648
1.04                    0.701467        0.303981
1.041                   0.702699        0.301477
1.042                   0.703922        0.298969
1.043                   0.705136        0.296456
1.044                    0.70634        0.293938
1.045                   0.707535        0.291416
1.046                    0.70872        0.288889
1.047                   0.709896        0.286358
1.048                   0.711062        0.283822
1.049                   0.712219        0.281281
1.05                    0.713367        0.278737
1.051                   0.714505        0.276187
1.052                   0.715633        0.273634
1.053                   0.716752        0.271076
1.054                   0.717862        0.268514
1.055                   0.718962        0.265947
1.056                   0.720052        0.263376
1.057                   0.721133        0.260801
1.058                   0.722204        0.258223
1.059                   0.723266        0.255639
1.06                    0.724318        0.253052
1.061                    0.72536        0.250461
1.062                   0.726393        0.247866
1.063                   0.727416        0.245267
1.064                   0.728429        0.242664
1.065                   0.729433        0.240057
1.066                   0.730427        0.237446
1.067                   0.731411        0.234832
1.068                   0.732385        0.232213
1.069                    0.73335        0.229591
1.07                    0.734305        0.226966
1.071                   0.735251        0.224336
1.072                   0.736186        0.221704
1.073                   0.737112        0.219067
1.074                   0.738028        0.216427
1.075                   0.738934        0.213784
1.076                    0.73983        0.211137
1.077                   0.740717        0.208486
1.078                   0.741594        0.205832
1.079                   0.742461        0.203175
1.08                    0.743318        0.200515
1.081                   0.744165        0.197851
1.082                   0.745002        0.195184
1.083                    0.74583        0.192514
1.084                   0.746647        0.189841
1.085                   0.747455        0.187165
1.086                   0.748252        0.184485
1.087                    0.74904        0.181803
1.088                   0.749818        0.179118
1.089                   0.750586        0.176429
1.09                    0.751344        0.173738
1.091                   0.752092        0.171044
1.092                    0.75283        0.168347
1.093                   0.753558        0.165647
1.094                   0.754276        0.162944
1.095                   0.754985        0.160239
1.096                   0.755683        0.157531
1.097                   0.756371         0.15482
1.098                   0.757049        0.152107
1.099                   0.757717        0.149391
1.1                     0.758375        0.146673
1.101                   0.759023        0.143952
1.102                   0.759661        0.141229
1.103                   0.760289        0.138503
1.104                   0.760907        0.135775
1.105                   0.761515        0.133044
1.106                   0.762112        0.130311
1.107                     0.7627        0.127576
1.108                   0.763278        0.124839
1.109                   0.763845          0.1221
1.11                    0.764403        0.119358
1.111                    0.76495        0.116614
1.112                   0.765487        0.113868
1.113                   0.766014         0.11112
1.114                   0.766531        0.108371
1.115                   0.767038        0.105619
1.116                   0.767535        0.102865
1.117                   0.768021        0.100109
1.118                   0.768498       0.0973518
1.119                   0.768964       0.0945925
1.12                     0.76942       0.0918314
1.121                   0.769866       0.0890686
1.122                   0.770302       0.0863041
1.123                   0.770727       0.0835379
1.124                   0.771143       0.0807701
1.125                   0.771548       0.0780007
1.126                   0.771943       0.0752298
1.127                   0.772328       0.0724574
1.128                   0.772703       0.0696835
1.129                   0.773068       0.0669082
1.13                    0.773422       0.0641315
1.131                   0.773766       0.0613534
1.132                     0.7741       0.0585741
1.133                   0.774424       0.0557934
1.134                   0.774738       0.0530116
1.135                   0.775041       0.0502285
1.136                   0.775334       0.0474442
1.137                   0.775617       0.0446589
1.138                    0.77589       0.0418725
1.139                   0.776152        0.039085
1.14                    0.776404       0.0362965
1.141                   0.776647        0.033507
1.142                   0.776878       0.0307167
1.143                     0.7771       0.0279254
1.144                   0.777311       0.0251332
1.145                   0.777513       0.0223403
1.146                   0.777703       0.0195466
1.147                   0.777884       0.0167521
1.148                   0.778055        0.013957
1.149                   0.778215       0.0111612
1.15                    0.778365      0.00836471
1.151                   0.778504      0.00556768
1.152                   0.778634       0.0027701
1.153                   0.778753    -2.79809e-05
1.154                   0.778862     -0.00282654
1.155                   0.778961     -0.00562552
1.156                   0.779049      -0.0084249
1.157                   0.779128      -0.0112246
1.158                   0.779196      -0.0140247
1.159                   0.779254       -0.016825
1.16                    0.779301      -0.0196256
1.161                   0.779338      -0.0224264
1.162                   0.779366      -0.0252273
1.163                   0.779382      -0.0280284
1.164                   0.779389      -0.0308295
1.165                   0.779385      -0.0336307
1.166                   0.779371       -0.036432
1.167                   0.779347      -0.0392332
1.168                   0.779313      -0.0420343
1.169                   0.779268      -0.0448353
1.17                    0.779214      -0.0476362
1.171                   0.779149      -0.0504369
1.172                   0.779073      -0.0532374
1.173                   0.778988      -0.0560376
1.174                   0.778892      -0.0588375
1.175                   0.778786      -0.0616371
1.176                    0.77867      -0.0644364
1.177                   0.778544      -0.0672352
1.178                   0.778407      -0.0700336
1.179                    0.77826      -0.0728315
1.18                    0.778103      -0.0756288
1.181                   0.777936      -0.0784257
1.182                   0.777759      -0.0812219
1.183                   0.777571      -0.0840175
1.184                   0.777373      -0.0868124
1.185                   0.777165      -0.0896065
1.186                   0.776947         -0.0924
1.187                   0.776719      -0.0951926
1.188                    0.77648      -0.0979845
1.189                   0.776232       -0.100775
1.19                    0.775973       -0.103565
1.191                   0.775704       -0.106355
1.192                   0.775424       -0.109143
1.193                   0.775135        -0.11193
1.194                   0.774836       -0.114716
1.195                   0.774526       -0.117501
1.196                   0.774206       -0.120285
1.197                   0.773876       -0.123067
1.198                   0.773536       -0.125849
1.199                   0.773186       -0.128629
1.2                     0.772826       -0.131408
1.201                   0.772455       -0.134186
1.202                   0.772075       -0.136962
1.203                   0.771684       -0.139737
1.204                   0.771283        -0.14251
1.205                   0.770873       -0.145282
1.206                   0.770452       -0.148053
1.207                   0.770021       -0.150822
1.208                    0.76958       -0.153589
1.209                   0.769129       -0.156355
1.21                    0.768668       -0.159119
1.211                   0.768196       -0.161881
1.212                   0.767715       -0.164642
1.213                   0.767224         -0.1674
1.214                   0.766723       -0.170157
1.215                   0.766211       -0.172913
1.216                    0.76569       -0.175666
1.217                   0.765159       -0.178417
1.218                   0.764617       -0.181167
1.219                   0.764066       -0.183914
1.22                    0.763505        -0.18666
1.221                   0.762933       -0.189403
1.222                   0.762352       -0.192144
1.223                   0.761761       -0.194883
1.224                    0.76116        -0.19762
1.225                   0.760549       -0.200355
1.226                   0.759928       -0.203087
1.227                   0.759297       -0.205817
1.228                   0.758657       -0.208545
1.229                   0.758006        -0.21127
1.23                    0.757345       -0.213993
1.231                   0.756675       -0.216714
1.232                   0.755995       -0.219432
1.233                   0.755305       -0.222147
1.234                   0.754605        -0.22486
1.235                   0.753895       -0.227571
1.236                   0.753175       -0.230279
1.237                   0.752446       -0.232984
1.238                   0.751707       -0.235686
1.239                   0.750958       -0.238386
1.24                    0.750199       -0.241083
1.241                   0.749431       -0.243777
1.242                   0.748652       -0.246468
1.243                   0.747864       -0.249156
1.244                   0.747066       -0.251842
1.245                   0.746259       -0.254524
1.246                   0.745442       -0.257204
1.247                   0.744615        -0.25988
1.248                   0.743778       -0.262553
1.249                   0.742932       -0.265224
1.25                    0.742076       -0.267891
1.251                   0.741211       -0.270555
1.252                   0.740336       -0.273216
1.253                   0.739451       -0.275873
1.254                   0.738557       -0.278527
1.255                   0.737653       -0.281178
1.256                   0.736739       -0.283825
1.257                   0.735816        -0.28647
1.258                   0.734884        -0.28911
1.259                   0.733942       -0.291747
1.26                     0.73299       -0.294381
1.261                   0.732029       -0.297012
1.262                   0.731058       -0.299638
1.263                   0.730078       -0.302261
1.264                   0.729089       -0.304881
1.265                    0.72809       -0.307496
1.266                   0.727081       -0.310108
1.267                   0.726064       -0.312716
1.268                   0.725036       -0.315321
1.269                      0.724       -0.317921
1.27                    0.722954       -0.320518
1.271                   0.721899        -0.32311
1.272                   0.720834         -0.3257
1.273                    0.71976       -0.328285
1.274                   0.718676       -0.330866
1.275                   0.717584       -0.333443
1.276                   0.716482       -0.336015
1.277                   0.715371       -0.338584
1.278                   0.714251       -0.341149
1.279                   0.713121       -0.343709
1.28                    0.711983       -0.346266
1.281                   0.710835       -0.348817
1.282                   0.709678       -0.351365
1.283                   0.708512       -0.353909
1.284                   0.707336       -0.356448
1.285                   0.706152       -0.358983
1.286                   0.704958       -0.361513
1.287                   0.703756       -0.364039
1.288                   0.702544        -0.36656
1.289                   0.701323       -0.369077
1.29                    0.700094       -0.371589
1.291                   0.698855       -0.374097
1.292                   0.697607         -0.3766
1.293                   0.696351       -0.379099
1.294                   0.695085       -0.381593
1.295                   0.693811       -0.384082
1.296                   0.692527       -0.386566
1.297                   0.691235       -0.389046
1.298                   0.689934        -0.39152
1.299                   0.688624        -0.39399
1.3                     0.687305       -0.396455
1.301                   0.685978       -0.398915
1.302                   0.684641       -0.401371
1.303                   0.683296       -0.403821
1.304                   0.681942       -0.406266
1.305                    0.68058       -0.408706
1.306                   0.679208       -0.411141
1.307                   0.677828       -0.413571
1.308                    0.67644       -0.415996
1.309                   0.675042       -0.418416
1.31                    0.673637        -0.42083
1.311                   0.672222       -0.423239
1.312                   0.670799       -0.425643
1.313                   0.669368       -0.428042
1.314                   0.667927       -0.430435
1.315                   0.666479       -0.432823
1.316                   0.665022       -0.435206
1.317                   0.663556       -0.437583
1.318                   0.662082       -0.439955
1.319                     0.6606       -0.442321
1.32                    0.659109       -0.444682
1.321                    0.65761       -0.447037
1.322                   0.656102       -0.449386
1.323                   0.654586        -0.45173
1.324                   0.653062       -0.454068
1.325                    0.65153       -0.456401
1.326                   0.649989       -0.458728
1.327                    0.64844       -0.461049
1.328                   0.646883       -0.463365
1.329                   0.645318       -0.465674
1.33                    0.643745       -0.467978
1.331                   0.642163       -0.470276
1.332                   0.640573       -0.472568
1.333                   0.638976       -0.474854
1.334                    0.63737       -0.477135
1.335                   0.635756       -0.479409
1.336                   0.634134       -0.481677
1.337                   0.632504       -0.483939
1.338                   0.630866       -0.486196
1.339                   0.629221       -0.488446
1.34                    0.627567        -0.49069
1.341                   0.625905       -0.492927
1.342                   0.624236       -0.495159
1.343                   0.622559       -0.497385
1.344                   0.620874       -0.499604
1.345                   0.619181       -0.501817
1.346                    0.61748       -0.504023
1.347                   0.615772       -0.506224
1.348                   0.614056       -0.508418
1.349                   0.612333       -0.510605
1.35                    0.610601       -0.512787
1.351                   0.608862       -0.514962
1.352                   0.607116        -0.51713
1.353                   0.605362       -0.519292
1.354                     0.6036       -0.521447
1.355                   0.601831       -0.523596
1.356                   0.600054       -0.525738
1.357                    0.59827       -0.527874
1.358                   0.596478       -0.530003
1.359                   0.594679       -0.532126
1.36                    0.592873       -0.534242
1.361                   0.591059       -0.536351
1.362                   0.589238       -0.538453
1.363                    0.58741       -0.540549
1.364                   0.585574       -0.542638
1.365                   0.583732        -0.54472
1.366                   0.581881       -0.546795
1.367                   0.580024       -0.548864
1.368                    0.57816       -0.550925
1.369                   0.576288        -0.55298
1.37                     0.57441       -0.555027
1.371                   0.572524       -0.557068
1.372                   0.570631       -0.559102
1.373                   0.568731       -0.561129
1.374                   0.566825       -0.563149
1.375                   0.564911       -0.565162
1.376                    0.56299       -0.567167
1.377                   0.561063       -0.569166
1.378                   0.559129       -0.571157
1.379                   0.557187       -0.573142
1.38                    0.555239       -0.575119
1.381                   0.553284       -0.577089
1.382                   0.551323       -0.579052
1.383                   0.549355       -0.581007
1.384                   0.547379       -0.582956
1.385                   0.545398       -0.584897
1.386                    0.54341       -0.586831
1.387                   0.541415       -0.588757
1.388                   0.539413       -0.590676
1.389                   0.537405       -0.592588
1.39                    0.535391       -0.594492
1.391                    0.53337       -0.596389
1.392                   0.531342       -0.598279
1.393                   0.529308       -0.600161
1.394                   0.527268       -0.602035
1.395                   0.525221       -0.603902
1.396                   0.523168       -0.605762
1.397                   0.521109       -0.607614
1.398                   0.519044       -0.609458
1.399                   0.516972       -0.611295
1.4                     0.514894       -0.613124
1.401                    0.51281       -0.614946
1.402                   0.510719        -0.61676
1.403                   0.508623       -0.618566
1.404                    0.50652       -0.620365
1.405                   0.504412       -0.622156
1.406                   0.502297       -0.623939
1.407                   0.500177       -0.625715
1.408                    0.49805       -0.627482
1.409                   0.495918       -0.629242
1.41                    0.493779       -0.630994
1.411                   0.491635       -0.632739
1.412                   0.489485       -0.634475
1.413                   0.487329       -0.636204
1.414                   0.485167       -0.637924
1.415                      0.483       -0.639637
1.416                   0.480827       -0.641342
1.417                   0.478648       -0.643039
1.418                   0.476464       -0.644728
1.419                   0.474274       -0.646409
1.42                    0.472078       -0.648082
1.421                   0.469877       -0.649748
1.422                    0.46767       -0.651405
1.423                   0.465458       -0.653054
1.424                   0.463241       -0.654695
1.425                   0.461018       -0.656327
1.426                   0.458789       -0.657952
1.427                   0.456555       -0.659569
1.428                   0.454316       -0.661178
1.429                   0.452072       -0.662778
1.43                    0.449822        -0.66437
1.431                   0.447568       -0.665955
1.432                   0.445308       -0.667531
1.433                   0.443042       -0.669098
1.434                   0.440772       -0.670658
1.435                   0.438497       -0.672209
1.436                   0.436216       -0.673752
1.437                   0.433931       -0.675287
1.438                    0.43164       -0.676813
1.439                   0.429345       -0.678332
1.44                    0.427044       -0.679841
1.441                   0.424739       -0.681343
1.442                   0.422429       -0.682836
1.443                   0.420114       -0.684321
1.444                   0.417794       -0.685798
1.445                    0.41547       -0.687266
1.446                    0.41314       -0.688726
1.447                   0.410806       -0.690177
1.448                   0.408468        -0.69162
1.449                   0.406124       -0.693055
1.45                    0.403776       -0.694481
1.451                   0.401424       -0.695898
1.452                   0.399067       -0.697307
1.453                   0.396705       -0.698708
1.454                   0.394339         -0.7001
1.455                   0.391969       -0.701484
1.456                   0.389594       -0.702859
1.457                   0.387215       -0.704225
1.458                   0.384832       -0.705583
1.459                   0.382444       -0.706933
1.46                    0.380051       -0.708274
1.461                   0.377655       -0.709606
1.462                   0.375255        -0.71093
1.463                    0.37285       -0.712245
1.464                   0.370441       -0.713551
1.465                   0.368028       -0.714849
1.466                   0.365611       -0.716139
1.467                    0.36319       -0.717419
1.468                   0.360765       -0.718691
1.469                   0.358336       -0.719954
1.47                    0.355903       -0.721209
1.471                   0.353466       -0.722455
1.472                   0.351026       -0.723692
1.473                   0.348581        -0.72492
1.474                   0.346133        -0.72614
1.475                    0.34368       -0.727351
1.476                   0.341225       -0.728553
1.477                   0.338765       -0.729747
1.478                   0.336302       -0.730932
1.479                   0.333835       -0.732108
1.48                    0.331364       -0.733275
1.481                    0.32889       -0.734433
1.482                   0.326413       -0.735583
1.483                   0.323932       -0.736724
1.484                   0.321447       -0.737856
1.485                   0.318959       -0.738979
1.486                   0.316468       -0.740093
1.487                   0.313973       -0.741199
1.488                   0.311475       -0.742296
1.489                   0.308973       -0.743384
1.49                    0.306469       -0.744463
1.491                   0.303961       -0.745533
1.492                    0.30145       -0.746594
1.493                   0.298935       -0.747646
1.494                   0.296418        -0.74869
1.495                   0.293897       -0.749724
1.496                   0.291374        -0.75075
1.497                   0.288847       -0.751767
1.498                   0.286317       -0.752775
1.499                   0.283785       -0.753774
1.5                     0.281249       -0.754764
1.501                   0.278711       -0.755745
1.502                   0.276169       -0.756717
1.503                   0.273625        -0.75768
1.504                   0.271078       -0.758634
1.505                   0.268528        -0.75958
1.506                   0.265976       -0.760516
1.507                   0.263421       -0.761443
1.508                   0.260863       -0.762362
1.509                   0.258302       -0.763271
1.51                    0.255739       -0.764172
1.511                   0.253173       -0.765063
1.512                   0.250605       -0.765946
1.513                   0.248034       -0.766819
1.514                   0.245461       -0.767684
1.515                   0.242886       -0.768539
1.516                   0.240308       -0.769386
1.517                   0.237727       -0.770223
1.518                   0.235144       -0.771051
1.519                   0.232559       -0.771871
1.52                    0.229972       -0.772681
1.521                   0.227382       -0.773482
1.522                   0.224791       -0.774275
1.523                   0.222197       -0.775058
1.524                     0.2196       -0.775832
1.525                   0.217002       -0.776598
1.526                   0.214402       -0.777354
1.527                     0.2118       -0.778101
1.528                   0.209195       -0.778839
1.529                   0.206589       -0.779568
1.53                    0.203981       -0.780288
1.531                    0.20137       -0.780999
1.532                   0.198758       -0.781701
1.533                   0.196144       -0.782394
1.534                   0.193528       -0.783077
1.535                   0.190911       -0.783752
1.536                   0.188292       -0.784417
1.537                   0.185671       -0.785074
1.538                   0.183048       -0.785722
1.539                   0.180424        -0.78636
1.54                    0.177798       -0.786989
1.541                    0.17517        -0.78761
1.542                   0.172541       -0.788221
1.543                    0.16991       -0.788823
1.544                   0.167278       -0.789416
1.545                   0.164644           -0.79
1.546                   0.162009       -0.790575
1.547                   0.159373       -0.791141
1.548                   0.156735       -0.791697
1.549                   0.154096       -0.792245
1.55                    0.151455       -0.792784
1.551                   0.148814       -0.793313
1.552                   0.146171       -0.793834
1.553                   0.143527       -0.794345
1.554                   0.140881       -0.794847
1.555                   0.138235       -0.795341
1.556                   0.135587       -0.795825
1.557                   0.132939         -0.7963
1.558                   0.130289       -0.796766
1.559                   0.127638       -0.797223
1.56                    0.124986       -0.797671
1.561                   0.122334       -0.798109
1.562                    0.11968       -0.798539
1.563                   0.117026        -0.79896
1.564                    0.11437       -0.799371
1.565                   0.111714       -0.799774
1.566                   0.109057       -0.800167
1.567                     0.1064       -0.800552
1.568                   0.103741       -0.800927
1.569                   0.101082       -0.801293
1.57                   0.0984221        -0.80165
1.571                  0.0957616       -0.801999
1.572                  0.0931006       -0.802338
1.573                   0.090439       -0.802668
1.574                  0.0877768       -0.802989
1.575                  0.0851142       -0.803301
1.576                   0.082451       -0.803604
1.577                  0.0797872       -0.803898
1.578                  0.0771232       -0.804183
1.579                   0.074459       -0.804458
1.58                   0.0717942       -0.804725
1.581                  0.0691292       -0.804983
1.582                  0.0664637       -0.805232
1.583                  0.0637981       -0.805472
1.584                   0.061132       -0.805702
1.585                  0.0584659       -0.805924
1.586                  0.0557997       -0.806137
1.587                  0.0531332        -0.80634
1.588                  0.0504668       -0.806535
1.589                     0.0478       -0.806721
1.59                   0.0451334       -0.806898
1.591                  0.0424667       -0.807066
1.592                  0.0398002       -0.807224
1.593                  0.0371333       -0.807374
1.594                  0.0344668       -0.807515
1.595                  0.0318004       -0.807647
1.596                  0.0291341        -0.80777
1.597                  0.0264679       -0.807884
1.598                  0.0238018       -0.807989
1.599                  0.0211359       -0.808085
1.6                    0.0184706       -0.808172
1.601                  0.0158052        -0.80825
1.602                  0.0131404       -0.808319
1.603                  0.0104757        -0.80838
1.604                 0.00781149       -0.808431
1.605                 0.00514768       -0.808473
1.606                 0.00248428       -0.808507
1.607               -0.000178682       -0.808532
1.608                -0.00284118       -0.808547
1.609                -0.00550318       -0.808554
1.61                 -0.00816446       -0.808552
1.611                 -0.0108254       -0.808541
1.612                 -0.0134855       -0.808521
1.613                  -0.016145       -0.808493
1.614                 -0.0188041       -0.808455
1.615                 -0.0214623       -0.808409
1.616                 -0.0241198       -0.808354
1.617                 -0.0267767        -0.80829
1.618                 -0.0294325       -0.808217
1.619                 -0.0320877       -0.808135
1.62                  -0.0347419       -0.808045
1.621                 -0.0373954       -0.807945
1.622                 -0.0400479       -0.807837
1.623                 -0.0426996        -0.80772
1.624                 -0.0453504       -0.807594
1.625                     -0.048        -0.80746
1.626                 -0.0506488       -0.807316
1.627                 -0.0532964       -0.807164
1.628                  -0.055943       -0.807003
1.629                 -0.0585886       -0.806834
1.63                  -0.0612329       -0.806655
1.631                 -0.0638763       -0.806468
1.632                 -0.0665183       -0.806272
1.633                  -0.069159       -0.806068
1.634                 -0.0717987       -0.805855
1.635                  -0.074437       -0.805633
1.636                 -0.0770741       -0.805402
1.637                   -0.07971       -0.805163
1.638                 -0.0823443       -0.804915
1.639                 -0.0849771       -0.804658
1.64                  -0.0876087       -0.804392
1.641                 -0.0902391       -0.804118
1.642                 -0.0928676       -0.803836
1.643                 -0.0954948       -0.803544
1.644                 -0.0981205       -0.803244
1.645                  -0.100745       -0.802936
1.646                  -0.103367       -0.802619
1.647                  -0.105988       -0.802293
1.648                  -0.108608       -0.801958
1.649                  -0.111225       -0.801616
1.65                   -0.113841       -0.801264
1.651                  -0.116456       -0.800904
1.652                  -0.119068       -0.800535
1.653                  -0.121679       -0.800158
1.654                  -0.124288       -0.799772
1.655                  -0.126895       -0.799378
1.656                  -0.129501       -0.798975
1.657                  -0.132104       -0.798564
1.658                  -0.134706       -0.798144
1.659                  -0.137305       -0.797716
1.66                   -0.139903       -0.797279
1.661                  -0.142499       -0.796834
1.662                  -0.145093        -0.79638
1.663                  -0.147685       -0.795918
1.664                  -0.150274       -0.795447
1.665                  -0.152862       -0.794968
1.666                  -0.155447       -0.794481
1.667                  -0.158031       -0.793985
1.668                  -0.160612       -0.793481
1.669                  -0.163191       -0.792968
1.67                   -0.165768       -0.792447
1.671                  -0.168342       -0.791918
1.672                  -0.170915        -0.79138
1.673                  -0.173485       -0.790834
1.674                  -0.176052        -0.79028
1.675                  -0.178617       -0.789717
1.676                   -0.18118       -0.789146
1.677                  -0.183741       -0.788567
1.678                  -0.186299        -0.78798
1.679                  -0.188855       -0.787384
1.68                   -0.191408        -0.78678
1.681                  -0.193959       -0.786167
1.682                  -0.196507       -0.785547
1.683                  -0.199053       -0.784918
1.684                  -0.201596       -0.784281
1.685                  -0.204136       -0.783636
1.686                  -0.206674       -0.782982
1.687                  -0.209209       -0.782321
1.688                  -0.211742       -0.781651
1.689                  -0.214272       -0.780973
1.69                   -0.216799       -0.780287
1.691                  -0.219323       -0.779593
1.692                  -0.221845       -0.778891
1.693                  -0.224364        -0.77818
1.694                   -0.22688       -0.777462
1.695                  -0.229393       -0.776735
1.696                  -0.231903       -0.776001
1.697                  -0.234411       -0.775258
1.698                  -0.236915       -0.774507
1.699                  -0.239416       -0.773749
1.7                    -0.241915       -0.772982
1.701                  -0.244411       -0.772207
1.702                  -0.246903       -0.771424
1.703                  -0.249393       -0.770634
1.704                  -0.251879       -0.769835
1.705                  -0.254363       -0.769028
1.706                  -0.256843       -0.768214
1.707                   -0.25932       -0.767391
1.708                  -0.261794       -0.766561
1.709                  -0.264264       -0.765722
1.71                   -0.266732       -0.764876
1.711                  -0.269196       -0.764022
1.712                  -0.271657        -0.76316
1.713                  -0.274115        -0.76229
1.714                   -0.27657       -0.761413
1.715                  -0.279021       -0.760527
1.716                  -0.281469       -0.759634
1.717                  -0.283913       -0.758733
1.718                  -0.286354       -0.757824
1.719                  -0.288792       -0.756907
1.72                   -0.291226       -0.755983
1.721                  -0.293656       -0.755051
1.722                  -0.296083       -0.754111
1.723                  -0.298507       -0.753164
1.724                  -0.300928       -0.752208
1.725                  -0.303344       -0.751246
1.726                  -0.305757       -0.750275
1.727                  -0.308166       -0.749297
1.728                  -0.310572       -0.748311
1.729                  -0.312974       -0.747318
1.73                   -0.315373       -0.746316
1.731                  -0.317768       -0.745308
1.732                  -0.320159       -0.744292
1.733                  -0.322546       -0.743268
1.734                   -0.32493       -0.742236
1.735                  -0.327309       -0.741197
1.736                  -0.329685       -0.740151
1.737                  -0.332058       -0.739097
1.738                  -0.334426       -0.738036
1.739                   -0.33679       -0.736967
1.74                   -0.339151        -0.73589
1.741                  -0.341508       -0.734807
1.742                   -0.34386       -0.733715
1.743                  -0.346209       -0.732616
1.744                  -0.348554       -0.731511
1.745                  -0.350894       -0.730397
1.746                  -0.353231       -0.729276
1.747                  -0.355564       -0.728148
1.748                  -0.357893       -0.727012
1.749                  -0.360217        -0.72587
1.75                   -0.362537       -0.724719
1.751                  -0.364854       -0.723562
1.752                  -0.367166       -0.722397
1.753                  -0.369474       -0.721225
1.754                  -0.371778       -0.720046
1.755                  -0.374077       -0.718859
1.756                  -0.376373       -0.717665
1.757                  -0.378664       -0.716465
1.758                  -0.380951       -0.715256
1.759                  -0.383233       -0.714041
1.76                   -0.385511       -0.712819
1.761                  -0.387785       -0.711589
1.762                  -0.390054       -0.710352
1.763                  -0.392319       -0.709108
1.764                   -0.39458       -0.707857
1.765                  -0.396837       -0.706599
1.766                  -0.399088       -0.705334
1.767                  -0.401336       -0.704062
1.768                  -0.403578       -0.702783
1.769                  -0.405817       -0.701497
1.77                   -0.408051       -0.700204
1.771                   -0.41028       -0.698904
1.772                  -0.412505       -0.697596
1.773                  -0.414725       -0.696282
1.774                  -0.416941       -0.694961
1.775                  -0.419151       -0.693633
1.776                  -0.421357       -0.692299
1.777                  -0.423559       -0.690957
1.778                  -0.425756       -0.689608
1.779                  -0.427948       -0.688253
1.78                   -0.430136       -0.686891
1.781                  -0.432319       -0.685521
1.782                  -0.434497       -0.684145
1.783                   -0.43667       -0.682763
1.784                  -0.438838       -0.681373
1.785                  -0.441002       -0.679977
1.786                   -0.44316       -0.678574
1.787                  -0.445314       -0.677165
1.788                  -0.447463       -0.675748
1.789                  -0.449608       -0.674325
1.79                   -0.451747       -0.672895
1.791                  -0.453881       -0.671459
1.792                   -0.45601       -0.670016
1.793                  -0.458135       -0.668566
1.794                  -0.460254        -0.66711
1.795                  -0.462368       -0.665647
1.796                  -0.464477       -0.664178
1.797                  -0.466581       -0.662702
1.798                  -0.468681        -0.66122
1.799                  -0.470775       -0.659731
1.8                    -0.472863       -0.658235
1.801                  -0.474947       -0.656733
1.802                  -0.477026       -0.655225
1.803                  -0.479099        -0.65371
1.804                  -0.481168       -0.652189
1.805                  -0.483231       -0.650661
1.806                  -0.485289       -0.649127
1.807                  -0.487342       -0.647587
1.808                  -0.489389        -0.64604
1.809                  -0.491431       -0.644487
1.81                   -0.493468       -0.642927
1.811                  -0.495499       -0.641361
1.812                  -0.497526       -0.639789
1.813                  -0.499546       -0.638211
1.814                  -0.501562       -0.636626
1.815                  -0.503572       -0.635036
1.816                  -0.505577       -0.633439
1.817                  -0.507576       -0.631835
1.818                   -0.50957       -0.630226
1.819                  -0.511558        -0.62861
1.82                   -0.513541       -0.626989
1.821                  -0.515518       -0.625361
1.822                   -0.51749       -0.623727
1.823                  -0.519456       -0.622087
1.824                  -0.521417       -0.620441
1.825                  -0.523372       -0.618788
1.826                  -0.525322        -0.61713
1.827                  -0.527266       -0.615466
1.828                  -0.529205       -0.613796
1.829                  -0.531137        -0.61212
1.83                   -0.533064       -0.610437
1.831                  -0.534986        -0.60875
1.832                  -0.536902       -0.607056
1.833                  -0.538812       -0.605356
1.834                  -0.540716        -0.60365
1.835                  -0.542615       -0.601938
1.836                  -0.544508        -0.60022
1.837                  -0.546395       -0.598497
1.838                  -0.548276       -0.596768
1.839                  -0.550152       -0.595033
1.84                   -0.552022       -0.593292
1.841                  -0.553885       -0.591546
1.842                  -0.555743       -0.589794
1.843                  -0.557596       -0.588036
1.844                  -0.559442       -0.586272
1.845                  -0.561282       -0.584503
1.846                  -0.563117       -0.582728
1.847                  -0.564945       -0.580947
1.848                  -0.566768       -0.579161
1.849                  -0.568584       -0.577369
1.85                   -0.570395       -0.575572
1.851                  -0.572199       -0.573769
1.852                  -0.573998        -0.57196
1.853                   -0.57579       -0.570146
1.854                  -0.577577       -0.568327
1.855                  -0.579357       -0.566502
1.856                  -0.581132       -0.564671
1.857                    -0.5829       -0.562835
1.858                  -0.584662       -0.560994
1.859                  -0.586418       -0.559147
1.86                   -0.588168       -0.557295
1.861                  -0.589911       -0.555437
1.862                  -0.591649       -0.553575
1.863                   -0.59338       -0.551706
1.864                  -0.595105       -0.549833
1.865                  -0.596824       -0.547954
1.866                  -0.598536        -0.54607
1.867                  -0.600243       -0.544181
1.868                  -0.601943       -0.542286
1.869                  -0.603636       -0.540386
1.87                   -0.605324       -0.538482
1.871                  -0.607005       -0.536572
1.872                   -0.60868       -0.534656
1.873                  -0.610348       -0.532736
1.874                   -0.61201        -0.53081
1.875                  -0.613666        -0.52888
1.876                  -0.615315       -0.526944
1.877                  -0.616958       -0.525004
1.878                  -0.618594       -0.523058
1.879                  -0.620224       -0.521107
1.88                   -0.621848       -0.519152
1.881                  -0.623465       -0.517191
1.882                  -0.625075       -0.515225
1.883                  -0.626679       -0.513255
1.884                  -0.628277        -0.51128
1.885                  -0.629868         -0.5093
1.886                  -0.631452       -0.507314
1.887                   -0.63303       -0.505324
1.888                  -0.634601        -0.50333
1.889                  -0.636166        -0.50133
1.89                   -0.637724       -0.499326
1.891                  -0.639276       -0.497317
1.892                  -0.640821       -0.495303
1.893                  -0.642359       -0.493285
1.894                   -0.64389       -0.491261
1.895                  -0.645415       -0.489234
1.896                  -0.646933       -0.487201
1.897                  -0.648445       -0.485164
1.898                  -0.649949       -0.483123
1.899                  -0.651447       -0.481076
1.9                    -0.652939       -0.479026
1.901                  -0.654423        -0.47697
1.902                  -0.655901        -0.47491
1.903                  -0.657372       -0.472846
1.904                  -0.658836       -0.470777
1.905                  -0.660293       -0.468704
1.906                  -0.661743       -0.466627
1.907                  -0.663187       -0.464545
1.908                  -0.664624       -0.462458
1.909                  -0.666054       -0.460367
1.91                   -0.667477       -0.458272
1.911                  -0.668893       -0.456173
1.912                  -0.670302       -0.454069
1.913                  -0.671704       -0.451961
1.914                  -0.673099       -0.449849
1.915                  -0.674488       -0.447733
1.916                  -0.675869       -0.445612
1.917                  -0.677244       -0.443487
1.918                  -0.678611       -0.441358
1.919                  -0.679972       -0.439225
1.92                   -0.681325       -0.437088
1.921                  -0.682671       -0.434947
1.922                  -0.684011       -0.432802
1.923                  -0.685343       -0.430652
1.924                  -0.686668       -0.428499
1.925                  -0.687987       -0.426342
1.926                  -0.689298       -0.424181
1.927                  -0.690602       -0.422015
1.928                  -0.691898       -0.419846
1.929                  -0.693188       -0.417673
1.93                   -0.694471       -0.415496
1.931                  -0.695746       -0.413316
1.932                  -0.697015       -0.411131
1.933                  -0.698276       -0.408943
1.934                   -0.69953       -0.406751
1.935                  -0.700776       -0.404555
1.936                  -0.702016       -0.402355
1.937                  -0.703248       -0.400152
1.938                  -0.704473       -0.397945
1.939                  -0.705691       -0.395734
1.94                   -0.706902        -0.39352
1.941                  -0.708105       -0.391302
1.942                  -0.709301       -0.389081
1.943                   -0.71049       -0.386855
1.944                  -0.711671       -0.384627
1.945                  -0.712845       -0.382395
1.946                  -0.714012       -0.380159
1.947                  -0.715172        -0.37792
1.948                  -0.716324       -0.375678
1.949                  -0.717469       -0.373432
1.95                   -0.718607       -0.371183
1.951                  -0.719737        -0.36893
1.952                  -0.720859       -0.366674
1.953                  -0.721975       -0.364415
1.954                  -0.723083       -0.362152
1.955                  -0.724183       -0.359886
1.956                  -0.725277       -0.357617
1.957                  -0.726362       -0.355345
1.958                   -0.72744        -0.35307
1.959                  -0.728511       -0.350791
1.96                   -0.729575       -0.348509
1.961                  -0.730631       -0.346224
1.962                  -0.731679       -0.343936
1.963                   -0.73272       -0.341645
1.964                  -0.733754       -0.339351
1.965                  -0.734779       -0.337054
1.966                  -0.735798       -0.334754
1.967                  -0.736809       -0.332451
1.968                  -0.737812       -0.330145
1.969                  -0.738808       -0.327836
1.97                   -0.739797       -0.325524
1.971                  -0.740777        -0.32321
1.972                  -0.741751       -0.320892
1.973                  -0.742716       -0.318572
1.974                  -0.743674       -0.316249
1.975                  -0.744625       -0.313923
1.976                  -0.745568       -0.311594
1.977                  -0.746503       -0.309263
1.978                  -0.747431       -0.306929
1.979                  -0.748351       -0.304592
1.98                   -0.749263       -0.302253
1.981                  -0.750168       -0.299911
1.982                  -0.751066       -0.297567
1.983                  -0.751955        -0.29522
1.984                  -0.752837       -0.292871
1.985                  -0.753711       -0.290519
1.986                  -0.754578       -0.288164
1.987                  -0.755437       -0.285807
1.988                  -0.756288       -0.283448
1.989                  -0.757132       -0.281086
1.99                   -0.757968       -0.278722
1.991                  -0.758796       -0.276356
1.992                  -0.759616       -0.273987
1.993                  -0.760429       -0.271616
1.994                  -0.761234       -0.269242
1.995                  -0.762032       -0.266867
1.996                  -0.762822       -0.264489
1.997                  -0.763603       -0.262109
1.998                  -0.764378       -0.259727
1.999                  -0.765144       -0.257343
2                      -0.765903       -0.254957
