! TOUCHSTONE file generated by CST MICROWAVE STUDIO
! Date and time: Sun Aug  2 00:10:29 2026
! Project name: Sonda-Coaxial_21mm_DisifixB_v2_Agua_Destilada.cst
! Parameters = {h_recipiente=20; l_conector=50; r_arandela=35; r_ext=10.5; r_int=3; r_recipiente=100; z_recipiente=-30}
! Header version: 2018
! Port assignment regex: !\s*Touchstone port\s*([0-9]+)\s*=\s*(CST MWS port|CST DS port)\s*([0-9]+|Zmin|Zmax)\s*\(\"(.*)\"\)(\s*mode\s*([0-9]+))?.*
! Touchstone port assignment:
! Touchstone port 1 = CST MWS port 1 ("")
# GHz S RI R 50
0.001                  -0.103043     -0.00106341
0.002                  -0.103059     -0.00212669
0.003                  -0.103086     -0.00318971
0.004                  -0.103124     -0.00425233
0.005                  -0.103173     -0.00531447
0.006                  -0.103232     -0.00637593
0.007                  -0.103302     -0.00743664
0.008                  -0.103384     -0.00849649
0.009                  -0.103476     -0.00955532
0.01                   -0.103579       -0.010613
0.011                  -0.103693      -0.0116695
0.012                  -0.103818      -0.0127247
0.013                  -0.103953      -0.0137784
0.014                    -0.1041      -0.0148306
0.015                  -0.104258      -0.0158811
0.016                  -0.104427      -0.0169299
0.017                  -0.104607      -0.0179769
0.018                  -0.104798       -0.019022
0.019                     -0.105      -0.0200651
0.02                   -0.105213       -0.021106
0.021                  -0.105438      -0.0221448
0.022                  -0.105673      -0.0231814
0.023                   -0.10592      -0.0242156
0.024                  -0.106177      -0.0252475
0.025                  -0.106446      -0.0262768
0.026                  -0.106726      -0.0273035
0.027                  -0.107017      -0.0283277
0.028                   -0.10732      -0.0293491
0.029                  -0.107633      -0.0303677
0.03                   -0.107957      -0.0313834
0.031                  -0.108293      -0.0323962
0.032                  -0.108639       -0.033406
0.033                  -0.108997      -0.0344127
0.034                  -0.109366      -0.0354163
0.035                  -0.109746      -0.0364165
0.036                  -0.110136      -0.0374135
0.037                  -0.110538      -0.0384071
0.038                  -0.110951      -0.0393972
0.039                  -0.111374      -0.0403838
0.04                   -0.111809      -0.0413668
0.041                  -0.112254      -0.0423461
0.042                   -0.11271      -0.0433216
0.043                  -0.113178      -0.0442932
0.044                  -0.113655       -0.045261
0.045                  -0.114144      -0.0462247
0.046                  -0.114643      -0.0471843
0.047                  -0.115153      -0.0481398
0.048                  -0.115674      -0.0490911
0.049                  -0.116205       -0.050038
0.05                   -0.116747      -0.0509806
0.051                    -0.1173      -0.0519187
0.052                  -0.117863      -0.0528522
0.053                  -0.118436      -0.0537811
0.054                   -0.11902      -0.0547053
0.055                  -0.119614      -0.0556247
0.056                  -0.120219      -0.0565393
0.057                  -0.120834      -0.0574489
0.058                  -0.121459      -0.0583535
0.059                  -0.122095       -0.059253
0.06                    -0.12274      -0.0601474
0.061                  -0.123396      -0.0610364
0.062                  -0.124062      -0.0619202
0.063                  -0.124738      -0.0627985
0.064                  -0.125424      -0.0636714
0.065                   -0.12612      -0.0645387
0.066                  -0.126825      -0.0654003
0.067                  -0.127541      -0.0662563
0.068                  -0.128267      -0.0671064
0.069                  -0.129002      -0.0679507
0.07                   -0.129747      -0.0687891
0.071                  -0.130502      -0.0696214
0.072                  -0.131266      -0.0704476
0.073                   -0.13204      -0.0712676
0.074                  -0.132824      -0.0720814
0.075                  -0.133616      -0.0728889
0.076                  -0.134419      -0.0736899
0.077                  -0.135231      -0.0744846
0.078                  -0.136052      -0.0752726
0.079                  -0.136882      -0.0760541
0.08                   -0.137722      -0.0768288
0.081                   -0.13857      -0.0775968
0.082                  -0.139428       -0.078358
0.083                  -0.140295      -0.0791122
0.084                  -0.141171      -0.0798595
0.085                  -0.142056      -0.0805997
0.086                   -0.14295      -0.0813328
0.087                  -0.143852      -0.0820588
0.088                  -0.144764      -0.0827774
0.089                  -0.145684      -0.0834888
0.09                   -0.146612      -0.0841927
0.091                   -0.14755      -0.0848892
0.092                  -0.148496      -0.0855781
0.093                   -0.14945      -0.0862595
0.094                  -0.150413      -0.0869332
0.095                  -0.151384      -0.0875991
0.096                  -0.152363      -0.0882573
0.097                  -0.153351      -0.0889075
0.098                  -0.154347      -0.0895499
0.099                  -0.155351      -0.0901843
0.1                    -0.156363      -0.0908106
0.101                  -0.157383      -0.0914287
0.102                  -0.158411      -0.0920387
0.103                  -0.159447      -0.0926405
0.104                   -0.16049      -0.0932339
0.105                  -0.161541       -0.093819
0.106                    -0.1626      -0.0943956
0.107                  -0.163667      -0.0949638
0.108                  -0.164741      -0.0955234
0.109                  -0.165823      -0.0960743
0.11                   -0.166912      -0.0966167
0.111                  -0.168008      -0.0971502
0.112                  -0.169111      -0.0976751
0.113                  -0.170222      -0.0981911
0.114                   -0.17134      -0.0986981
0.115                  -0.172465      -0.0991962
0.116                  -0.173597      -0.0996853
0.117                  -0.174736       -0.100165
0.118                  -0.175881       -0.100636
0.119                  -0.177034       -0.101098
0.12                   -0.178193        -0.10155
0.121                  -0.179359       -0.101994
0.122                  -0.180531       -0.102428
0.123                   -0.18171       -0.102852
0.124                  -0.182895       -0.103267
0.125                  -0.184086       -0.103673
0.126                  -0.185284       -0.104069
0.127                  -0.186488       -0.104455
0.128                  -0.187698       -0.104832
0.129                  -0.188915       -0.105199
0.13                   -0.190137       -0.105557
0.131                  -0.191365       -0.105904
0.132                  -0.192599       -0.106242
0.133                  -0.193838        -0.10657
0.134                  -0.195084       -0.106888
0.135                  -0.196335       -0.107196
0.136                  -0.197591       -0.107494
0.137                  -0.198853       -0.107782
0.138                   -0.20012        -0.10806
0.139                  -0.201392       -0.108328
0.14                    -0.20267       -0.108586
0.141                  -0.203953       -0.108833
0.142                  -0.205241       -0.109071
0.143                  -0.206534       -0.109297
0.144                  -0.207832       -0.109514
0.145                  -0.209134        -0.10972
0.146                  -0.210442       -0.109916
0.147                  -0.211753       -0.110101
0.148                   -0.21307       -0.110276
0.149                  -0.214391       -0.110441
0.15                   -0.215717       -0.110595
0.151                  -0.217046       -0.110738
0.152                   -0.21838       -0.110871
0.153                  -0.219719       -0.110993
0.154                  -0.221061       -0.111104
0.155                  -0.222407       -0.111204
0.156                  -0.223758       -0.111294
0.157                  -0.225112       -0.111373
0.158                   -0.22647       -0.111442
0.159                  -0.227831       -0.111499
0.16                   -0.229197       -0.111546
0.161                  -0.230565       -0.111581
0.162                  -0.231938       -0.111606
0.163                  -0.233313        -0.11162
0.164                  -0.234692       -0.111623
0.165                  -0.236074       -0.111615
0.166                  -0.237459       -0.111595
0.167                  -0.238847       -0.111565
0.168                  -0.240239       -0.111524
0.169                  -0.241633       -0.111471
0.17                   -0.243029       -0.111408
0.171                  -0.244429       -0.111333
0.172                  -0.245831       -0.111247
0.173                  -0.247236        -0.11115
0.174                  -0.248643       -0.111042
0.175                  -0.250052       -0.110923
0.176                  -0.251464       -0.110792
0.177                  -0.252878        -0.11065
0.178                  -0.254294       -0.110497
0.179                  -0.255712       -0.110333
0.18                   -0.257132       -0.110157
0.181                  -0.258554        -0.10997
0.182                  -0.259977       -0.109771
0.183                  -0.261403       -0.109562
0.184                   -0.26283       -0.109341
0.185                  -0.264258       -0.109108
0.186                  -0.265688       -0.108864
0.187                  -0.267119       -0.108609
0.188                  -0.268552       -0.108342
0.189                  -0.269986       -0.108064
0.19                    -0.27142       -0.107775
0.191                  -0.272856       -0.107474
0.192                  -0.274293       -0.107162
0.193                  -0.275731       -0.106838
0.194                  -0.277169       -0.106503
0.195                  -0.278608       -0.106156
0.196                  -0.280048       -0.105798
0.197                  -0.281488       -0.105428
0.198                  -0.282928       -0.105047
0.199                  -0.284369       -0.104654
0.2                     -0.28581        -0.10425
0.201                  -0.287252       -0.103835
0.202                  -0.288693       -0.103408
0.203                  -0.290135       -0.102969
0.204                  -0.291576       -0.102519
0.205                  -0.293017       -0.102057
0.206                  -0.294458       -0.101584
0.207                  -0.295899         -0.1011
0.208                  -0.297339       -0.100604
0.209                  -0.298779       -0.100096
0.21                   -0.300218      -0.0995775
0.211                  -0.301656      -0.0990472
0.212                  -0.303094      -0.0985052
0.213                  -0.304531      -0.0979519
0.214                  -0.305967      -0.0973871
0.215                  -0.307402      -0.0968109
0.216                  -0.308836      -0.0962232
0.217                  -0.310269      -0.0956241
0.218                    -0.3117      -0.0950135
0.219                   -0.31313      -0.0943916
0.22                   -0.314559      -0.0937582
0.221                  -0.315986      -0.0931135
0.222                  -0.317412      -0.0924573
0.223                  -0.318836      -0.0917898
0.224                  -0.320258      -0.0911109
0.225                  -0.321679      -0.0904207
0.226                  -0.323098      -0.0897191
0.227                  -0.324514      -0.0890061
0.228                  -0.325929      -0.0882819
0.229                  -0.327341      -0.0875464
0.23                   -0.328751      -0.0867996
0.231                  -0.330159      -0.0860415
0.232                  -0.331565      -0.0852722
0.233                  -0.332968      -0.0844917
0.234                  -0.334368      -0.0836999
0.235                  -0.335766       -0.082897
0.236                  -0.337161      -0.0820829
0.237                  -0.338554      -0.0812576
0.238                  -0.339943      -0.0804211
0.239                   -0.34133      -0.0795736
0.24                   -0.342713      -0.0787149
0.241                  -0.344094      -0.0778452
0.242                  -0.345471      -0.0769645
0.243                  -0.346845      -0.0760727
0.244                  -0.348216      -0.0751699
0.245                  -0.349583      -0.0742561
0.246                  -0.350947      -0.0733314
0.247                  -0.352307      -0.0723957
0.248                  -0.353664      -0.0714491
0.249                  -0.355017      -0.0704916
0.25                   -0.356366      -0.0695233
0.251                  -0.357711      -0.0685441
0.252                  -0.359053      -0.0675542
0.253                   -0.36039      -0.0665535
0.254                  -0.361723       -0.065542
0.255                  -0.363052      -0.0645198
0.256                  -0.364377       -0.063487
0.257                  -0.365698      -0.0624433
0.258                  -0.367014      -0.0613893
0.259                  -0.368325      -0.0603245
0.26                   -0.369632      -0.0592491
0.261                  -0.370935      -0.0581632
0.262                  -0.372233      -0.0570669
0.263                  -0.373526      -0.0559601
0.264                  -0.374814      -0.0548428
0.265                  -0.376098      -0.0537152
0.266                  -0.377376      -0.0525771
0.267                  -0.378649      -0.0514288
0.268                  -0.379918      -0.0502701
0.269                  -0.381181      -0.0491013
0.27                   -0.382439      -0.0479221
0.271                  -0.383691      -0.0467328
0.272                  -0.384938      -0.0455333
0.273                   -0.38618      -0.0443237
0.274                  -0.387416      -0.0431041
0.275                  -0.388647      -0.0418744
0.276                  -0.389872      -0.0406346
0.277                  -0.391091      -0.0393851
0.278                  -0.392305      -0.0381255
0.279                  -0.393512       -0.036856
0.28                   -0.394714      -0.0355767
0.281                  -0.395909      -0.0342876
0.282                  -0.397099      -0.0329888
0.283                  -0.398282      -0.0316803
0.284                   -0.39946      -0.0303621
0.285                  -0.400631      -0.0290342
0.286                  -0.401796      -0.0276968
0.287                  -0.402954      -0.0263498
0.288                  -0.404106      -0.0249933
0.289                  -0.405251      -0.0236273
0.29                    -0.40639       -0.022252
0.291                  -0.407522      -0.0208674
0.292                  -0.408648      -0.0194733
0.293                  -0.409766        -0.01807
0.294                  -0.410878      -0.0166574
0.295                  -0.411984      -0.0152358
0.296                  -0.413082      -0.0138049
0.297                  -0.414173      -0.0123649
0.298                  -0.415257       -0.010916
0.299                  -0.416334     -0.00945798
0.3                    -0.417404     -0.00799112
0.301                  -0.418466     -0.00651522
0.302                  -0.419522      -0.0050306
0.303                  -0.420569     -0.00353711
0.304                   -0.42161     -0.00203487
0.305                  -0.422643    -0.000524019
0.306                  -0.423669     0.000995513
0.307                  -0.424687      0.00252378
0.308                  -0.425697      0.00406037
0.309                    -0.4267      0.00560563
0.31                   -0.427695      0.00715932
0.311                  -0.428682      0.00872132
0.312                  -0.429661       0.0102916
0.313                  -0.430633       0.0118704
0.314                  -0.431596       0.0134572
0.315                  -0.432552       0.0150523
0.316                  -0.433499       0.0166555
0.317                  -0.434438       0.0182668
0.318                  -0.435369       0.0198862
0.319                  -0.436292       0.0215134
0.32                   -0.437207       0.0231486
0.321                  -0.438114       0.0247917
0.322                  -0.439012       0.0264426
0.323                  -0.439901       0.0281013
0.324                  -0.440782       0.0297676
0.325                  -0.441655       0.0314415
0.326                  -0.442519       0.0331231
0.327                  -0.443375       0.0348122
0.328                  -0.444222       0.0365087
0.329                   -0.44506       0.0382127
0.33                   -0.445889       0.0399239
0.331                   -0.44671       0.0416427
0.332                  -0.447522       0.0433684
0.333                  -0.448325       0.0451015
0.334                  -0.449119       0.0468418
0.335                  -0.449904       0.0485889
0.336                   -0.45068       0.0503432
0.337                  -0.451448       0.0521045
0.338                  -0.452206       0.0538727
0.339                  -0.452955       0.0556476
0.34                   -0.453694       0.0574293
0.341                  -0.454425       0.0592179
0.342                  -0.455146       0.0610129
0.343                  -0.455858       0.0628147
0.344                  -0.456561        0.064623
0.345                  -0.457254       0.0664378
0.346                  -0.457938        0.068259
0.347                  -0.458612       0.0700865
0.348                  -0.459277       0.0719205
0.349                  -0.459933       0.0737605
0.35                   -0.460579       0.0756067
0.351                  -0.461215       0.0774592
0.352                  -0.461842       0.0793177
0.353                  -0.462459       0.0811822
0.354                  -0.463066       0.0830527
0.355                  -0.463663        0.084929
0.356                  -0.464251       0.0868111
0.357                  -0.464829       0.0886988
0.358                  -0.465397       0.0905925
0.359                  -0.465956       0.0924918
0.36                   -0.466504       0.0943966
0.361                  -0.467042       0.0963068
0.362                  -0.467571       0.0982226
0.363                  -0.468089        0.100144
0.364                  -0.468598         0.10207
0.365                  -0.469096        0.104002
0.366                  -0.469585        0.105939
0.367                  -0.470063        0.107881
0.368                  -0.470531        0.109828
0.369                  -0.470989         0.11178
0.37                   -0.471437        0.113737
0.371                  -0.471874        0.115699
0.372                  -0.472301        0.117666
0.373                  -0.472718        0.119638
0.374                  -0.473125        0.121614
0.375                  -0.473521        0.123595
0.376                  -0.473907         0.12558
0.377                  -0.474282         0.12757
0.378                  -0.474648        0.129565
0.379                  -0.475002        0.131563
0.38                   -0.475347        0.133566
0.381                   -0.47568        0.135574
0.382                  -0.476003        0.137585
0.383                  -0.476316        0.139601
0.384                  -0.476618        0.141621
0.385                   -0.47691        0.143645
0.386                  -0.477191        0.145672
0.387                  -0.477461        0.147704
0.388                  -0.477721        0.149739
0.389                   -0.47797        0.151778
0.39                   -0.478209        0.153821
0.391                  -0.478436        0.155868
0.392                  -0.478653        0.157918
0.393                   -0.47886        0.159971
0.394                  -0.479055        0.162028
0.395                   -0.47924        0.164088
0.396                  -0.479414        0.166152
0.397                  -0.479577        0.168219
0.398                   -0.47973        0.170289
0.399                  -0.479871        0.172362
0.4                    -0.480002        0.174438
0.401                  -0.480122        0.176517
0.402                  -0.480231        0.178599
0.403                  -0.480329        0.180684
0.404                  -0.480416        0.182771
0.405                  -0.480492        0.184862
0.406                  -0.480558        0.186955
0.407                  -0.480612         0.18905
0.408                  -0.480655        0.191149
0.409                  -0.480688        0.193249
0.41                   -0.480709        0.195352
0.411                   -0.48072        0.197458
0.412                  -0.480719        0.199565
0.413                  -0.480708        0.201675
0.414                  -0.480686        0.203787
0.415                  -0.480652        0.205902
0.416                  -0.480607        0.208018
0.417                  -0.480552        0.210136
0.418                  -0.480485        0.212256
0.419                  -0.480407        0.214378
0.42                   -0.480318        0.216501
0.421                  -0.480219        0.218627
0.422                  -0.480108        0.220754
0.423                  -0.479986        0.222882
0.424                  -0.479852        0.225012
0.425                  -0.479708        0.227144
0.426                  -0.479553        0.229277
0.427                  -0.479386        0.231411
0.428                  -0.479209        0.233547
0.429                   -0.47902        0.235684
0.43                    -0.47882        0.237822
0.431                  -0.478609        0.239961
0.432                  -0.478387        0.242101
0.433                  -0.478154        0.244242
0.434                  -0.477909        0.246384
0.435                  -0.477654        0.248526
0.436                  -0.477387         0.25067
0.437                  -0.477109        0.252814
0.438                   -0.47682        0.254959
0.439                   -0.47652        0.257104
0.44                   -0.476209         0.25925
0.441                  -0.475886        0.261397
0.442                  -0.475553        0.263544
0.443                  -0.475208        0.265691
0.444                  -0.474852        0.267838
0.445                  -0.474485        0.269986
0.446                  -0.474107        0.272134
0.447                  -0.473718        0.274281
0.448                  -0.473317        0.276429
0.449                  -0.472906        0.278577
0.45                   -0.472483        0.280725
0.451                   -0.47205        0.282873
0.452                  -0.471604         0.28502
0.453                  -0.471148        0.287168
0.454                  -0.470681        0.289315
0.455                  -0.470203        0.291461
0.456                  -0.469714        0.293607
0.457                  -0.469213        0.295753
0.458                  -0.468702        0.297898
0.459                  -0.468179        0.300042
0.46                   -0.467645        0.302186
0.461                    -0.4671        0.304329
0.462                  -0.466544        0.306471
0.463                  -0.465977        0.308612
0.464                  -0.465399        0.310753
0.465                   -0.46481        0.312892
0.466                   -0.46421         0.31503
0.467                  -0.463599        0.317168
0.468                  -0.462977        0.319304
0.469                  -0.462344        0.321439
0.47                   -0.461699        0.323572
0.471                  -0.461044        0.325705
0.472                  -0.460378        0.327836
0.473                  -0.459701        0.329965
0.474                  -0.459013        0.332093
0.475                  -0.458314        0.334219
0.476                  -0.457604        0.336344
0.477                  -0.456883        0.338467
0.478                  -0.456151        0.340588
0.479                  -0.455408        0.342708
0.48                   -0.454654        0.344826
0.481                  -0.453889        0.346942
0.482                  -0.453114        0.349055
0.483                  -0.452328        0.351167
0.484                   -0.45153        0.353277
0.485                  -0.450722        0.355385
0.486                  -0.449904         0.35749
0.487                  -0.449074        0.359593
0.488                  -0.448233        0.361694
0.489                  -0.447382        0.363793
0.49                    -0.44652        0.365889
0.491                  -0.445647        0.367983
0.492                  -0.444764        0.370074
0.493                   -0.44387        0.372163
0.494                  -0.442965        0.374249
0.495                  -0.442049        0.376332
0.496                  -0.441123        0.378413
0.497                  -0.440186         0.38049
0.498                  -0.439238        0.382565
0.499                   -0.43828        0.384638
0.5                    -0.437311        0.386707
0.501                  -0.436332        0.388773
0.502                  -0.435342        0.390836
0.503                  -0.434341        0.392896
0.504                   -0.43333        0.394953
0.505                  -0.432308        0.397006
0.506                  -0.431276        0.399056
0.507                  -0.430233        0.401103
0.508                   -0.42918        0.403147
0.509                  -0.428117        0.405187
0.51                   -0.427043        0.407224
0.511                  -0.425959        0.409257
0.512                  -0.424864        0.411287
0.513                  -0.423759        0.413313
0.514                  -0.422643        0.415335
0.515                  -0.421518        0.417353
0.516                  -0.420382        0.419368
0.517                  -0.419235        0.421379
0.518                  -0.418078        0.423386
0.519                  -0.416912        0.425389
0.52                   -0.415735        0.427388
0.521                  -0.414547        0.429383
0.522                   -0.41335        0.431374
0.523                  -0.412142        0.433361
0.524                  -0.410924        0.435344
0.525                  -0.409697        0.437322
0.526                  -0.408459        0.439296
0.527                  -0.407211        0.441266
0.528                  -0.405953        0.443232
0.529                  -0.404684        0.445193
0.53                   -0.403406        0.447149
0.531                  -0.402118        0.449101
0.532                  -0.400821        0.451048
0.533                  -0.399513        0.452991
0.534                  -0.398195        0.454929
0.535                  -0.396867        0.456862
0.536                  -0.395529        0.458791
0.537                  -0.394182        0.460715
0.538                  -0.392825        0.462634
0.539                  -0.391458        0.464548
0.54                   -0.390082        0.466456
0.541                  -0.388695         0.46836
0.542                  -0.387299        0.470259
0.543                  -0.385893        0.472153
0.544                  -0.384478        0.474042
0.545                  -0.383053        0.475925
0.546                  -0.381618        0.477803
0.547                  -0.380174        0.479676
0.548                  -0.378721        0.481544
0.549                  -0.377257        0.483406
0.55                   -0.375785        0.485263
0.551                  -0.374303        0.487114
0.552                  -0.372811         0.48896
0.553                   -0.37131          0.4908
0.554                    -0.3698        0.492635
0.555                   -0.36828        0.494464
0.556                  -0.366751        0.496287
0.557                  -0.365213        0.498105
0.558                  -0.363665        0.499916
0.559                  -0.362109        0.501722
0.56                   -0.360543        0.503522
0.561                  -0.358968        0.505317
0.562                  -0.357383        0.507105
0.563                   -0.35579        0.508887
0.564                  -0.354188        0.510663
0.565                  -0.352576        0.512433
0.566                  -0.350955        0.514197
0.567                  -0.349326        0.515955
0.568                  -0.347687        0.517706
0.569                   -0.34604        0.519452
0.57                   -0.344384        0.521191
0.571                  -0.342719        0.522923
0.572                  -0.341045         0.52465
0.573                  -0.339362         0.52637
0.574                   -0.33767        0.528083
0.575                   -0.33597         0.52979
0.576                  -0.334261         0.53149
0.577                  -0.332543        0.533184
0.578                  -0.330817        0.534871
0.579                  -0.329082        0.536552
0.58                   -0.327338        0.538225
0.581                  -0.325586        0.539892
0.582                  -0.323826        0.541553
0.583                  -0.322056        0.543206
0.584                  -0.320279        0.544853
0.585                  -0.318493        0.546492
0.586                  -0.316698        0.548125
0.587                  -0.314895        0.549751
0.588                  -0.313084        0.551369
0.589                  -0.311265        0.552981
0.59                   -0.309438        0.554585
0.591                  -0.307602        0.556183
0.592                  -0.305757        0.557773
0.593                  -0.303905        0.559356
0.594                  -0.302045        0.560932
0.595                  -0.300177          0.5625
0.596                    -0.2983        0.564061
0.597                  -0.296416        0.565615
0.598                  -0.294523        0.567161
0.599                  -0.292623          0.5687
0.6                    -0.290715        0.570232
0.601                  -0.288799        0.571756
0.602                  -0.286875        0.573272
0.603                  -0.284943        0.574781
0.604                  -0.283003        0.576282
0.605                  -0.281056        0.577776
0.606                  -0.279101        0.579261
0.607                  -0.277138         0.58074
0.608                  -0.275168         0.58221
0.609                   -0.27319        0.583673
0.61                   -0.271205        0.585127
0.611                  -0.269212        0.586574
0.612                  -0.267211        0.588013
0.613                  -0.265203        0.589444
0.614                  -0.263188        0.590867
0.615                  -0.261165        0.592282
0.616                  -0.259135        0.593689
0.617                  -0.257098        0.595088
0.618                  -0.255053        0.596479
0.619                  -0.253002        0.597862
0.62                   -0.250943        0.599236
0.621                  -0.248877        0.600602
0.622                  -0.246803         0.60196
0.623                  -0.244723         0.60331
0.624                  -0.242636        0.604652
0.625                  -0.240541        0.605985
0.626                   -0.23844         0.60731
0.627                  -0.236332        0.608626
0.628                  -0.234217        0.609934
0.629                  -0.232095        0.611234
0.63                   -0.229966        0.612525
0.631                  -0.227831        0.613807
0.632                  -0.225689        0.615081
0.633                   -0.22354        0.616346
0.634                  -0.221384        0.617603
0.635                  -0.219222        0.618851
0.636                  -0.217054         0.62009
0.637                  -0.214878        0.621321
0.638                  -0.212697        0.622543
0.639                  -0.210509        0.623756
0.64                   -0.208314        0.624961
0.641                  -0.206113        0.626156
0.642                  -0.203906        0.627343
0.643                  -0.201692        0.628521
0.644                  -0.199472        0.629689
0.645                  -0.197246        0.630849
0.646                  -0.195014           0.632
0.647                  -0.192776        0.633142
0.648                  -0.190531        0.634275
0.649                  -0.188281        0.635399
0.65                   -0.186025        0.636514
0.651                  -0.183762         0.63762
0.652                  -0.181494        0.638716
0.653                   -0.17922        0.639803
0.654                   -0.17694        0.640882
0.655                  -0.174654        0.641951
0.656                  -0.172363         0.64301
0.657                  -0.170065        0.644061
0.658                  -0.167762        0.645102
0.659                  -0.165454        0.646134
0.66                   -0.163139        0.647156
0.661                   -0.16082        0.648169
0.662                  -0.158495        0.649173
0.663                  -0.156164        0.650167
0.664                  -0.153828        0.651152
0.665                  -0.151486        0.652127
0.666                   -0.14914        0.653093
0.667                  -0.146788        0.654049
0.668                   -0.14443        0.654996
0.669                  -0.142068        0.655933
0.67                     -0.1397        0.656861
0.671                  -0.137327        0.657779
0.672                  -0.134949        0.658687
0.673                  -0.132566        0.659585
0.674                  -0.130178        0.660474
0.675                  -0.127786        0.661354
0.676                  -0.125388        0.662223
0.677                  -0.122985        0.663083
0.678                  -0.120578        0.663933
0.679                  -0.118166        0.664773
0.68                   -0.115749        0.665603
0.681                  -0.113327        0.666423
0.682                  -0.110901        0.667234
0.683                   -0.10847        0.668034
0.684                  -0.106035        0.668825
0.685                  -0.103595        0.669606
0.686                  -0.101151        0.670377
0.687                 -0.0987018        0.671138
0.688                 -0.0962487        0.671888
0.689                 -0.0937912        0.672629
0.69                  -0.0913295         0.67336
0.691                 -0.0888635        0.674081
0.692                 -0.0863933        0.674791
0.693                 -0.0839191        0.675492
0.694                 -0.0814406        0.676182
0.695                 -0.0789582        0.676863
0.696                 -0.0764717        0.677533
0.697                 -0.0739813        0.678193
0.698                 -0.0714869        0.678842
0.699                 -0.0689887        0.679482
0.7                   -0.0664866        0.680111
0.701                 -0.0639808         0.68073
0.702                 -0.0614713        0.681339
0.703                 -0.0589579        0.681938
0.704                  -0.056441        0.682526
0.705                 -0.0539206        0.683104
0.706                 -0.0513966        0.683671
0.707                 -0.0488689        0.684228
0.708                 -0.0463379        0.684775
0.709                 -0.0438034        0.685312
0.71                  -0.0412656        0.685838
0.711                 -0.0387245        0.686354
0.712                   -0.03618        0.686859
0.713                 -0.0336324        0.687353
0.714                 -0.0310816        0.687838
0.715                 -0.0285276        0.688312
0.716                 -0.0259706        0.688775
0.717                 -0.0234105        0.689228
0.718                 -0.0208475         0.68967
0.719                 -0.0182814        0.690102
0.72                  -0.0157125        0.690523
0.721                 -0.0131406        0.690934
0.722                  -0.010566        0.691334
0.723                -0.00798854        0.691723
0.724                -0.00540853        0.692102
0.725                -0.00282568         0.69247
0.726               -0.000240388        0.692828
0.727                 0.00234732        0.693175
0.728                 0.00493804        0.693511
0.729                 0.00753074        0.693837
0.73                   0.0101264        0.694152
0.731                  0.0127239        0.694457
0.732                  0.0153242         0.69475
0.733                  0.0179267        0.695033
0.734                  0.0205312        0.695305
0.735                  0.0231381        0.695567
0.736                  0.0257469        0.695818
0.737                  0.0283577        0.696058
0.738                   0.030971        0.696287
0.739                  0.0335862        0.696505
0.74                   0.0362032        0.696713
0.741                  0.0388218         0.69691
0.742                  0.0414429        0.697096
0.743                  0.0440652        0.697271
0.744                  0.0466898        0.697436
0.745                  0.0493156        0.697589
0.746                  0.0519432        0.697732
0.747                  0.0545727        0.697864
0.748                  0.0572038        0.697985
0.749                  0.0598363        0.698095
0.75                   0.0624698        0.698195
0.751                  0.0651055        0.698283
0.752                  0.0677421        0.698361
0.753                  0.0703802        0.698428
0.754                  0.0730194        0.698484
0.755                    0.07566        0.698529
0.756                  0.0783019        0.698563
0.757                  0.0809445        0.698586
0.758                  0.0835883        0.698598
0.759                  0.0862333        0.698599
0.76                   0.0888791         0.69859
0.761                   0.091526        0.698569
0.762                   0.094174        0.698538
0.763                  0.0968224        0.698496
0.764                   0.099472        0.698442
0.765                   0.102122        0.698378
0.766                   0.104773        0.698303
0.767                   0.107424        0.698216
0.768                   0.110077        0.698119
0.769                   0.112729        0.698011
0.77                    0.115382        0.697892
0.771                   0.118036        0.697762
0.772                    0.12069        0.697621
0.773                   0.123344        0.697469
0.774                   0.125999        0.697306
0.775                   0.128654        0.697132
0.776                   0.131309        0.696947
0.777                   0.133964        0.696751
0.778                   0.136619        0.696545
0.779                   0.139275        0.696327
0.78                     0.14193        0.696098
0.781                   0.144586        0.695858
0.782                   0.147241        0.695608
0.783                   0.149896        0.695346
0.784                   0.152551        0.695073
0.785                   0.155206        0.694789
0.786                    0.15786        0.694495
0.787                   0.160514        0.694189
0.788                   0.163168        0.693872
0.789                   0.165821        0.693545
0.79                    0.168474        0.693206
0.791                   0.171126        0.692857
0.792                   0.173778        0.692496
0.793                    0.17643        0.692125
0.794                    0.17908        0.691743
0.795                    0.18173        0.691349
0.796                   0.184379        0.690945
0.797                   0.187027         0.69053
0.798                   0.189674        0.690103
0.799                   0.192321        0.689666
0.8                     0.194966        0.689218
0.801                   0.197611        0.688759
0.802                   0.200254        0.688289
0.803                   0.202897        0.687808
0.804                   0.205537        0.687316
0.805                   0.208178        0.686814
0.806                   0.210816          0.6863
0.807                   0.213453        0.685776
0.808                   0.216089         0.68524
0.809                   0.218724        0.684694
0.81                    0.221358        0.684137
0.811                   0.223989        0.683569
0.812                   0.226619         0.68299
0.813                   0.229248          0.6824
0.814                   0.231875        0.681799
0.815                     0.2345        0.681188
0.816                   0.237124        0.680565
0.817                   0.239745        0.679932
0.818                   0.242366        0.679288
0.819                   0.244984        0.678633
0.82                      0.2476        0.677967
0.821                   0.250214        0.677291
0.822                   0.252826        0.676604
0.823                   0.255436        0.675906
0.824                   0.258044        0.675197
0.825                    0.26065        0.674477
0.826                   0.263254        0.673747
0.827                   0.265855        0.673006
0.828                   0.268454        0.672254
0.829                   0.271051        0.671492
0.83                    0.273645        0.670719
0.831                   0.276237        0.669935
0.832                   0.278827         0.66914
0.833                   0.281414        0.668335
0.834                   0.283998        0.667519
0.835                    0.28658        0.666692
0.836                   0.289159        0.665855
0.837                   0.291735        0.665007
0.838                   0.294309        0.664149
0.839                    0.29688         0.66328
0.84                    0.299448          0.6624
0.841                   0.302012         0.66151
0.842                   0.304575        0.660609
0.843                   0.307134        0.659698
0.844                    0.30969        0.658776
0.845                   0.312243        0.657844
0.846                   0.314792        0.656901
0.847                   0.317339        0.655947
0.848                   0.319883        0.654984
0.849                   0.322423        0.654009
0.85                     0.32496        0.653025
0.851                   0.327493        0.652029
0.852                   0.330023        0.651024
0.853                    0.33255        0.650008
0.854                   0.335073        0.648982
0.855                   0.337593        0.647945
0.856                   0.340109        0.646898
0.857                   0.342621         0.64584
0.858                    0.34513        0.644773
0.859                   0.347635        0.643694
0.86                    0.350136        0.642606
0.861                   0.352633        0.641508
0.862                   0.355127        0.640399
0.863                   0.357617         0.63928
0.864                   0.360103         0.63815
0.865                   0.362584        0.637011
0.866                   0.365062        0.635861
0.867                   0.367536        0.634702
0.868                   0.370005        0.633532
0.869                   0.372471        0.632352
0.87                    0.374932        0.631162
0.871                   0.377389        0.629961
0.872                   0.379842        0.628751
0.873                    0.38229        0.627531
0.874                   0.384734        0.626301
0.875                   0.387174         0.62506
0.876                   0.389609         0.62381
0.877                    0.39204         0.62255
0.878                   0.394466         0.62128
0.879                   0.396888            0.62
0.88                    0.399304         0.61871
0.881                   0.401717         0.61741
0.882                   0.404124          0.6161
0.883                   0.406527        0.614781
0.884                   0.408925        0.613451
0.885                   0.411318        0.612112
0.886                   0.413707        0.610763
0.887                    0.41609        0.609405
0.888                   0.418469        0.608036
0.889                   0.420842        0.606658
0.89                     0.42321        0.605271
0.891                   0.425574        0.603873
0.892                   0.427932        0.602466
0.893                   0.430285         0.60105
0.894                   0.432633        0.599624
0.895                   0.434976        0.598188
0.896                   0.437313        0.596743
0.897                   0.439645        0.595288
0.898                   0.441972        0.593824
0.899                   0.444293         0.59235
0.9                     0.446609        0.590867
0.901                    0.44892        0.589374
0.902                   0.451224        0.587873
0.903                   0.453524        0.586361
0.904                   0.455818        0.584841
0.905                   0.458106        0.583311
0.906                   0.460388        0.581772
0.907                   0.462665        0.580223
0.908                   0.464936        0.578666
0.909                   0.467201        0.577099
0.91                    0.469461        0.575523
0.911                   0.471714        0.573938
0.912                   0.473962        0.572344
0.913                   0.476203         0.57074
0.914                   0.478439        0.569128
0.915                   0.480669        0.567506
0.916                   0.482893        0.565876
0.917                    0.48511        0.564236
0.918                   0.487322        0.562588
0.919                   0.489527        0.560931
0.92                    0.491726        0.559264
0.921                   0.493919        0.557589
0.922                   0.496106        0.555905
0.923                   0.498286        0.554213
0.924                   0.500461        0.552511
0.925                   0.502628        0.550801
0.926                   0.504789        0.549082
0.927                   0.506944        0.547354
0.928                   0.509093        0.545617
0.929                   0.511235        0.543872
0.93                     0.51337        0.542119
0.931                   0.515499        0.540356
0.932                   0.517621        0.538586
0.933                   0.519736        0.536806
0.934                   0.521845        0.535018
0.935                   0.523947        0.533222
0.936                   0.526043        0.531417
0.937                   0.528131        0.529604
0.938                   0.530213        0.527783
0.939                   0.532288        0.525953
0.94                    0.534356        0.524115
0.941                   0.536417        0.522268
0.942                   0.538471        0.520413
0.943                   0.540518         0.51855
0.944                   0.542558        0.516679
0.945                   0.544592          0.5148
0.946                   0.546618        0.512912
0.947                   0.548637        0.511017
0.948                   0.550648        0.509113
0.949                   0.552653        0.507202
0.95                    0.554651        0.505282
0.951                   0.556641        0.503354
0.952                   0.558624        0.501419
0.953                   0.560599        0.499475
0.954                   0.562567        0.497524
0.955                   0.564529        0.495565
0.956                   0.566482        0.493598
0.957                   0.568428        0.491623
0.958                   0.570367        0.489641
0.959                   0.572298        0.487651
0.96                    0.574222        0.485653
0.961                   0.576138        0.483647
0.962                   0.578047        0.481634
0.963                   0.579948        0.479613
0.964                   0.581841        0.477585
0.965                   0.583727        0.475549
0.966                   0.585605        0.473506
0.967                   0.587475        0.471455
0.968                   0.589338        0.469397
0.969                   0.591193        0.467332
0.97                     0.59304        0.465259
0.971                   0.594879        0.463179
0.972                    0.59671        0.461091
0.973                   0.598534        0.458996
0.974                   0.600349        0.456895
0.975                   0.602157        0.454785
0.976                   0.603957        0.452669
0.977                   0.605748        0.450546
0.978                   0.607532        0.448415
0.979                   0.609308        0.446278
0.98                    0.611075        0.444134
0.981                   0.612835        0.441982
0.982                   0.614586        0.439824
0.983                   0.616329        0.437659
0.984                   0.618065        0.435487
0.985                   0.619791        0.433307
0.986                    0.62151        0.431122
0.987                   0.623221        0.428929
0.988                   0.624923         0.42673
0.989                   0.626617        0.424524
0.99                    0.628302        0.422312
0.991                   0.629979        0.420092
0.992                   0.631648        0.417867
0.993                   0.633309        0.415634
0.994                   0.634961        0.413396
0.995                   0.636604         0.41115
0.996                   0.638239        0.408899
0.997                   0.639866         0.40664
0.998                   0.641484        0.404376
0.999                   0.643094        0.402105
1                       0.644695        0.399828
1.001                   0.646287        0.397544
1.002                   0.647871        0.395255
1.003                   0.649446        0.392959
1.004                   0.651013        0.390657
1.005                   0.652571        0.388349
1.006                    0.65412        0.386035
1.007                    0.65566        0.383715
1.008                   0.657192        0.381388
1.009                   0.658715        0.379056
1.01                     0.66023        0.376718
1.011                   0.661735        0.374374
1.012                   0.663232        0.372024
1.013                   0.664719        0.369668
1.014                   0.666198        0.367307
1.015                   0.667668        0.364939
1.016                    0.66913        0.362567
1.017                   0.670582        0.360188
1.018                   0.672025        0.357803
1.019                    0.67346        0.355414
1.02                    0.674885        0.353018
1.021                   0.676301        0.350617
1.022                   0.677709        0.348211
1.023                   0.679107        0.345799
1.024                   0.680497        0.343381
1.025                   0.681877        0.340958
1.026                   0.683248         0.33853
1.027                    0.68461        0.336097
1.028                   0.685963        0.333658
1.029                   0.687307        0.331214
1.03                    0.688641        0.328765
1.031                   0.689967        0.326311
1.032                   0.691283        0.323852
1.033                    0.69259        0.321387
1.034                   0.693888        0.318918
1.035                   0.695176        0.316443
1.036                   0.696455        0.313963
1.037                   0.697725        0.311479
1.038                   0.698986         0.30899
1.039                   0.700237        0.306495
1.04                    0.701479        0.303996
1.041                   0.702712        0.301493
1.042                   0.703935        0.298984
1.043                   0.705149        0.296471
1.044                   0.706354        0.293953
1.045                   0.707549         0.29143
1.046                   0.708734        0.288903
1.047                   0.709911        0.286371
1.048                   0.711077        0.283835
1.049                   0.712235        0.281294
1.05                    0.713382        0.278749
1.051                   0.714521          0.2762
1.052                    0.71565        0.273646
1.053                   0.716769        0.271087
1.054                   0.717879        0.268525
1.055                   0.718979        0.265958
1.056                   0.720069        0.263387
1.057                    0.72115        0.260812
1.058                   0.722222        0.258232
1.059                   0.723284        0.255649
1.06                    0.724336        0.253061
1.061                   0.725378         0.25047
1.062                   0.726411        0.247874
1.063                   0.727434        0.245275
1.064                   0.728448        0.242671
1.065                   0.729452        0.240064
1.066                   0.730446        0.237453
1.067                    0.73143        0.234838
1.068                   0.732405        0.232219
1.069                    0.73337        0.229597
1.07                    0.734325        0.226971
1.071                    0.73527        0.224341
1.072                   0.736206        0.221708
1.073                   0.737132        0.219071
1.074                   0.738048         0.21643
1.075                   0.738954        0.213786
1.076                   0.739851        0.211139
1.077                   0.740737        0.208488
1.078                   0.741614        0.205834
1.079                   0.742481        0.203176
1.08                    0.743338        0.200515
1.081                   0.744185        0.197851
1.082                   0.745022        0.195184
1.083                    0.74585        0.192514
1.084                   0.746667         0.18984
1.085                   0.747475        0.187163
1.086                   0.748273        0.184483
1.087                    0.74906          0.1818
1.088                   0.749838        0.179115
1.089                   0.750606        0.176426
1.09                    0.751364        0.173734
1.091                   0.752112        0.171039
1.092                    0.75285        0.168342
1.093                   0.753578        0.165642
1.094                   0.754296        0.162939
1.095                   0.755004        0.160233
1.096                   0.755702        0.157525
1.097                    0.75639        0.154813
1.098                   0.757068          0.1521
1.099                   0.757736        0.149383
1.1                     0.758394        0.146665
1.101                   0.759042        0.143943
1.102                   0.759679         0.14122
1.103                   0.760307        0.138493
1.104                   0.760925        0.135765
1.105                   0.761533        0.133034
1.106                    0.76213        0.130301
1.107                   0.762718        0.127565
1.108                   0.763295        0.124828
1.109                   0.763862        0.122088
1.11                    0.764419        0.119346
1.111                   0.764966        0.116602
1.112                   0.765503        0.113855
1.113                    0.76603        0.111107
1.114                   0.766547        0.108357
1.115                   0.767053        0.105605
1.116                    0.76755        0.102851
1.117                   0.768036        0.100095
1.118                   0.768512       0.0973369
1.119                   0.768978       0.0945772
1.12                    0.769434       0.0918158
1.121                   0.769879       0.0890527
1.122                   0.770315       0.0862879
1.123                    0.77074       0.0835214
1.124                   0.771155       0.0807533
1.125                    0.77156       0.0779837
1.126                   0.771955       0.0752125
1.127                    0.77234       0.0724398
1.128                   0.772714       0.0696657
1.129                   0.773078       0.0668901
1.13                    0.773432       0.0641132
1.131                   0.773776       0.0613349
1.132                    0.77411       0.0585553
1.133                   0.774433       0.0557745
1.134                   0.774746       0.0529924
1.135                   0.775049       0.0502091
1.136                   0.775342       0.0474247
1.137                   0.775624       0.0446392
1.138                   0.775897       0.0418526
1.139                   0.776159       0.0390649
1.14                     0.77641       0.0362763
1.141                   0.776652       0.0334867
1.142                   0.776884       0.0306962
1.143                   0.777105       0.0279048
1.144                   0.777316       0.0251126
1.145                   0.777516       0.0223195
1.146                   0.777707       0.0195257
1.147                   0.777887       0.0167312
1.148                   0.778057       0.0139359
1.149                   0.778217       0.0111401
1.15                    0.778366      0.00834356
1.151                   0.778505      0.00554649
1.152                   0.778634      0.00274888
1.153                   0.778753    -4.92299e-05
1.154                   0.778862      -0.0028478
1.155                    0.77896     -0.00564679
1.156                   0.779048     -0.00844616
1.157                   0.779126      -0.0112459
1.158                   0.779193      -0.0140459
1.159                   0.779251      -0.0168462
1.16                    0.779298      -0.0196467
1.161                   0.779335      -0.0224474
1.162                   0.779361      -0.0252483
1.163                   0.779378      -0.0280493
1.164                   0.779384      -0.0308504
1.165                    0.77938      -0.0336515
1.166                   0.779365      -0.0364526
1.167                   0.779341      -0.0392537
1.168                   0.779306      -0.0420547
1.169                   0.779261      -0.0448555
1.17                    0.779206      -0.0476563
1.171                    0.77914      -0.0504568
1.172                   0.779065      -0.0532572
1.173                   0.778979      -0.0560572
1.174                   0.778883      -0.0588569
1.175                   0.778776      -0.0616564
1.176                    0.77866      -0.0644554
1.177                   0.778533       -0.067254
1.178                   0.778396      -0.0700522
1.179                   0.778249      -0.0728498
1.18                    0.778091      -0.0756469
1.181                   0.777924      -0.0784435
1.182                   0.777746      -0.0812395
1.183                   0.777558      -0.0840348
1.184                    0.77736      -0.0868294
1.185                   0.777151      -0.0896233
1.186                   0.776933      -0.0924164
1.187                   0.776704      -0.0952088
1.188                   0.776465      -0.0980003
1.189                   0.776216       -0.100791
1.19                    0.775957       -0.103581
1.191                   0.775688       -0.106369
1.192                   0.775408       -0.109157
1.193                   0.775118       -0.111944
1.194                   0.774818        -0.11473
1.195                   0.774509       -0.117514
1.196                   0.774188       -0.120298
1.197                   0.773858        -0.12308
1.198                   0.773518       -0.125861
1.199                   0.773167       -0.128641
1.2                     0.772807        -0.13142
1.201                   0.772436       -0.134197
1.202                   0.772055       -0.136973
1.203                   0.771664       -0.139747
1.204                   0.771264        -0.14252
1.205                   0.770852       -0.145292
1.206                   0.770431       -0.148062
1.207                       0.77        -0.15083
1.208                   0.769559       -0.153597
1.209                   0.769108       -0.156362
1.21                    0.768646       -0.159126
1.211                   0.768175       -0.161888
1.212                   0.767694       -0.164648
1.213                   0.767202       -0.167406
1.214                   0.766701       -0.170163
1.215                   0.766189       -0.172917
1.216                   0.765668        -0.17567
1.217                   0.765136       -0.178421
1.218                   0.764595        -0.18117
1.219                   0.764044       -0.183917
1.22                    0.763482       -0.186662
1.221                   0.762911       -0.189405
1.222                    0.76233       -0.192145
1.223                   0.761739       -0.194884
1.224                   0.761137        -0.19762
1.225                   0.760526       -0.200355
1.226                   0.759905       -0.203086
1.227                   0.759275       -0.205816
1.228                   0.758634       -0.208543
1.229                   0.757983       -0.211268
1.23                    0.757323       -0.213991
1.231                   0.756652       -0.216711
1.232                   0.755972       -0.219428
1.233                   0.755282       -0.222143
1.234                   0.754582       -0.224856
1.235                   0.753872       -0.227566
1.236                   0.753153       -0.230273
1.237                   0.752424       -0.232978
1.238                   0.751685       -0.235679
1.239                   0.750936       -0.238379
1.24                    0.750177       -0.241075
1.241                   0.749409       -0.243769
1.242                   0.748631       -0.246459
1.243                   0.747843       -0.249147
1.244                   0.747045       -0.251832
1.245                   0.746238       -0.254514
1.246                   0.745421       -0.257193
1.247                   0.744594       -0.259869
1.248                   0.743758       -0.262542
1.249                   0.742912       -0.265212
1.25                    0.742056       -0.267878
1.251                   0.741191       -0.270542
1.252                   0.740316       -0.273203
1.253                   0.739432       -0.275859
1.254                   0.738538       -0.278513
1.255                   0.737634       -0.281163
1.256                   0.736721        -0.28381
1.257                   0.735798       -0.286454
1.258                   0.734866       -0.289095
1.259                   0.733924       -0.291731
1.26                    0.732973       -0.294365
1.261                   0.732012       -0.296994
1.262                   0.731042        -0.29962
1.263                   0.730062       -0.302243
1.264                   0.729073       -0.304862
1.265                   0.728074       -0.307477
1.266                   0.727066       -0.310089
1.267                   0.726049       -0.312697
1.268                   0.725022       -0.315301
1.269                   0.723986       -0.317901
1.27                    0.722941       -0.320498
1.271                   0.721886        -0.32309
1.272                   0.720821       -0.325679
1.273                   0.719748       -0.328264
1.274                   0.718665       -0.330844
1.275                   0.717573       -0.333421
1.276                   0.716472       -0.335994
1.277                   0.715361       -0.338562
1.278                   0.714241       -0.341126
1.279                   0.713112       -0.343687
1.28                    0.711974       -0.346243
1.281                   0.710827       -0.348794
1.282                    0.70967       -0.351342
1.283                   0.708504       -0.353885
1.284                    0.70733       -0.356424
1.285                   0.706146       -0.358959
1.286                   0.704953       -0.361489
1.287                   0.703751       -0.364014
1.288                    0.70254       -0.366536
1.289                   0.701319       -0.369052
1.29                     0.70009       -0.371565
1.291                   0.698852       -0.374072
1.292                   0.697605       -0.376575
1.293                   0.696349       -0.379074
1.294                   0.695084       -0.381567
1.295                    0.69381       -0.384056
1.296                   0.692527       -0.386541
1.297                   0.691235        -0.38902
1.298                   0.689935       -0.391495
1.299                   0.688625       -0.393965
1.3                     0.687307        -0.39643
1.301                    0.68598        -0.39889
1.302                   0.684644       -0.401345
1.303                     0.6833       -0.403795
1.304                   0.681947       -0.406241
1.305                   0.680584       -0.408681
1.306                   0.679214       -0.411116
1.307                   0.677834       -0.413546
1.308                   0.676446       -0.415971
1.309                    0.67505       -0.418391
1.31                    0.673644       -0.420805
1.311                    0.67223       -0.423215
1.312                   0.670808       -0.425619
1.313                   0.669377       -0.428017
1.314                   0.667937       -0.430411
1.315                   0.666489       -0.432799
1.316                   0.665033       -0.435182
1.317                   0.663568       -0.437559
1.318                   0.662094       -0.439931
1.319                   0.660612       -0.442298
1.32                    0.659122       -0.444658
1.321                   0.657623       -0.447014
1.322                   0.656116       -0.449364
1.323                   0.654601       -0.451708
1.324                   0.653077       -0.454046
1.325                   0.651546       -0.456379
1.326                   0.650005       -0.458706
1.327                   0.648457       -0.461028
1.328                     0.6469       -0.463344
1.329                   0.645336       -0.465654
1.33                    0.643763       -0.467958
1.331                   0.642182       -0.470256
1.332                   0.640592       -0.472549
1.333                   0.638995       -0.474835
1.334                    0.63739       -0.477116
1.335                   0.635776        -0.47939
1.336                   0.634155       -0.481659
1.337                   0.632525       -0.483922
1.338                   0.630888       -0.486178
1.339                   0.629243       -0.488429
1.34                     0.62759       -0.490673
1.341                   0.625928       -0.492912
1.342                   0.624259       -0.495144
1.343                   0.622583        -0.49737
1.344                   0.620898       -0.499589
1.345                   0.619205       -0.501803
1.346                   0.617505        -0.50401
1.347                   0.615797       -0.506211
1.348                   0.614082       -0.508406
1.349                   0.612358       -0.510594
1.35                    0.610627       -0.512775
1.351                   0.608888       -0.514951
1.352                   0.607142        -0.51712
1.353                   0.605388       -0.519282
1.354                   0.603627       -0.521438
1.355                   0.601858       -0.523588
1.356                   0.600082       -0.525731
1.357                   0.598298       -0.527867
1.358                   0.596506       -0.529997
1.359                   0.594708        -0.53212
1.36                    0.592901       -0.534236
1.361                   0.591088       -0.536346
1.362                   0.589267       -0.538449
1.363                   0.587439       -0.540545
1.364                   0.585603       -0.542635
1.365                   0.583761       -0.544717
1.366                   0.581911       -0.546793
1.367                   0.580054       -0.548862
1.368                   0.578189       -0.550924
1.369                   0.576318        -0.55298
1.37                    0.574439       -0.555028
1.371                   0.572554        -0.55707
1.372                   0.570661       -0.559104
1.373                   0.568761       -0.561132
1.374                   0.566855       -0.563152
1.375                   0.564941       -0.565165
1.376                    0.56302       -0.567172
1.377                   0.561093       -0.569171
1.378                   0.559158       -0.571163
1.379                   0.557217       -0.573148
1.38                    0.555269       -0.575126
1.381                   0.553314       -0.577097
1.382                   0.551352        -0.57906
1.383                   0.549384       -0.581017
1.384                   0.547409       -0.582966
1.385                   0.545427       -0.584907
1.386                   0.543438       -0.586842
1.387                   0.541443       -0.588769
1.388                   0.539442       -0.590688
1.389                   0.537433       -0.592601
1.39                    0.535419       -0.594506
1.391                   0.533397       -0.596403
1.392                    0.53137       -0.598293
1.393                   0.529335       -0.600176
1.394                   0.527295       -0.602051
1.395                   0.525248       -0.603919
1.396                   0.523195       -0.605779
1.397                   0.521135       -0.607632
1.398                   0.519069       -0.609477
1.399                   0.516997       -0.611314
1.4                     0.514919       -0.613144
1.401                   0.512834       -0.614966
1.402                   0.510744       -0.616781
1.403                   0.508647       -0.618588
1.404                   0.506544       -0.620387
1.405                   0.504435       -0.622178
1.406                    0.50232       -0.623962
1.407                   0.500199       -0.625738
1.408                   0.498072       -0.627506
1.409                   0.495939       -0.629267
1.41                      0.4938       -0.631019
1.411                   0.491655       -0.632764
1.412                   0.489505       -0.634501
1.413                   0.487348        -0.63623
1.414                   0.485186       -0.637951
1.415                   0.483018       -0.639665
1.416                   0.480845        -0.64137
1.417                   0.478665       -0.643067
1.418                    0.47648       -0.644757
1.419                    0.47429       -0.646438
1.42                    0.472094       -0.648112
1.421                   0.469892       -0.649777
1.422                   0.467685       -0.651435
1.423                   0.465472       -0.653084
1.424                   0.463254       -0.654726
1.425                    0.46103       -0.656359
1.426                   0.458801       -0.657984
1.427                   0.456567       -0.659601
1.428                   0.454327        -0.66121
1.429                   0.452082       -0.662811
1.43                    0.449832       -0.664403
1.431                   0.447576       -0.665988
1.432                   0.445315       -0.667564
1.433                   0.443049       -0.669132
1.434                   0.440779       -0.670692
1.435                   0.438502       -0.672243
1.436                   0.436221       -0.673786
1.437                   0.433935       -0.675321
1.438                   0.431644       -0.676848
1.439                   0.429348       -0.678366
1.44                    0.427047       -0.679876
1.441                   0.424741       -0.681378
1.442                    0.42243       -0.682872
1.443                   0.420114       -0.684357
1.444                   0.417793       -0.685833
1.445                   0.415468       -0.687301
1.446                   0.413138       -0.688761
1.447                   0.410803       -0.690212
1.448                   0.408464       -0.691655
1.449                    0.40612        -0.69309
1.45                    0.403771       -0.694516
1.451                   0.401418       -0.695934
1.452                    0.39906       -0.697343
1.453                   0.396698       -0.698743
1.454                   0.394331       -0.700135
1.455                    0.39196       -0.701519
1.456                   0.389585       -0.702894
1.457                   0.387204        -0.70426
1.458                    0.38482       -0.705618
1.459                   0.382432       -0.706967
1.46                    0.380039       -0.708308
1.461                   0.377642        -0.70964
1.462                   0.375241       -0.710964
1.463                   0.372835       -0.712279
1.464                   0.370425       -0.713585
1.465                   0.368012       -0.714882
1.466                   0.365594       -0.716172
1.467                   0.363172       -0.717452
1.468                   0.360746       -0.718723
1.469                   0.358317       -0.719986
1.47                    0.355883        -0.72124
1.471                   0.353445       -0.722486
1.472                   0.351004       -0.723723
1.473                   0.348559       -0.724951
1.474                    0.34611        -0.72617
1.475                   0.343657       -0.727381
1.476                     0.3412       -0.728583
1.477                    0.33874       -0.729776
1.478                   0.336276        -0.73096
1.479                   0.333809       -0.732136
1.48                    0.331337       -0.733302
1.481                   0.328863        -0.73446
1.482                   0.326385       -0.735609
1.483                   0.323903        -0.73675
1.484                   0.321417       -0.737881
1.485                   0.318929       -0.739004
1.486                   0.316437       -0.740118
1.487                   0.313942       -0.741223
1.488                   0.311443       -0.742319
1.489                   0.308941       -0.743406
1.49                    0.306436       -0.744484
1.491                   0.303927       -0.745554
1.492                   0.301416       -0.746614
1.493                   0.298901       -0.747666
1.494                   0.296383       -0.748709
1.495                   0.293862       -0.749743
1.496                   0.291338       -0.750768
1.497                   0.288811       -0.751784
1.498                    0.28628       -0.752791
1.499                   0.283747       -0.753789
1.5                     0.281212       -0.754778
1.501                   0.278673       -0.755759
1.502                   0.276131        -0.75673
1.503                   0.273586       -0.757693
1.504                   0.271039       -0.758646
1.505                   0.268489       -0.759591
1.506                   0.265936       -0.760526
1.507                   0.263381       -0.761453
1.508                   0.260822        -0.76237
1.509                   0.258262       -0.763279
1.51                    0.255698       -0.764179
1.511                   0.253132       -0.765069
1.512                   0.250564       -0.765951
1.513                   0.247993       -0.766823
1.514                    0.24542       -0.767687
1.515                   0.242844       -0.768542
1.516                   0.240266       -0.769387
1.517                   0.237685       -0.770224
1.518                   0.235102       -0.771051
1.519                   0.232517        -0.77187
1.52                     0.22993       -0.772679
1.521                    0.22734        -0.77348
1.522                   0.224748       -0.774271
1.523                   0.222154       -0.775054
1.524                   0.219558       -0.775827
1.525                    0.21696       -0.776591
1.526                    0.21436       -0.777347
1.527                   0.211757       -0.778093
1.528                   0.209153        -0.77883
1.529                   0.206547       -0.779558
1.53                    0.203938       -0.780277
1.531                   0.201328       -0.780987
1.532                   0.198717       -0.781688
1.533                   0.196103        -0.78238
1.534                   0.193487       -0.783063
1.535                    0.19087       -0.783737
1.536                   0.188251       -0.784401
1.537                    0.18563       -0.785057
1.538                   0.183008       -0.785704
1.539                   0.180383       -0.786341
1.54                    0.177758        -0.78697
1.541                    0.17513       -0.787589
1.542                   0.172502       -0.788199
1.543                   0.169871       -0.788801
1.544                    0.16724       -0.789393
1.545                   0.164607       -0.789976
1.546                   0.161972        -0.79055
1.547                   0.159336       -0.791115
1.548                   0.156698       -0.791671
1.549                    0.15406       -0.792218
1.55                     0.15142       -0.792755
1.551                   0.148779       -0.793284
1.552                   0.146136       -0.793804
1.553                   0.143492       -0.794314
1.554                   0.140848       -0.794816
1.555                   0.138202       -0.795308
1.556                   0.135555       -0.795792
1.557                   0.132907       -0.796266
1.558                   0.130258       -0.796731
1.559                   0.127608       -0.797187
1.56                    0.124957       -0.797635
1.561                   0.122305       -0.798073
1.562                   0.119652       -0.798502
1.563                   0.116998       -0.798922
1.564                   0.114343       -0.799333
1.565                   0.111688       -0.799734
1.566                   0.109032       -0.800127
1.567                   0.106375       -0.800511
1.568                   0.103717       -0.800886
1.569                   0.101059       -0.801251
1.57                   0.0984001       -0.801608
1.571                  0.0957404       -0.801956
1.572                  0.0930803       -0.802294
1.573                  0.0904195       -0.802624
1.574                  0.0877582       -0.802944
1.575                  0.0850964       -0.803256
1.576                  0.0824342       -0.803558
1.577                  0.0797713       -0.803852
1.578                  0.0771082       -0.804136
1.579                  0.0744449       -0.804412
1.58                    0.071781       -0.804678
1.581                  0.0691169       -0.804936
1.582                  0.0664527       -0.805184
1.583                  0.0637879       -0.805423
1.584                  0.0611228       -0.805654
1.585                  0.0584578       -0.805875
1.586                  0.0557924       -0.806088
1.587                  0.0531272       -0.806291
1.588                  0.0504617       -0.806486
1.589                  0.0477958       -0.806671
1.59                   0.0451303       -0.806848
1.591                  0.0424645       -0.807015
1.592                  0.0397991       -0.807174
1.593                  0.0371336       -0.807324
1.594                   0.034468       -0.807464
1.595                  0.0318025       -0.807596
1.596                  0.0291372       -0.807719
1.597                  0.0264722       -0.807833
1.598                  0.0238073       -0.807938
1.599                  0.0211426       -0.808034
1.6                    0.0184782       -0.808121
1.601                   0.015814       -0.808199
1.602                  0.0131501       -0.808268
1.603                  0.0104865       -0.808329
1.604                 0.00782344        -0.80838
1.605                 0.00516057       -0.808423
1.606                  0.0024985       -0.808457
1.607               -0.000163338       -0.808481
1.608                 -0.0028249       -0.808497
1.609                -0.00548577       -0.808505
1.61                 -0.00814593       -0.808503
1.611                 -0.0108057       -0.808492
1.612                 -0.0134649       -0.808473
1.613                 -0.0161233       -0.808444
1.614                 -0.0187813       -0.808407
1.615                 -0.0214384       -0.808361
1.616                 -0.0240949       -0.808306
1.617                 -0.0267506       -0.808243
1.618                 -0.0294055        -0.80817
1.619                 -0.0320598       -0.808089
1.62                   -0.034713       -0.807999
1.621                 -0.0373653         -0.8079
1.622                  -0.040017       -0.807792
1.623                 -0.0426677       -0.807676
1.624                 -0.0453174       -0.807551
1.625                 -0.0479659       -0.807417
1.626                 -0.0506136       -0.807274
1.627                 -0.0532604       -0.807123
1.628                 -0.0559062       -0.806962
1.629                 -0.0585506       -0.806793
1.63                  -0.0611941       -0.806616
1.631                 -0.0638362       -0.806429
1.632                 -0.0664774       -0.806234
1.633                 -0.0691175       -0.806031
1.634                 -0.0717561       -0.805818
1.635                 -0.0743936       -0.805597
1.636                 -0.0770298       -0.805367
1.637                 -0.0796647       -0.805129
1.638                 -0.0822982       -0.804881
1.639                 -0.0849304       -0.804626
1.64                  -0.0875612       -0.804361
1.641                 -0.0901906       -0.804088
1.642                 -0.0928185       -0.803806
1.643                  -0.095445       -0.803516
1.644                 -0.0980699       -0.803217
1.645                  -0.100693       -0.802909
1.646                  -0.103315       -0.802593
1.647                  -0.105936       -0.802268
1.648                  -0.108554       -0.801935
1.649                  -0.111171       -0.801593
1.65                   -0.113787       -0.801243
1.651                  -0.116401       -0.800884
1.652                  -0.119013       -0.800516
1.653                  -0.121623        -0.80014
1.654                  -0.124231       -0.799755
1.655                  -0.126838       -0.799362
1.656                  -0.129443       -0.798961
1.657                  -0.132046        -0.79855
1.658                  -0.134647       -0.798132
1.659                  -0.137247       -0.797705
1.66                   -0.139844       -0.797269
1.661                   -0.14244       -0.796825
1.662                  -0.145033       -0.796373
1.663                  -0.147624       -0.795912
1.664                  -0.150214       -0.795443
1.665                  -0.152801       -0.794965
1.666                  -0.155386       -0.794479
1.667                   -0.15797       -0.793984
1.668                   -0.16055       -0.793481
1.669                  -0.163129        -0.79297
1.67                   -0.165706        -0.79245
1.671                   -0.16828       -0.791922
1.672                  -0.170853       -0.791386
1.673                  -0.173423       -0.790841
1.674                   -0.17599       -0.790288
1.675                  -0.178556       -0.789727
1.676                  -0.181119       -0.789157
1.677                  -0.183679       -0.788579
1.678                  -0.186238       -0.787993
1.679                  -0.188794       -0.787399
1.68                   -0.191347       -0.786796
1.681                  -0.193898       -0.786185
1.682                  -0.196446       -0.785566
1.683                  -0.198992       -0.784938
1.684                  -0.201536       -0.784303
1.685                  -0.204076       -0.783659
1.686                  -0.206614       -0.783007
1.687                   -0.20915       -0.782346
1.688                  -0.211683       -0.781678
1.689                  -0.214213       -0.781001
1.69                   -0.216741       -0.780317
1.691                  -0.219266       -0.779624
1.692                  -0.221788       -0.778923
1.693                  -0.224307       -0.778214
1.694                  -0.226824       -0.777497
1.695                  -0.229337       -0.776771
1.696                  -0.231848       -0.776038
1.697                  -0.234356       -0.775296
1.698                  -0.236861       -0.774547
1.699                  -0.239364        -0.77379
1.7                    -0.241863       -0.773024
1.701                  -0.244359        -0.77225
1.702                  -0.246853       -0.771469
1.703                  -0.249343       -0.770679
1.704                   -0.25183       -0.769882
1.705                  -0.254314       -0.769076
1.706                  -0.256796       -0.768263
1.707                  -0.259274       -0.767441
1.708                  -0.261749       -0.766612
1.709                   -0.26422       -0.765775
1.71                   -0.266688        -0.76493
1.711                  -0.269154       -0.764077
1.712                  -0.271616       -0.763216
1.713                  -0.274075       -0.762347
1.714                   -0.27653        -0.76147
1.715                  -0.278983       -0.760586
1.716                  -0.281432       -0.759694
1.717                  -0.283877       -0.758793
1.718                  -0.286319       -0.757886
1.719                  -0.288758        -0.75697
1.72                   -0.291194       -0.756046
1.721                  -0.293626       -0.755115
1.722                  -0.296054       -0.754176
1.723                  -0.298479       -0.753229
1.724                  -0.300901       -0.752275
1.725                  -0.303319       -0.751313
1.726                  -0.305733       -0.750343
1.727                  -0.308144       -0.749365
1.728                  -0.310551        -0.74838
1.729                  -0.312955       -0.747387
1.73                   -0.315354       -0.746387
1.731                  -0.317751       -0.745379
1.732                  -0.320143       -0.744363
1.733                  -0.322532        -0.74334
1.734                  -0.324917       -0.742309
1.735                  -0.327298       -0.741271
1.736                  -0.329676       -0.740225
1.737                   -0.33205       -0.739171
1.738                  -0.334419        -0.73811
1.739                  -0.336786       -0.737041
1.74                   -0.339147       -0.735965
1.741                  -0.341506       -0.734882
1.742                   -0.34386       -0.733791
1.743                   -0.34621       -0.732692
1.744                  -0.348557       -0.731586
1.745                  -0.350899       -0.730473
1.746                  -0.353238       -0.729352
1.747                  -0.355572       -0.728224
1.748                  -0.357902       -0.727089
1.749                  -0.360228       -0.725946
1.75                    -0.36255       -0.724796
1.751                  -0.364868       -0.723638
1.752                  -0.367182       -0.722473
1.753                  -0.369492       -0.721301
1.754                  -0.371797       -0.720122
1.755                  -0.374098       -0.718935
1.756                  -0.376395       -0.717741
1.757                  -0.378688        -0.71654
1.758                  -0.380976       -0.715331
1.759                  -0.383261       -0.714116
1.76                   -0.385541       -0.712893
1.761                  -0.387816       -0.711663
1.762                  -0.390087       -0.710425
1.763                  -0.392354       -0.709181
1.764                  -0.394616        -0.70793
1.765                  -0.396874       -0.706671
1.766                  -0.399128       -0.705405
1.767                  -0.401377       -0.704133
1.768                  -0.403621       -0.702853
1.769                  -0.405861       -0.701566
1.77                   -0.408097       -0.700272
1.771                  -0.410327       -0.698971
1.772                  -0.412554       -0.697663
1.773                  -0.414775       -0.696348
1.774                  -0.416993       -0.695026
1.775                  -0.419205       -0.693697
1.776                  -0.421413       -0.692361
1.777                  -0.423616       -0.691019
1.778                  -0.425814       -0.689669
1.779                  -0.428008       -0.688313
1.78                   -0.430197       -0.686949
1.781                  -0.432381       -0.685579
1.782                  -0.434561       -0.684202
1.783                  -0.436735       -0.682818
1.784                  -0.438905       -0.681427
1.785                   -0.44107        -0.68003
1.786                   -0.44323       -0.678626
1.787                  -0.445385       -0.677215
1.788                  -0.447535       -0.675797
1.789                  -0.449681       -0.674373
1.79                   -0.451821       -0.672942
1.791                  -0.453957       -0.671504
1.792                  -0.456087       -0.670059
1.793                  -0.458212       -0.668608
1.794                  -0.460333        -0.66715
1.795                  -0.462448       -0.665686
1.796                  -0.464559       -0.664215
1.797                  -0.466664       -0.662737
1.798                  -0.468764       -0.661253
1.799                  -0.470859       -0.659762
1.8                    -0.472949       -0.658266
1.801                  -0.475033       -0.656762
1.802                  -0.477113       -0.655252
1.803                  -0.479187       -0.653735
1.804                  -0.481256       -0.652212
1.805                   -0.48332       -0.650682
1.806                  -0.485379       -0.649146
1.807                  -0.487432       -0.647604
1.808                   -0.48948       -0.646056
1.809                  -0.491523         -0.6445
1.81                    -0.49356       -0.642939
1.811                  -0.495592       -0.641371
1.812                  -0.497619       -0.639797
1.813                  -0.499641       -0.638217
1.814                  -0.501656        -0.63663
1.815                  -0.503667       -0.635038
1.816                  -0.505672       -0.633438
1.817                  -0.507671       -0.631833
1.818                  -0.509665       -0.630222
1.819                  -0.511654       -0.628604
1.82                   -0.513637        -0.62698
1.821                  -0.515615        -0.62535
1.822                  -0.517586       -0.623714
1.823                  -0.519553       -0.622072
1.824                  -0.521514       -0.620424
1.825                  -0.523469        -0.61877
1.826                  -0.525418       -0.617109
1.827                  -0.527362       -0.615443
1.828                  -0.529301        -0.61377
1.829                  -0.531233       -0.612092
1.83                    -0.53316       -0.610408
1.831                  -0.535081       -0.608718
1.832                  -0.536997       -0.607021
1.833                  -0.538906       -0.605319
1.834                   -0.54081       -0.603611
1.835                  -0.542708       -0.601898
1.836                  -0.544601       -0.600178
1.837                  -0.546487       -0.598453
1.838                  -0.548368       -0.596721
1.839                  -0.550243       -0.594984
1.84                   -0.552112       -0.593241
1.841                  -0.553975       -0.591493
1.842                  -0.555832       -0.589738
1.843                  -0.557683       -0.587978
1.844                  -0.559529       -0.586213
1.845                  -0.561368       -0.584441
1.846                  -0.563201       -0.582664
1.847                  -0.565029       -0.580882
1.848                   -0.56685       -0.579094
1.849                  -0.568666         -0.5773
1.85                   -0.570475         -0.5755
1.851                  -0.572278       -0.573695
1.852                  -0.574075       -0.571885
1.853                  -0.575866       -0.570069
1.854                  -0.577652       -0.568247
1.855                  -0.579431        -0.56642
1.856                  -0.581203       -0.564588
1.857                   -0.58297        -0.56275
1.858                   -0.58473       -0.560907
1.859                  -0.586485       -0.559059
1.86                   -0.588233       -0.557205
1.861                  -0.589975       -0.555346
1.862                  -0.591711       -0.553481
1.863                   -0.59344       -0.551611
1.864                  -0.595163       -0.549736
1.865                   -0.59688       -0.547856
1.866                  -0.598591        -0.54597
1.867                  -0.600295       -0.544079
1.868                  -0.601993       -0.542183
1.869                  -0.603685       -0.540282
1.87                    -0.60537       -0.538376
1.871                  -0.607049       -0.536464
1.872                  -0.608722       -0.534548
1.873                  -0.610388       -0.532626
1.874                  -0.612048       -0.530699
1.875                  -0.613701       -0.528768
1.876                  -0.615348       -0.526831
1.877                  -0.616989       -0.524889
1.878                  -0.618623       -0.522942
1.879                   -0.62025       -0.520991
1.88                   -0.621871       -0.519034
1.881                  -0.623486       -0.517072
1.882                  -0.625094       -0.515106
1.883                  -0.626696       -0.513135
1.884                  -0.628291       -0.511159
1.885                  -0.629879       -0.509178
1.886                  -0.631461       -0.507192
1.887                  -0.633036       -0.505201
1.888                  -0.634605       -0.503206
1.889                  -0.636167       -0.501206
1.89                   -0.637722       -0.499201
1.891                  -0.639271       -0.497192
1.892                  -0.640813       -0.495178
1.893                  -0.642349       -0.493159
1.894                  -0.643878       -0.491135
1.895                    -0.6454       -0.489108
1.896                  -0.646915       -0.487075
1.897                  -0.648424       -0.485038
1.898                  -0.649926       -0.482996
1.899                  -0.651421        -0.48095
1.9                    -0.652909       -0.478899
1.901                  -0.654391       -0.476844
1.902                  -0.655866       -0.474784
1.903                  -0.657334        -0.47272
1.904                  -0.658795       -0.470652
1.905                   -0.66025       -0.468579
1.906                  -0.661697       -0.466502
1.907                  -0.663138        -0.46442
1.908                  -0.664572       -0.462335
1.909                  -0.665999       -0.460244
1.91                   -0.667419        -0.45815
1.911                  -0.668832       -0.456051
1.912                  -0.670238       -0.453949
1.913                  -0.671638       -0.451842
1.914                   -0.67303        -0.44973
1.915                  -0.674416       -0.447615
1.916                  -0.675794       -0.445496
1.917                  -0.677166       -0.443372
1.918                  -0.678531       -0.441244
1.919                  -0.679888       -0.439113
1.92                   -0.681239       -0.436977
1.921                  -0.682583       -0.434837
1.922                  -0.683919       -0.432693
1.923                  -0.685249       -0.430545
1.924                  -0.686572       -0.428393
1.925                  -0.687887       -0.426238
1.926                  -0.689196       -0.424078
1.927                  -0.690497       -0.421915
1.928                  -0.691791       -0.419748
1.929                  -0.693078       -0.417577
1.93                   -0.694359       -0.415402
1.931                  -0.695632       -0.413223
1.932                  -0.696898        -0.41104
1.933                  -0.698156       -0.408854
1.934                  -0.699408       -0.406664
1.935                  -0.700652        -0.40447
1.936                   -0.70189       -0.402273
1.937                  -0.703119       -0.400072
1.938                  -0.704342       -0.397868
1.939                  -0.705558        -0.39566
1.94                   -0.706767       -0.393448
1.941                  -0.707968       -0.391232
1.942                  -0.709162       -0.389014
1.943                  -0.710349       -0.386791
1.944                  -0.711528       -0.384566
1.945                    -0.7127       -0.382336
1.946                  -0.713866       -0.380104
1.947                  -0.715023       -0.377867
1.948                  -0.716174       -0.375628
1.949                  -0.717317       -0.373385
1.95                   -0.718453       -0.371139
1.951                  -0.719581       -0.368889
1.952                  -0.720703       -0.366636
1.953                  -0.721816        -0.36438
1.954                  -0.722923       -0.362121
1.955                  -0.724022       -0.359859
1.956                  -0.725114       -0.357593
1.957                  -0.726199       -0.355324
1.958                  -0.727276       -0.353052
1.959                  -0.728346       -0.350777
1.96                   -0.729408       -0.348498
1.961                  -0.730463       -0.346217
1.962                  -0.731511       -0.343933
1.963                  -0.732551       -0.341645
1.964                  -0.733584       -0.339355
1.965                  -0.734609       -0.337061
1.966                  -0.735627       -0.334765
1.967                  -0.736637       -0.332465
1.968                  -0.737641       -0.330163
1.969                  -0.738636       -0.327858
1.97                   -0.739624        -0.32555
1.971                  -0.740605       -0.323239
1.972                  -0.741578       -0.320926
1.973                  -0.742544       -0.318609
1.974                  -0.743502        -0.31629
1.975                  -0.744452       -0.313968
1.976                  -0.745395       -0.311643
1.977                  -0.746331       -0.309316
1.978                  -0.747259       -0.306986
1.979                   -0.74818       -0.304653
1.98                   -0.749093       -0.302318
1.981                  -0.749998        -0.29998
1.982                  -0.750896       -0.297639
1.983                  -0.751787       -0.295296
1.984                   -0.75267       -0.292951
1.985                  -0.753545       -0.290602
1.986                  -0.754413       -0.288252
1.987                  -0.755273       -0.285899
1.988                  -0.756125       -0.283543
1.989                   -0.75697       -0.281185
1.99                   -0.757807       -0.278825
1.991                  -0.758637       -0.276463
1.992                  -0.759459       -0.274098
1.993                  -0.760274        -0.27173
1.994                  -0.761081       -0.269361
1.995                   -0.76188       -0.266989
1.996                  -0.762672       -0.264615
1.997                  -0.763456       -0.262239
1.998                  -0.764232       -0.259861
1.999                  -0.765001        -0.25748
2                      -0.765762       -0.255097
