! TOUCHSTONE file generated by CST MICROWAVE STUDIO
! Date and time: Sun Aug  2 21:09:31 2026
! Project name: Sonda-Coaxial_21mm_DisifixB_v2_Agua_Dest.cst
! Parameters = {h_recipiente=20; l_conector=5; r_arandela=35; r_ext=10.5; r_int=3; r_recipiente=50; z_recipiente=-25}
! Header version: 2018
! Port assignment regex: !\s*Touchstone port\s*([0-9]+)\s*=\s*(CST MWS port|CST DS port)\s*([0-9]+|Zmin|Zmax)\s*\(\"(.*)\"\)(\s*mode\s*([0-9]+))?.*
! Touchstone port assignment:
! Touchstone port 1 = CST MWS port 1 ("")
# GHz S RI R 50
0.001                   0.981674     -0.00632096
0.002                   0.981694      -0.0126467
0.003                   0.981726      -0.0189819
0.004                    0.98177      -0.0253312
0.005                   0.981825      -0.0316993
0.006                   0.981887      -0.0380903
0.007                   0.981954      -0.0445087
0.008                   0.982025      -0.0509582
0.009                   0.982095      -0.0574427
0.01                    0.982161      -0.0639657
0.011                    0.98222      -0.0705301
0.012                   0.982266      -0.0771389
0.013                   0.982297      -0.0837945
0.014                   0.982308      -0.0904989
0.015                   0.982292      -0.0972537
0.016                   0.982247        -0.10406
0.017                   0.982166       -0.110919
0.018                   0.982045       -0.117831
0.019                   0.981878       -0.124796
0.02                    0.981661       -0.131813
0.021                   0.981387       -0.138882
0.022                   0.981053          -0.146
0.023                   0.980653       -0.153167
0.024                   0.980182        -0.16038
0.025                   0.979637       -0.167636
0.026                   0.979012       -0.174932
0.027                   0.978303       -0.182265
0.028                   0.977507       -0.189631
0.029                   0.976621       -0.197026
0.03                     0.97564       -0.204447
0.031                   0.974562       -0.211887
0.032                   0.973385       -0.219343
0.033                   0.972107       -0.226809
0.034                   0.970726       -0.234281
0.035                   0.969242       -0.241752
0.036                   0.967652       -0.249219
0.037                   0.965957       -0.256674
0.038                   0.964158       -0.264113
0.039                   0.962254       -0.271531
0.04                    0.960246       -0.278922
0.041                   0.958137       -0.286282
0.042                   0.955927       -0.293604
0.043                    0.95362       -0.300884
0.044                   0.951217       -0.308118
0.045                   0.948721       -0.315301
0.046                   0.946137       -0.322428
0.047                   0.943466       -0.329497
0.048                   0.940714       -0.336503
0.049                   0.937885       -0.343443
0.05                    0.934982       -0.350315
0.051                    0.93201       -0.357115
0.052                   0.928974       -0.363843
0.053                   0.925878       -0.370496
0.054                   0.922728       -0.377072
0.055                   0.919528       -0.383572
0.056                   0.916283       -0.389994
0.057                   0.912998       -0.396338
0.058                   0.909678       -0.402606
0.059                   0.906328       -0.408797
0.06                    0.902951       -0.414912
0.061                   0.899553       -0.420954
0.062                   0.896137       -0.426923
0.063                   0.892709       -0.432823
0.064                    0.88927       -0.438655
0.065                   0.885825       -0.444422
0.066                   0.882378       -0.450128
0.067                    0.87893       -0.455774
0.068                   0.875484       -0.461366
0.069                   0.872043       -0.466905
0.07                    0.868609       -0.472396
0.071                   0.865182       -0.477843
0.072                   0.861764        -0.48325
0.073                   0.858356       -0.488619
0.074                   0.854958       -0.493956
0.075                    0.85157       -0.499264
0.076                   0.848192       -0.504546
0.077                   0.844823       -0.509807
0.078                   0.841462        -0.51505
0.079                   0.838107       -0.520278
0.08                    0.834758       -0.525494
0.081                   0.831411       -0.530701
0.082                   0.828065       -0.535902
0.083                   0.824718         -0.5411
0.084                   0.821366       -0.546297
0.085                   0.818007       -0.551494
0.086                   0.814638       -0.556693
0.087                   0.811255       -0.561896
0.088                   0.807856       -0.567103
0.089                   0.804438       -0.572314
0.09                    0.800996       -0.577531
0.091                   0.797528       -0.582754
0.092                    0.79403        -0.58798
0.093                     0.7905       -0.593211
0.094                   0.786933       -0.598445
0.095                   0.783327        -0.60368
0.096                   0.779679       -0.608916
0.097                   0.775987       -0.614149
0.098                   0.772247       -0.619378
0.099                   0.768458       -0.624601
0.1                     0.764617       -0.629814
0.101                   0.760722       -0.635015
0.102                   0.756773         -0.6402
0.103                   0.752767       -0.645368
0.104                   0.748704       -0.650513
0.105                   0.744584       -0.655634
0.106                   0.740405       -0.660726
0.107                   0.736168       -0.665786
0.108                   0.731873       -0.670811
0.109                    0.72752       -0.675797
0.11                    0.723111        -0.68074
0.111                   0.718648       -0.685638
0.112                    0.71413       -0.690487
0.113                    0.70956       -0.695284
0.114                    0.70494       -0.700026
0.115                   0.700273        -0.70471
0.116                   0.695561       -0.709334
0.117                   0.690806       -0.713897
0.118                   0.686012       -0.718394
0.119                   0.681181       -0.722826
0.12                    0.676318       -0.727189
0.121                   0.671424       -0.731484
0.122                   0.666504       -0.735708
0.123                   0.661562       -0.739861
0.124                   0.656599       -0.743944
0.125                   0.651622       -0.747956
0.126                   0.646631       -0.751896
0.127                   0.641632       -0.755766
0.128                   0.636627       -0.759566
0.129                    0.63162       -0.763298
0.13                    0.626614       -0.766963
0.131                   0.621612       -0.770562
0.132                   0.616616       -0.774097
0.133                    0.61163        -0.77757
0.134                   0.606656       -0.780984
0.135                   0.601695       -0.784341
0.136                   0.596751       -0.787642
0.137                   0.591824       -0.790893
0.138                   0.586917       -0.794094
0.139                    0.58203       -0.797249
0.14                    0.577163       -0.800361
0.141                    0.57232       -0.803433
0.142                   0.567498       -0.806467
0.143                   0.562698       -0.809467
0.144                   0.557921       -0.812436
0.145                   0.553165       -0.815377
0.146                    0.54843       -0.818292
0.147                   0.543716       -0.821184
0.148                   0.539021       -0.824055
0.149                   0.534343       -0.826909
0.15                     0.52968       -0.829746
0.151                   0.525032        -0.83257
0.152                   0.520396       -0.835381
0.153                   0.515769       -0.838182
0.154                   0.511151       -0.840974
0.155                   0.506538       -0.843757
0.156                   0.501929       -0.846534
0.157                    0.49732       -0.849303
0.158                   0.492708       -0.852066
0.159                   0.488094       -0.854823
0.16                    0.483472       -0.857573
0.161                    0.47884       -0.860317
0.162                   0.474198       -0.863052
0.163                   0.469542       -0.865779
0.164                   0.464869       -0.868497
0.165                   0.460179       -0.871203
0.166                    0.45547       -0.873896
0.167                   0.450738       -0.876575
0.168                   0.445985       -0.879238
0.169                   0.441207       -0.881882
0.17                    0.436404       -0.884506
0.171                   0.431575       -0.887107
0.172                   0.426719       -0.889682
0.173                   0.421837        -0.89223
0.174                   0.416927       -0.894747
0.175                   0.411991       -0.897232
0.176                   0.407028       -0.899681
0.177                   0.402039       -0.902093
0.178                   0.397025       -0.904465
0.179                   0.391987       -0.906794
0.18                    0.386927       -0.909079
0.181                   0.381846       -0.911317
0.182                   0.376745       -0.913506
0.183                   0.371627       -0.915644
0.184                   0.366494       -0.917731
0.185                   0.361348       -0.919764
0.186                   0.356191       -0.921742
0.187                   0.351026       -0.923664
0.188                   0.345855        -0.92553
0.189                   0.340682       -0.927338
0.19                    0.335509       -0.929089
0.191                   0.330338       -0.930782
0.192                   0.325173       -0.932418
0.193                   0.320015       -0.933996
0.194                   0.314869       -0.935518
0.195                   0.309736       -0.936985
0.196                   0.304619       -0.938397
0.197                   0.299521       -0.939756
0.198                   0.294444       -0.941063
0.199                    0.28939       -0.942321
0.2                     0.284361        -0.94353
0.201                   0.279358       -0.944694
0.202                   0.274385       -0.945814
0.203                   0.269441       -0.946893
0.204                   0.264529       -0.947932
0.205                   0.259649       -0.948936
0.206                   0.254802       -0.949905
0.207                   0.249988       -0.950844
0.208                   0.245209       -0.951754
0.209                   0.240464       -0.952639
0.21                    0.235752         -0.9535
0.211                   0.231074       -0.954341
0.212                   0.226429       -0.955165
0.213                   0.221816       -0.955973
0.214                   0.217233       -0.956768
0.215                   0.212681       -0.957552
0.216                   0.208156       -0.958328
0.217                   0.203658       -0.959096
0.218                   0.199185        -0.95986
0.219                   0.194735       -0.960621
0.22                    0.190306        -0.96138
0.221                   0.185895       -0.962138
0.222                     0.1815       -0.962896
0.223                    0.17712       -0.963655
0.224                   0.172751       -0.964415
0.225                   0.168391       -0.965177
0.226                   0.164039       -0.965941
0.227                   0.159691       -0.966706
0.228                   0.155345       -0.967472
0.229                      0.151       -0.968238
0.23                    0.146652       -0.969004
0.231                   0.142301       -0.969768
0.232                   0.137943       -0.970529
0.233                   0.133578       -0.971286
0.234                   0.129203       -0.972036
0.235                   0.124817       -0.972779
0.236                    0.12042       -0.973513
0.237                   0.116009       -0.974234
0.238                   0.111585       -0.974942
0.239                   0.107146       -0.975633
0.24                    0.102692       -0.976307
0.241                  0.0982236       -0.976959
0.242                  0.0937398       -0.977589
0.243                  0.0892415       -0.978193
0.244                  0.0847291       -0.978771
0.245                  0.0802035       -0.979318
0.246                  0.0756658       -0.979834
0.247                  0.0711166       -0.980316
0.248                  0.0665579       -0.980762
0.249                  0.0619914       -0.981171
0.25                   0.0574181       -0.981541
0.251                  0.0528406        -0.98187
0.252                  0.0482607       -0.982157
0.253                  0.0436807       -0.982402
0.254                  0.0391025       -0.982603
0.255                   0.034529       -0.982759
0.256                  0.0299624       -0.982871
0.257                  0.0254053       -0.982938
0.258                  0.0208599        -0.98296
0.259                  0.0163292       -0.982937
0.26                   0.0118153        -0.98287
0.261                 0.00732073        -0.98276
0.262                  0.0028482       -0.982607
0.263                -0.00160075       -0.982413
0.264                 -0.0060232       -0.982179
0.265                 -0.0104172       -0.981907
0.266                 -0.0147813       -0.981599
0.267                 -0.0191136       -0.981256
0.268                  -0.023412        -0.98088
0.269                 -0.0276759       -0.980475
0.27                  -0.0319036       -0.980041
0.271                 -0.0360942       -0.979582
0.272                 -0.0402473         -0.9791
0.273                 -0.0443622       -0.978599
0.274                 -0.0484387       -0.978079
0.275                 -0.0524764       -0.977545
0.276                 -0.0564761       -0.976999
0.277                 -0.0604379       -0.976443
0.278                 -0.0643628        -0.97588
0.279                 -0.0682514       -0.975313
0.28                  -0.0721052       -0.974743
0.281                 -0.0759253       -0.974174
0.282                 -0.0797133       -0.973607
0.283                 -0.0834711       -0.973044
0.284                 -0.0872008       -0.972488
0.285                 -0.0909041       -0.971939
0.286                 -0.0945837         -0.9714
0.287                 -0.0982414       -0.970871
0.288                   -0.10188       -0.970353
0.289                  -0.105502       -0.969848
0.29                    -0.10911       -0.969355
0.291                  -0.112708       -0.968876
0.292                  -0.116295       -0.968409
0.293                  -0.119878       -0.967955
0.294                  -0.123457       -0.967513
0.295                  -0.127034       -0.967083
0.296                  -0.130614       -0.966663
0.297                  -0.134197       -0.966253
0.298                  -0.137787        -0.96585
0.299                  -0.141385       -0.965454
0.3                    -0.144993       -0.965062
0.301                  -0.148613       -0.964672
0.302                  -0.152247       -0.964283
0.303                  -0.155896       -0.963892
0.304                   -0.15956       -0.963496
0.305                  -0.163241       -0.963093
0.306                   -0.16694        -0.96268
0.307                  -0.170656       -0.962255
0.308                  -0.174391       -0.961814
0.309                  -0.178143       -0.961356
0.31                   -0.181912       -0.960877
0.311                  -0.185698       -0.960376
0.312                    -0.1895       -0.959848
0.313                  -0.193316       -0.959292
0.314                  -0.197145       -0.958706
0.315                  -0.200986       -0.958086
0.316                  -0.204837       -0.957432
0.317                  -0.208695        -0.95674
0.318                  -0.212558        -0.95601
0.319                  -0.216424        -0.95524
0.32                    -0.22029       -0.954429
0.321                  -0.224154       -0.953575
0.322                  -0.228013       -0.952677
0.323                  -0.231864       -0.951736
0.324                  -0.235704       -0.950751
0.325                   -0.23953       -0.949722
0.326                  -0.243339        -0.94865
0.327                  -0.247128       -0.947534
0.328                  -0.250895       -0.946376
0.329                  -0.254637       -0.945177
0.33                   -0.258351       -0.943938
0.331                  -0.262034       -0.942661
0.332                  -0.265685       -0.941348
0.333                    -0.2693       -0.940001
0.334                  -0.272879       -0.938622
0.335                  -0.276418       -0.937213
0.336                  -0.279918       -0.935778
0.337                  -0.283375       -0.934319
0.338                   -0.28679        -0.93284
0.339                  -0.290161       -0.931342
0.34                   -0.293489        -0.92983
0.341                  -0.296773       -0.928306
0.342                  -0.300012       -0.926774
0.343                  -0.303208       -0.925236
0.344                  -0.306362       -0.923696
0.345                  -0.309474       -0.922157
0.346                  -0.312546       -0.920622
0.347                  -0.315579       -0.919093
0.348                  -0.318575       -0.917574
0.349                  -0.321538       -0.916067
0.35                   -0.324468       -0.914574
0.351                  -0.327369       -0.913096
0.352                  -0.330243       -0.911637
0.353                  -0.333094       -0.910197
0.354                  -0.335924       -0.908777
0.355                  -0.338738       -0.907379
0.356                  -0.341539       -0.906004
0.357                   -0.34433        -0.90465
0.358                  -0.347115       -0.903318
0.359                  -0.349898       -0.902009
0.36                   -0.352681        -0.90072
0.361                   -0.35547       -0.899451
0.362                  -0.358266       -0.898199
0.363                  -0.361074       -0.896964
0.364                  -0.363897       -0.895743
0.365                  -0.366738       -0.894534
0.366                    -0.3696       -0.893332
0.367                  -0.372485       -0.892136
0.368                  -0.375395       -0.890942
0.369                  -0.378333       -0.889745
0.37                     -0.3813       -0.888542
0.371                  -0.384298       -0.887329
0.372                  -0.387327       -0.886101
0.373                  -0.390388       -0.884853
0.374                  -0.393482       -0.883582
0.375                  -0.396608       -0.882281
0.376                  -0.399765       -0.880947
0.377                  -0.402952       -0.879574
0.378                  -0.406167       -0.878158
0.379                   -0.40941       -0.876694
0.38                   -0.412676       -0.875176
0.381                  -0.415963       -0.873602
0.382                  -0.419268       -0.871965
0.383                  -0.422587       -0.870263
0.384                  -0.425916       -0.868492
0.385                   -0.42925       -0.866647
0.386                  -0.432584       -0.864725
0.387                  -0.435912       -0.862724
0.388                  -0.439231       -0.860642
0.389                  -0.442532       -0.858475
0.39                   -0.445811       -0.856223
0.391                  -0.449061       -0.853884
0.392                  -0.452275       -0.851458
0.393                  -0.455447       -0.848944
0.394                  -0.458569       -0.846343
0.395                  -0.461636       -0.843656
0.396                  -0.464639       -0.840883
0.397                  -0.467573       -0.838028
0.398                   -0.47043       -0.835093
0.399                  -0.473203       -0.832081
0.4                    -0.475887       -0.828995
0.401                  -0.478475       -0.825839
0.402                   -0.48096       -0.822619
0.403                  -0.483338        -0.81934
0.404                  -0.485601       -0.816007
0.405                  -0.487747       -0.812626
0.406                  -0.489768       -0.809205
0.407                  -0.491663       -0.805749
0.408                  -0.493426       -0.802267
0.409                  -0.495054       -0.798766
0.41                   -0.496545       -0.795254
0.411                  -0.497896        -0.79174
0.412                  -0.499106       -0.788231
0.413                  -0.500173       -0.784738
0.414                  -0.501098       -0.781268
0.415                   -0.50188       -0.777831
0.416                  -0.502521       -0.774435
0.417                  -0.503022       -0.771089
0.418                  -0.503385       -0.767803
0.419                  -0.503613       -0.764585
0.42                   -0.503708       -0.761444
0.421                  -0.503677       -0.758388
0.422                  -0.503522       -0.755426
0.423                   -0.50325       -0.752565
0.424                  -0.502865       -0.749813
0.425                  -0.502375       -0.747177
0.426                  -0.501786       -0.744665
0.427                  -0.501107       -0.742282
0.428                  -0.500343       -0.740034
0.429                  -0.499504       -0.737926
0.43                   -0.498599       -0.735964
0.431                  -0.497637       -0.734151
0.432                  -0.496626       -0.732491
0.433                  -0.495576       -0.730987
0.434                  -0.494498       -0.729641
0.435                    -0.4934       -0.728454
0.436                  -0.492293       -0.727429
0.437                  -0.491187       -0.726563
0.438                  -0.490092       -0.725859
0.439                  -0.489019       -0.725313
0.44                   -0.487975       -0.724924
0.441                  -0.486973       -0.724691
0.442                  -0.486021       -0.724608
0.443                  -0.485129       -0.724674
0.444                  -0.484305       -0.724882
0.445                  -0.483559       -0.725229
0.446                  -0.482898       -0.725708
0.447                  -0.482331       -0.726314
0.448                  -0.481864       -0.727039
0.449                  -0.481506       -0.727876
0.45                   -0.481262       -0.728819
0.451                  -0.481138       -0.729858
0.452                  -0.481139       -0.730985
0.453                   -0.48127       -0.732193
0.454                  -0.481536       -0.733471
0.455                  -0.481939        -0.73481
0.456                  -0.482483       -0.736202
0.457                  -0.483169       -0.737637
0.458                  -0.483999       -0.739106
0.459                  -0.484973       -0.740598
0.46                   -0.486092       -0.742105
0.461                  -0.487355       -0.743617
0.462                  -0.488762       -0.745125
0.463                  -0.490309       -0.746619
0.464                  -0.491995       -0.748091
0.465                  -0.493817       -0.749532
0.466                  -0.495771       -0.750934
0.467                  -0.497854       -0.752289
0.468                   -0.50006       -0.753589
0.469                  -0.502385       -0.754828
0.47                   -0.504822       -0.755997
0.471                  -0.507367       -0.757091
0.472                  -0.510013       -0.758105
0.473                  -0.512753       -0.759032
0.474                  -0.515581       -0.759869
0.475                  -0.518489        -0.76061
0.476                  -0.521471       -0.761252
0.477                  -0.524519       -0.761792
0.478                  -0.527625       -0.762228
0.479                  -0.530781       -0.762557
0.48                   -0.533981       -0.762778
0.481                  -0.537217        -0.76289
0.482                  -0.540481       -0.762893
0.483                  -0.543766       -0.762787
0.484                  -0.547065       -0.762572
0.485                   -0.55037       -0.762249
0.486                  -0.553675       -0.761821
0.487                  -0.556973        -0.76129
0.488                  -0.560257       -0.760657
0.489                  -0.563523       -0.759926
0.49                   -0.566763         -0.7591
0.491                  -0.569974       -0.758183
0.492                  -0.573149       -0.757178
0.493                  -0.576284        -0.75609
0.494                  -0.579374       -0.754923
0.495                  -0.582417       -0.753682
0.496                  -0.585409       -0.752372
0.497                  -0.588346       -0.750997
0.498                  -0.591226       -0.749563
0.499                  -0.594048       -0.748075
0.5                    -0.596808       -0.746537
0.501                  -0.599507       -0.744956
0.502                  -0.602143       -0.743335
0.503                  -0.604715       -0.741681
0.504                  -0.607224       -0.739997
0.505                   -0.60967        -0.73829
0.506                  -0.612053       -0.736563
0.507                  -0.614375       -0.734821
0.508                  -0.616636       -0.733068
0.509                  -0.618838        -0.73131
0.51                   -0.620983       -0.729548
0.511                  -0.623073       -0.727787
0.512                  -0.625111       -0.726031
0.513                  -0.627098       -0.724283
0.514                  -0.629038       -0.722544
0.515                  -0.630933       -0.720819
0.516                  -0.632786       -0.719108
0.517                    -0.6346       -0.717415
0.518                  -0.636378        -0.71574
0.519                  -0.638123       -0.714085
0.52                   -0.639839       -0.712451
0.521                  -0.641529       -0.710839
0.522                  -0.643194       -0.709249
0.523                  -0.644839       -0.707681
0.524                  -0.646466       -0.706137
0.525                  -0.648078       -0.704614
0.526                  -0.649678       -0.703113
0.527                  -0.651269       -0.701632
0.528                  -0.652852       -0.700172
0.529                  -0.654431       -0.698731
0.53                   -0.656006       -0.697307
0.531                   -0.65758         -0.6959
0.532                  -0.659155       -0.694508
0.533                  -0.660733       -0.693128
0.534                  -0.662314        -0.69176
0.535                  -0.663899       -0.690401
0.536                  -0.665489        -0.68905
0.537                  -0.667086       -0.687705
0.538                   -0.66869       -0.686365
0.539                  -0.670301       -0.685026
0.54                   -0.671919       -0.683687
0.541                  -0.673543       -0.682347
0.542                  -0.675174       -0.681004
0.543                  -0.676812       -0.679657
0.544                  -0.678456       -0.678303
0.545                  -0.680104       -0.676941
0.546                  -0.681757        -0.67557
0.547                  -0.683413       -0.674189
0.548                  -0.685071       -0.672796
0.549                  -0.686731       -0.671391
0.55                    -0.68839       -0.669973
0.551                  -0.690047       -0.668541
0.552                  -0.691702       -0.667094
0.553                  -0.693352       -0.665633
0.554                  -0.694997       -0.664157
0.555                  -0.696636       -0.662666
0.556                  -0.698266       -0.661159
0.557                  -0.699886       -0.659638
0.558                  -0.701496       -0.658103
0.559                  -0.703093       -0.656553
0.56                   -0.704678        -0.65499
0.561                  -0.706248       -0.653415
0.562                  -0.707802       -0.651827
0.563                  -0.709341       -0.650229
0.564                  -0.710862        -0.64862
0.565                  -0.712366       -0.647002
0.566                  -0.713851       -0.645376
0.567                  -0.715317       -0.643744
0.568                  -0.716764       -0.642105
0.569                  -0.718192       -0.640463
0.57                     -0.7196       -0.638817
0.571                  -0.720988       -0.637169
0.572                  -0.722356        -0.63552
0.573                  -0.723705       -0.633871
0.574                  -0.725036       -0.632224
0.575                  -0.726347        -0.63058
0.576                  -0.727641       -0.628939
0.577                  -0.728916       -0.627302
0.578                  -0.730175       -0.625672
0.579                  -0.731418       -0.624048
0.58                   -0.732646       -0.622431
0.581                  -0.733859       -0.620821
0.582                  -0.735059       -0.619221
0.583                  -0.736246       -0.617629
0.584                  -0.737422       -0.616047
0.585                  -0.738588       -0.614474
0.586                  -0.739744       -0.612911
0.587                  -0.740893       -0.611359
0.588                  -0.742034       -0.609816
0.589                  -0.743169       -0.608283
0.59                   -0.744299        -0.60676
0.591                  -0.745425       -0.605246
0.592                  -0.746547       -0.603742
0.593                  -0.747668       -0.602246
0.594                  -0.748787       -0.600758
0.595                  -0.749905       -0.599278
0.596                  -0.751024       -0.597805
0.597                  -0.752144       -0.596338
0.598                  -0.753264       -0.594876
0.599                  -0.754387        -0.59342
0.6                    -0.755512       -0.591967
0.601                   -0.75664       -0.590517
0.602                   -0.75777       -0.589069
0.603                  -0.758904       -0.587623
0.604                  -0.760041       -0.586177
0.605                  -0.761181        -0.58473
0.606                  -0.762323       -0.583283
0.607                   -0.76347       -0.581833
0.608                  -0.764618       -0.580381
0.609                   -0.76577       -0.578924
0.61                   -0.766923       -0.577464
0.611                  -0.768078       -0.575998
0.612                  -0.769234       -0.574527
0.613                  -0.770391        -0.57305
0.614                  -0.771548       -0.571565
0.615                  -0.772705       -0.570074
0.616                   -0.77386       -0.568575
0.617                  -0.775014       -0.567069
0.618                  -0.776166       -0.565554
0.619                  -0.777314       -0.564031
0.62                   -0.778459       -0.562499
0.621                    -0.7796       -0.560959
0.622                  -0.780735       -0.559411
0.623                  -0.781865       -0.557854
0.624                  -0.782989       -0.556289
0.625                  -0.784106       -0.554716
0.626                  -0.785215       -0.553135
0.627                  -0.786317       -0.551547
0.628                   -0.78741       -0.549951
0.629                  -0.788495       -0.548349
0.63                    -0.78957        -0.54674
0.631                  -0.790636       -0.545126
0.632                  -0.791692       -0.543505
0.633                  -0.792738       -0.541879
0.634                  -0.793773        -0.54025
0.635                  -0.794799       -0.538615
0.636                  -0.795814       -0.536977
0.637                  -0.796818       -0.535336
0.638                  -0.797812       -0.533692
0.639                  -0.798796       -0.532046
0.64                   -0.799769       -0.530398
0.641                  -0.800733       -0.528749
0.642                  -0.801686       -0.527098
0.643                   -0.80263       -0.525446
0.644                  -0.803565       -0.523794
0.645                  -0.804491       -0.522142
0.646                  -0.805407        -0.52049
0.647                  -0.806316       -0.518838
0.648                  -0.807216       -0.517186
0.649                  -0.808109       -0.515535
0.65                   -0.808994       -0.513884
0.651                  -0.809873       -0.512233
0.652                  -0.810744       -0.510583
0.653                   -0.81161       -0.508933
0.654                   -0.81247       -0.507283
0.655                  -0.813323       -0.505633
0.656                  -0.814172       -0.503983
0.657                  -0.815016       -0.502332
0.658                  -0.815854       -0.500681
0.659                  -0.816688       -0.499028
0.66                   -0.817518       -0.497374
0.661                  -0.818343       -0.495718
0.662                  -0.819164        -0.49406
0.663                   -0.81998         -0.4924
0.664                  -0.820793       -0.490736
0.665                  -0.821601        -0.48907
0.666                  -0.822404       -0.487399
0.667                  -0.823203       -0.485724
0.668                  -0.823998       -0.484045
0.669                  -0.824788       -0.482361
0.67                   -0.825573       -0.480672
0.671                  -0.826352       -0.478978
0.672                  -0.827126       -0.477277
0.673                  -0.827893       -0.475571
0.674                  -0.828655       -0.473858
0.675                   -0.82941       -0.472138
0.676                  -0.830157       -0.470412
0.677                  -0.830897       -0.468679
0.678                   -0.83163       -0.466938
0.679                  -0.832354        -0.46519
0.68                   -0.833069       -0.463435
0.681                  -0.833775       -0.461673
0.682                  -0.834471       -0.459904
0.683                  -0.835158       -0.458127
0.684                  -0.835833       -0.456343
0.685                  -0.836498       -0.454552
0.686                  -0.837152       -0.452754
0.687                  -0.837794       -0.450949
0.688                  -0.838424       -0.449138
0.689                  -0.839042       -0.447319
0.69                   -0.839646       -0.445495
0.691                  -0.840238       -0.443664
0.692                  -0.840817       -0.441828
0.693                  -0.841382       -0.439986
0.694                  -0.841934       -0.438137
0.695                  -0.842471       -0.436284
0.696                  -0.842995       -0.434426
0.697                  -0.843504       -0.432562
0.698                  -0.843998       -0.430694
0.699                  -0.844479       -0.428821
0.7                    -0.844944       -0.426943
0.701                  -0.845395       -0.425061
0.702                   -0.84583       -0.423175
0.703                  -0.846251       -0.421284
0.704                  -0.846656       -0.419389
0.705                  -0.847046        -0.41749
0.706                  -0.847421       -0.415587
0.707                   -0.84778       -0.413679
0.708                  -0.848122       -0.411766
0.709                   -0.84845       -0.409849
0.71                    -0.84876       -0.407928
0.711                  -0.849054       -0.406002
0.712                  -0.849331       -0.404071
0.713                   -0.84959       -0.402135
0.714                  -0.849832       -0.400194
0.715                  -0.850055       -0.398248
0.716                   -0.85026       -0.396296
0.717                  -0.850445       -0.394339
0.718                   -0.85061       -0.392376
0.719                  -0.850755       -0.390406
0.72                   -0.850877       -0.388432
0.721                  -0.850978       -0.386451
0.722                  -0.851055       -0.384465
0.723                  -0.851108       -0.382473
0.724                  -0.851135       -0.380475
0.725                  -0.851136       -0.378472
0.726                   -0.85111       -0.376464
0.727                  -0.851055       -0.374451
0.728                   -0.85097       -0.372433
0.729                  -0.850854       -0.370413
0.73                   -0.850706       -0.368388
0.731                  -0.850524       -0.366362
0.732                  -0.850307       -0.364334
0.733                  -0.850055       -0.362306
0.734                  -0.849764       -0.360278
0.735                  -0.849435       -0.358253
0.736                  -0.849066        -0.35623
0.737                  -0.848655       -0.354213
0.738                  -0.848202       -0.352202
0.739                  -0.847706       -0.350199
0.74                   -0.847165       -0.348207
0.741                  -0.846579       -0.346226
0.742                  -0.845946        -0.34426
0.743                  -0.845266        -0.34231
0.744                  -0.844538       -0.340379
0.745                  -0.843763        -0.33847
0.746                  -0.842938       -0.336584
0.747                  -0.842065       -0.334726
0.748                  -0.841143       -0.332896
0.749                  -0.840173       -0.331099
0.75                   -0.839153       -0.329338
0.751                  -0.838086       -0.327614
0.752                  -0.836972       -0.325931
0.753                  -0.835811       -0.324293
0.754                  -0.834605       -0.322702
0.755                  -0.833355       -0.321161
0.756                  -0.832062       -0.319673
0.757                  -0.830729       -0.318242
0.758                  -0.829357        -0.31687
0.759                  -0.827948       -0.315559
0.76                   -0.826505       -0.314314
0.761                   -0.82503       -0.313136
0.762                  -0.823526       -0.312028
0.763                  -0.821996       -0.310992
0.764                  -0.820443       -0.310031
0.765                  -0.818871       -0.309147
0.766                  -0.817284       -0.308342
0.767                  -0.815684       -0.307617
0.768                  -0.814076       -0.306975
0.769                  -0.812463       -0.306416
0.77                   -0.810851       -0.305941
0.771                  -0.809243       -0.305551
0.772                  -0.807643       -0.305247
0.773                  -0.806056        -0.30503
0.774                  -0.804487       -0.304899
0.775                   -0.80294       -0.304854
0.776                   -0.80142       -0.304894
0.777                   -0.79993        -0.30502
0.778                  -0.798477       -0.305229
0.779                  -0.797063        -0.30552
0.78                   -0.795695       -0.305892
0.781                  -0.794375       -0.306343
0.782                  -0.793109        -0.30687
0.783                  -0.791901       -0.307471
0.784                  -0.790754       -0.308144
0.785                  -0.789673       -0.308885
0.786                  -0.788661        -0.30969
0.787                  -0.787721       -0.310558
0.788                  -0.786858       -0.311482
0.789                  -0.786075       -0.312461
0.79                   -0.785373       -0.313489
0.791                  -0.784756       -0.314563
0.792                  -0.784226       -0.315677
0.793                  -0.783785       -0.316827
0.794                  -0.783435       -0.318008
0.795                  -0.783178       -0.319216
0.796                  -0.783014       -0.320446
0.797                  -0.782944       -0.321692
0.798                   -0.78297       -0.322949
0.799                   -0.78309       -0.324213
0.8                    -0.783306       -0.325477
0.801                  -0.783616       -0.326738
0.802                  -0.784021        -0.32799
0.803                  -0.784518       -0.329228
0.804                  -0.785108       -0.330448
0.805                  -0.785787       -0.331643
0.806                  -0.786554       -0.332811
0.807                  -0.787408       -0.333946
0.808                  -0.788345       -0.335044
0.809                  -0.789363       -0.336101
0.81                   -0.790459       -0.337114
0.811                   -0.79163       -0.338077
0.812                  -0.792872       -0.338988
0.813                  -0.794183       -0.339843
0.814                  -0.795557        -0.34064
0.815                  -0.796992       -0.341376
0.816                  -0.798483       -0.342048
0.817                  -0.800027       -0.342654
0.818                  -0.801619       -0.343192
0.819                  -0.803254       -0.343661
0.82                   -0.804929       -0.344059
0.821                   -0.80664       -0.344385
0.822                  -0.808381       -0.344638
0.823                  -0.810149       -0.344818
0.824                  -0.811939       -0.344925
0.825                  -0.813748       -0.344959
0.826                   -0.81557        -0.34492
0.827                  -0.817402       -0.344808
0.828                  -0.819239       -0.344625
0.829                  -0.821079       -0.344371
0.83                   -0.822917       -0.344049
0.831                   -0.82475       -0.343658
0.832                  -0.826574       -0.343202
0.833                  -0.828386       -0.342682
0.834                  -0.830183         -0.3421
0.835                  -0.831963       -0.341459
0.836                  -0.833722        -0.34076
0.837                  -0.835458       -0.340006
0.838                  -0.837169         -0.3392
0.839                  -0.838853       -0.338344
0.84                   -0.840508       -0.337442
0.841                  -0.842133       -0.336495
0.842                  -0.843726       -0.335507
0.843                  -0.845287       -0.334481
0.844                  -0.846814       -0.333418
0.845                  -0.848306       -0.332323
0.846                  -0.849764       -0.331198
0.847                  -0.851186       -0.330046
0.848                  -0.852574       -0.328869
0.849                  -0.853926        -0.32767
0.85                   -0.855244       -0.326451
0.851                  -0.856527       -0.325215
0.852                  -0.857776       -0.323964
0.853                  -0.858993         -0.3227
0.854                  -0.860177       -0.321426
0.855                  -0.861331       -0.320143
0.856                  -0.862454       -0.318853
0.857                  -0.863548       -0.317557
0.858                  -0.864615       -0.316258
0.859                  -0.865655       -0.314956
0.86                    -0.86667       -0.313653
0.861                  -0.867662       -0.312349
0.862                  -0.868632       -0.311046
0.863                  -0.869581       -0.309744
0.864                   -0.87051       -0.308444
0.865                  -0.871422       -0.307147
0.866                  -0.872317       -0.305852
0.867                  -0.873196        -0.30456
0.868                  -0.874063        -0.30327
0.869                  -0.874916       -0.301984
0.87                   -0.875757         -0.3007
0.871                  -0.876589       -0.299419
0.872                  -0.877411       -0.298139
0.873                  -0.878224       -0.296861
0.874                   -0.87903       -0.295585
0.875                  -0.879829       -0.294309
0.876                  -0.880621       -0.293033
0.877                  -0.881408       -0.291756
0.878                   -0.88219       -0.290477
0.879                  -0.882967       -0.289197
0.88                   -0.883739       -0.287914
0.881                  -0.884507       -0.286627
0.882                   -0.88527       -0.285336
0.883                  -0.886029        -0.28404
0.884                  -0.886784       -0.282739
0.885                  -0.887534       -0.281432
0.886                  -0.888278       -0.280117
0.887                  -0.889018       -0.278796
0.888                  -0.889751       -0.277466
0.889                  -0.890479       -0.276129
0.89                   -0.891199       -0.274783
0.891                  -0.891913       -0.273428
0.892                  -0.892618       -0.272064
0.893                  -0.893315       -0.270691
0.894                  -0.894003       -0.269308
0.895                  -0.894681       -0.267917
0.896                  -0.895349       -0.266516
0.897                  -0.896006       -0.265106
0.898                  -0.896651       -0.263688
0.899                  -0.897283       -0.262261
0.9                    -0.897903       -0.260826
0.901                  -0.898509       -0.259383
0.902                  -0.899102       -0.257934
0.903                   -0.89968       -0.256477
0.904                  -0.900243       -0.255015
0.905                  -0.900791       -0.253546
0.906                  -0.901323       -0.252074
0.907                   -0.90184       -0.250597
0.908                  -0.902341       -0.249116
0.909                  -0.902826       -0.247634
0.91                   -0.903296       -0.246149
0.911                  -0.903749       -0.244663
0.912                  -0.904186       -0.243176
0.913                  -0.904607        -0.24169
0.914                  -0.905013       -0.240205
0.915                  -0.905404       -0.238722
0.916                   -0.90578       -0.237241
0.917                  -0.906142       -0.235764
0.918                   -0.90649       -0.234289
0.919                  -0.906824       -0.232819
0.92                   -0.907146       -0.231354
0.921                  -0.907455       -0.229893
0.922                  -0.907752       -0.228438
0.923                  -0.908039       -0.226989
0.924                  -0.908315       -0.225545
0.925                  -0.908582       -0.224108
0.926                   -0.90884       -0.222677
0.927                   -0.90909       -0.221252
0.928                  -0.909332       -0.219834
0.929                  -0.909568       -0.218421
0.93                   -0.909797       -0.217015
0.931                  -0.910021       -0.215614
0.932                   -0.91024       -0.214219
0.933                  -0.910455       -0.212829
0.934                  -0.910667       -0.211444
0.935                  -0.910875       -0.210063
0.936                   -0.91108       -0.208686
0.937                  -0.911284       -0.207312
0.938                  -0.911485       -0.205941
0.939                  -0.911684       -0.204572
0.94                   -0.911882       -0.203205
0.941                  -0.912079       -0.201838
0.942                  -0.912275       -0.200471
0.943                   -0.91247       -0.199104
0.944                  -0.912663       -0.197736
0.945                  -0.912855       -0.196366
0.946                  -0.913046       -0.194994
0.947                  -0.913235       -0.193618
0.948                  -0.913422       -0.192239
0.949                  -0.913607       -0.190856
0.95                   -0.913789       -0.189467
0.951                  -0.913968       -0.188074
0.952                  -0.914143       -0.186675
0.953                  -0.914314       -0.185269
0.954                   -0.91448       -0.183857
0.955                   -0.91464       -0.182437
0.956                  -0.914795       -0.181011
0.957                  -0.914942       -0.179578
0.958                  -0.915082       -0.178137
0.959                  -0.915214       -0.176688
0.96                   -0.915337       -0.175232
0.961                   -0.91545       -0.173768
0.962                  -0.915553       -0.172297
0.963                  -0.915645       -0.170819
0.964                  -0.915725       -0.169333
0.965                  -0.915792       -0.167841
0.966                  -0.915847       -0.166343
0.967                  -0.915888       -0.164838
0.968                  -0.915914       -0.163328
0.969                  -0.915926       -0.161813
0.97                   -0.915922       -0.160294
0.971                  -0.915902        -0.15877
0.972                  -0.915867       -0.157243
0.973                  -0.915815       -0.155713
0.974                  -0.915746       -0.154182
0.975                  -0.915659       -0.152648
0.976                  -0.915556       -0.151114
0.977                  -0.915435       -0.149579
0.978                  -0.915296       -0.148045
0.979                  -0.915141       -0.146512
0.98                   -0.914967       -0.144981
0.981                  -0.914776       -0.143452
0.982                  -0.914567       -0.141927
0.983                  -0.914341       -0.140404
0.984                  -0.914098       -0.138886
0.985                  -0.913838       -0.137373
0.986                  -0.913561       -0.135864
0.987                  -0.913268       -0.134361
0.988                  -0.912959       -0.132865
0.989                  -0.912634       -0.131374
0.99                   -0.912294        -0.12989
0.991                  -0.911939       -0.128413
0.992                  -0.911568       -0.126943
0.993                  -0.911184        -0.12548
0.994                  -0.910785       -0.124025
0.995                  -0.910372       -0.122577
0.996                  -0.909945       -0.121137
0.997                  -0.909506       -0.119705
0.998                  -0.909053        -0.11828
0.999                  -0.908587       -0.116863
1                      -0.908109       -0.115453
1.001                  -0.907618       -0.114051
1.002                  -0.907114       -0.112656
1.003                  -0.906598       -0.111268
1.004                   -0.90607       -0.109887
1.005                  -0.905528       -0.108513
1.006                  -0.904974       -0.107146
1.007                  -0.904408       -0.105786
1.008                  -0.903828       -0.104432
1.009                  -0.903235       -0.103085
1.01                   -0.902628       -0.101744
1.011                  -0.902007       -0.100409
1.012                  -0.901372      -0.0990811
1.013                  -0.900722      -0.0977597
1.014                  -0.900056      -0.0964449
1.015                  -0.899375      -0.0951368
1.016                  -0.898677      -0.0938357
1.017                  -0.897962      -0.0925417
1.018                   -0.89723      -0.0912558
1.019                   -0.89648      -0.0899779
1.02                    -0.89571      -0.0887084
1.021                  -0.894922      -0.0874483
1.022                  -0.894114      -0.0861982
1.023                  -0.893285      -0.0849586
1.024                  -0.892435      -0.0837305
1.025                  -0.891564      -0.0825149
1.026                  -0.890671      -0.0813126
1.027                  -0.889755      -0.0801246
1.028                  -0.888817      -0.0789523
1.029                  -0.887856      -0.0777965
1.03                   -0.886871      -0.0766588
1.031                  -0.885863      -0.0755405
1.032                  -0.884832       -0.074443
1.033                  -0.883777      -0.0733677
1.034                  -0.882699      -0.0723157
1.035                  -0.881598       -0.071289
1.036                  -0.880474      -0.0702891
1.037                  -0.879327      -0.0693174
1.038                  -0.878159      -0.0683755
1.039                   -0.87697      -0.0674653
1.04                   -0.875761       -0.066588
1.041                  -0.874532      -0.0657454
1.042                  -0.873284      -0.0649388
1.043                   -0.87202      -0.0641697
1.044                   -0.87074      -0.0634401
1.045                  -0.869445      -0.0627511
1.046                  -0.868137      -0.0621038
1.047                  -0.866817      -0.0614998
1.048                  -0.865488      -0.0609404
1.049                  -0.864151      -0.0604263
1.05                   -0.862808      -0.0599589
1.051                  -0.861461      -0.0595392
1.052                  -0.860112       -0.059168
1.053                  -0.858764      -0.0588455
1.054                  -0.857418       -0.058573
1.055                  -0.856078      -0.0583501
1.056                  -0.854744      -0.0581777
1.057                  -0.853421      -0.0580557
1.058                  -0.852109      -0.0579842
1.059                  -0.850812       -0.057963
1.06                   -0.849533       -0.057992
1.061                  -0.848273      -0.0580703
1.062                  -0.847035      -0.0581976
1.063                  -0.845821      -0.0583733
1.064                  -0.844635      -0.0585961
1.065                  -0.843478      -0.0588651
1.066                  -0.842353      -0.0591791
1.067                  -0.841261      -0.0595365
1.068                  -0.840205      -0.0599363
1.069                  -0.839188      -0.0603763
1.07                   -0.838211       -0.060855
1.071                  -0.837276      -0.0613707
1.072                  -0.836384      -0.0619212
1.073                  -0.835538      -0.0625039
1.074                  -0.834739      -0.0631175
1.075                  -0.833989      -0.0637589
1.076                  -0.833288      -0.0644261
1.077                  -0.832637      -0.0651167
1.078                  -0.832038       -0.065828
1.079                  -0.831492      -0.0665573
1.08                   -0.830999      -0.0673024
1.081                  -0.830559      -0.0680601
1.082                  -0.830173      -0.0688287
1.083                  -0.829841      -0.0696044
1.084                  -0.829563      -0.0703853
1.085                  -0.829339      -0.0711688
1.086                  -0.829168      -0.0719519
1.087                   -0.82905      -0.0727323
1.088                  -0.828985      -0.0735076
1.089                  -0.828971      -0.0742752
1.09                   -0.829008      -0.0750326
1.091                  -0.829095      -0.0757776
1.092                   -0.82923      -0.0765084
1.093                  -0.829412      -0.0772224
1.094                   -0.82964      -0.0779176
1.095                  -0.829913      -0.0785926
1.096                  -0.830228      -0.0792452
1.097                  -0.830584      -0.0798738
1.098                  -0.830979       -0.080477
1.099                  -0.831412       -0.081053
1.1                    -0.831881      -0.0816015
1.101                  -0.832383      -0.0821203
1.102                  -0.832917      -0.0826087
1.103                  -0.833481      -0.0830663
1.104                  -0.834073       -0.083492
1.105                   -0.83469      -0.0838851
1.106                  -0.835331      -0.0842455
1.107                  -0.835995      -0.0845724
1.108                  -0.836678      -0.0848659
1.109                  -0.837379      -0.0851261
1.11                   -0.838096      -0.0853527
1.111                  -0.838828      -0.0855458
1.112                  -0.839573      -0.0857058
1.113                  -0.840328      -0.0858332
1.114                  -0.841092      -0.0859282
1.115                  -0.841865      -0.0859915
1.116                  -0.842643      -0.0860233
1.117                  -0.843426      -0.0860249
1.118                  -0.844213      -0.0859968
1.119                  -0.845002      -0.0859396
1.12                   -0.845792      -0.0858544
1.121                  -0.846583      -0.0857418
1.122                  -0.847372       -0.085603
1.123                   -0.84816      -0.0854389
1.124                  -0.848945      -0.0852505
1.125                  -0.849727      -0.0850386
1.126                  -0.850506      -0.0848042
1.127                   -0.85128      -0.0845485
1.128                   -0.85205      -0.0842722
1.129                  -0.852814      -0.0839764
1.13                   -0.853574      -0.0836619
1.131                  -0.854328      -0.0833299
1.132                  -0.855077      -0.0829806
1.133                   -0.85582      -0.0826153
1.134                  -0.856558      -0.0822347
1.135                   -0.85729      -0.0818397
1.136                  -0.858017      -0.0814304
1.137                  -0.858738      -0.0810078
1.138                  -0.859455      -0.0805727
1.139                  -0.860167      -0.0801253
1.14                   -0.860875       -0.079666
1.141                  -0.861578      -0.0791952
1.142                  -0.862277      -0.0787135
1.143                  -0.862972      -0.0782209
1.144                  -0.863664      -0.0777178
1.145                  -0.864353      -0.0772043
1.146                  -0.865039      -0.0766806
1.147                  -0.865722      -0.0761468
1.148                  -0.866403      -0.0756026
1.149                  -0.867082      -0.0750483
1.15                   -0.867758      -0.0744838
1.151                  -0.868433      -0.0739091
1.152                  -0.869106       -0.073324
1.153                  -0.869778      -0.0727283
1.154                  -0.870448      -0.0721219
1.155                  -0.871116      -0.0715046
1.156                  -0.871783      -0.0708763
1.157                  -0.872449      -0.0702365
1.158                  -0.873112      -0.0695855
1.159                  -0.873774      -0.0689226
1.16                   -0.874434      -0.0682478
1.161                  -0.875092      -0.0675609
1.162                  -0.875747      -0.0668618
1.163                    -0.8764      -0.0661501
1.164                   -0.87705      -0.0654258
1.165                  -0.877696      -0.0646886
1.166                  -0.878339      -0.0639387
1.167                  -0.878978      -0.0631757
1.168                  -0.879612      -0.0623998
1.169                  -0.880242      -0.0616108
1.17                   -0.880866      -0.0608088
1.171                  -0.881485      -0.0599936
1.172                  -0.882098      -0.0591655
1.173                  -0.882704      -0.0583249
1.174                  -0.883303      -0.0574714
1.175                  -0.883894      -0.0566055
1.176                  -0.884478      -0.0557272
1.177                  -0.885054      -0.0548368
1.178                   -0.88562      -0.0539348
1.179                  -0.886178      -0.0530211
1.18                   -0.886726      -0.0520965
1.181                  -0.887265      -0.0511609
1.182                  -0.887793      -0.0502151
1.183                  -0.888311      -0.0492594
1.184                  -0.888818      -0.0482937
1.185                  -0.889315      -0.0473189
1.186                    -0.8898      -0.0463357
1.187                  -0.890274      -0.0453439
1.188                  -0.890737      -0.0443443
1.189                  -0.891188      -0.0433375
1.19                   -0.891627       -0.042324
1.191                  -0.892055      -0.0413036
1.192                  -0.892471      -0.0402776
1.193                  -0.892875       -0.039246
1.194                  -0.893268      -0.0382091
1.195                   -0.89365      -0.0371676
1.196                   -0.89402      -0.0361218
1.197                  -0.894379       -0.035072
1.198                  -0.894726      -0.0340189
1.199                  -0.895063      -0.0329625
1.2                    -0.895389      -0.0319029
1.201                  -0.895704       -0.030841
1.202                  -0.896009      -0.0297766
1.203                  -0.896304      -0.0287099
1.204                  -0.896589      -0.0276414
1.205                  -0.896864       -0.026571
1.206                   -0.89713      -0.0254992
1.207                  -0.897387      -0.0244255
1.208                  -0.897635      -0.0233506
1.209                  -0.897874      -0.0222741
1.21                   -0.898104      -0.0211965
1.211                  -0.898327      -0.0201174
1.212                  -0.898541      -0.0190369
1.213                  -0.898747      -0.0179551
1.214                  -0.898945      -0.0168719
1.215                  -0.899136      -0.0157869
1.216                  -0.899319      -0.0147005
1.217                  -0.899495      -0.0136124
1.218                  -0.899663      -0.0125225
1.219                  -0.899823      -0.0114306
1.22                   -0.899976      -0.0103368
1.221                  -0.900122      -0.0092407
1.222                   -0.90026     -0.00814238
1.223                  -0.900391     -0.00704162
1.224                  -0.900514     -0.00593867
1.225                  -0.900629     -0.00483294
1.226                  -0.900737     -0.00372423
1.227                  -0.900836     -0.00261319
1.228                  -0.900927     -0.00149944
1.229                  -0.901009    -0.000382596
1.23                   -0.901083     0.000736912
1.231                  -0.901148      0.00185905
1.232                  -0.901204       0.0029842
1.233                   -0.90125      0.00411213
1.234                  -0.901287      0.00524259
1.235                  -0.901314      0.00637576
1.236                  -0.901331      0.00751099
1.237                  -0.901337      0.00864885
1.238                  -0.901332      0.00978829
1.239                  -0.901317       0.0109301
1.24                    -0.90129       0.0120731
1.241                  -0.901252       0.0132174
1.242                  -0.901202       0.0143632
1.243                   -0.90114       0.0155094
1.244                  -0.901066       0.0166561
1.245                   -0.90098       0.0178029
1.246                  -0.900882       0.0189495
1.247                  -0.900771       0.0200951
1.248                  -0.900648       0.0212401
1.249                  -0.900511       0.0223832
1.25                   -0.900363       0.0235248
1.251                  -0.900201       0.0246638
1.252                  -0.900026       0.0258003
1.253                  -0.899839       0.0269335
1.254                  -0.899639       0.0280634
1.255                  -0.899427       0.0291889
1.256                  -0.899202       0.0303103
1.257                  -0.898965       0.0314266
1.258                  -0.898715       0.0325379
1.259                  -0.898454       0.0336436
1.26                   -0.898181       0.0347433
1.261                  -0.897896       0.0358367
1.262                    -0.8976       0.0369234
1.263                  -0.897292       0.0380032
1.264                  -0.896974       0.0390759
1.265                  -0.896646       0.0401411
1.266                  -0.896307       0.0411982
1.267                  -0.895958       0.0422476
1.268                    -0.8956       0.0432887
1.269                  -0.895233       0.0443213
1.27                   -0.894856       0.0453457
1.271                  -0.894471       0.0463611
1.272                  -0.894078       0.0473679
1.273                  -0.893677       0.0483658
1.274                  -0.893268       0.0493547
1.275                  -0.892851       0.0503347
1.276                  -0.892428       0.0513057
1.277                  -0.891997       0.0522676
1.278                   -0.89156       0.0532207
1.279                  -0.891117       0.0541645
1.28                   -0.890667       0.0550996
1.281                  -0.890211       0.0560258
1.282                   -0.88975       0.0569429
1.283                  -0.889283       0.0578512
1.284                  -0.888811       0.0587504
1.285                  -0.888333       0.0596414
1.286                   -0.88785       0.0605232
1.287                  -0.887362       0.0613967
1.288                  -0.886869       0.0622614
1.289                   -0.88637       0.0631174
1.29                   -0.885867        0.063965
1.291                  -0.885359       0.0648039
1.292                  -0.884846       0.0656341
1.293                  -0.884328       0.0664557
1.294                  -0.883805       0.0672686
1.295                  -0.883278       0.0680727
1.296                  -0.882745       0.0688678
1.297                  -0.882208        0.069654
1.298                  -0.881665       0.0704312
1.299                  -0.881118        0.071199
1.3                    -0.880565       0.0719575
1.301                  -0.880008       0.0727064
1.302                  -0.879446       0.0734453
1.303                  -0.878879       0.0741743
1.304                  -0.878307       0.0748928
1.305                   -0.87773       0.0756008
1.306                  -0.877149       0.0762979
1.307                  -0.876563       0.0769838
1.308                  -0.875973       0.0776582
1.309                  -0.875379       0.0783209
1.31                   -0.874781       0.0789714
1.311                  -0.874179       0.0796094
1.312                  -0.873573       0.0802345
1.313                  -0.872964       0.0808468
1.314                  -0.872353       0.0814452
1.315                  -0.871739       0.0820301
1.316                  -0.871122       0.0826012
1.317                  -0.870504       0.0831576
1.318                  -0.869885       0.0836994
1.319                  -0.869265       0.0842261
1.32                   -0.868645       0.0847383
1.321                  -0.868025       0.0852345
1.322                  -0.867405       0.0857156
1.323                  -0.866788       0.0861809
1.324                  -0.866172       0.0866304
1.325                  -0.865559       0.0870642
1.326                   -0.86495       0.0874819
1.327                  -0.864345       0.0878837
1.328                  -0.863744       0.0882699
1.329                  -0.863149       0.0886404
1.33                    -0.86256       0.0889951
1.331                  -0.861977       0.0893342
1.332                  -0.861403       0.0896584
1.333                  -0.860836       0.0899677
1.334                  -0.860278       0.0902623
1.335                   -0.85973       0.0905427
1.336                  -0.859192       0.0908092
1.337                  -0.858665       0.0910624
1.338                  -0.858149       0.0913025
1.339                  -0.857645       0.0915306
1.34                   -0.857154       0.0917466
1.341                  -0.856676       0.0919518
1.342                  -0.856211        0.092146
1.343                   -0.85576        0.092331
1.344                  -0.855323       0.0925064
1.345                  -0.854901       0.0926734
1.346                  -0.854494        0.092833
1.347                  -0.854102       0.0929857
1.348                  -0.853725       0.0931321
1.349                  -0.853364       0.0932734
1.35                   -0.853018       0.0934099
1.351                  -0.852688       0.0935431
1.352                  -0.852373       0.0936732
1.353                  -0.852073       0.0938009
1.354                  -0.851789       0.0939275
1.355                   -0.85152       0.0940533
1.356                  -0.851266       0.0941793
1.357                  -0.851027        0.094306
1.358                  -0.850802       0.0944345
1.359                  -0.850591       0.0945649
1.36                   -0.850393       0.0946982
1.361                  -0.850208       0.0948352
1.362                  -0.850037       0.0949756
1.363                  -0.849877       0.0951207
1.364                  -0.849729       0.0952706
1.365                  -0.849591       0.0954262
1.366                  -0.849465        0.095587
1.367                  -0.849348       0.0957542
1.368                   -0.84924       0.0959275
1.369                  -0.849141       0.0961072
1.37                    -0.84905       0.0962937
1.371                  -0.848967       0.0964871
1.372                   -0.84889       0.0966875
1.373                   -0.84882       0.0968944
1.374                  -0.848755       0.0971085
1.375                  -0.848695       0.0973294
1.376                   -0.84864       0.0975568
1.377                  -0.848589       0.0977912
1.378                  -0.848541       0.0980317
1.379                  -0.848496       0.0982783
1.38                   -0.848454        0.098531
1.381                  -0.848415       0.0987892
1.382                  -0.848376       0.0990528
1.383                   -0.84834       0.0993214
1.384                  -0.848305       0.0995944
1.385                   -0.84827       0.0998719
1.386                  -0.848237        0.100153
1.387                  -0.848204        0.100438
1.388                  -0.848172        0.100726
1.389                   -0.84814        0.101017
1.39                   -0.848109         0.10131
1.391                  -0.848078        0.101605
1.392                  -0.848047        0.101902
1.393                  -0.848017          0.1022
1.394                  -0.847988        0.102499
1.395                   -0.84796        0.102799
1.396                  -0.847933        0.103099
1.397                  -0.847907          0.1034
1.398                  -0.847883          0.1037
1.399                   -0.84786           0.104
1.4                     -0.84784        0.104299
1.401                  -0.847822        0.104599
1.402                  -0.847806        0.104897
1.403                  -0.847794        0.105195
1.404                  -0.847785        0.105492
1.405                   -0.84778        0.105789
1.406                  -0.847778        0.106085
1.407                  -0.847781        0.106381
1.408                  -0.847789        0.106676
1.409                  -0.847802        0.106972
1.41                    -0.84782        0.107267
1.411                  -0.847843        0.107563
1.412                  -0.847872        0.107859
1.413                  -0.847908        0.108157
1.414                  -0.847949        0.108456
1.415                  -0.847996        0.108756
1.416                   -0.84805        0.109058
1.417                  -0.848111        0.109363
1.418                  -0.848178        0.109671
1.419                  -0.848252        0.109982
1.42                   -0.848332        0.110297
1.421                  -0.848419        0.110615
1.422                  -0.848512        0.110938
1.423                  -0.848612        0.111266
1.424                  -0.848718        0.111599
1.425                   -0.84883        0.111939
1.426                  -0.848947        0.112284
1.427                   -0.84907        0.112635
1.428                  -0.849199        0.112994
1.429                  -0.849332        0.113359
1.43                   -0.849469        0.113732
1.431                  -0.849611        0.114113
1.432                  -0.849757        0.114501
1.433                  -0.849906        0.114898
1.434                  -0.850058        0.115303
1.435                  -0.850212        0.115717
1.436                  -0.850368        0.116139
1.437                  -0.850526         0.11657
1.438                  -0.850685        0.117009
1.439                  -0.850844        0.117457
1.44                   -0.851004        0.117914
1.441                  -0.851163         0.11838
1.442                  -0.851322        0.118853
1.443                  -0.851479        0.119335
1.444                  -0.851636        0.119826
1.445                   -0.85179        0.120324
1.446                  -0.851941        0.120829
1.447                   -0.85209        0.121342
1.448                  -0.852236        0.121863
1.449                  -0.852379         0.12239
1.45                   -0.852518        0.122924
1.451                  -0.852654        0.123463
1.452                  -0.852786        0.124009
1.453                  -0.852913         0.12456
1.454                  -0.853037        0.125116
1.455                  -0.853155        0.125677
1.456                   -0.85327        0.126242
1.457                   -0.85338        0.126811
1.458                  -0.853486        0.127384
1.459                  -0.853588        0.127959
1.46                   -0.853685        0.128538
1.461                  -0.853778         0.12912
1.462                  -0.853867        0.129703
1.463                  -0.853953        0.130289
1.464                  -0.854034        0.130877
1.465                  -0.854113        0.131466
1.466                  -0.854188        0.132056
1.467                   -0.85426        0.132647
1.468                  -0.854329         0.13324
1.469                  -0.854396        0.133833
1.47                   -0.854461        0.134428
1.471                  -0.854523        0.135023
1.472                  -0.854585        0.135619
1.473                  -0.854644        0.136215
1.474                  -0.854703        0.136813
1.475                  -0.854761        0.137411
1.476                  -0.854818        0.138011
1.477                  -0.854875        0.138611
1.478                  -0.854932        0.139213
1.479                  -0.854988        0.139817
1.48                   -0.855045        0.140422
1.481                  -0.855103        0.141029
1.482                   -0.85516        0.141639
1.483                  -0.855219        0.142251
1.484                  -0.855278        0.142866
1.485                  -0.855337        0.143484
1.486                  -0.855397        0.144106
1.487                  -0.855458        0.144731
1.488                  -0.855519        0.145361
1.489                  -0.855581        0.145994
1.49                   -0.855643        0.146633
1.491                  -0.855705        0.147276
1.492                  -0.855767        0.147925
1.493                  -0.855829        0.148579
1.494                   -0.85589        0.149239
1.495                   -0.85595        0.149905
1.496                  -0.856009        0.150577
1.497                  -0.856066        0.151256
1.498                  -0.856121        0.151941
1.499                  -0.856175        0.152632
1.5                    -0.856225        0.153331
1.501                  -0.856273        0.154036
1.502                  -0.856317        0.154748
1.503                  -0.856357        0.155467
1.504                  -0.856393        0.156193
1.505                  -0.856424        0.156925
1.506                   -0.85645        0.157663
1.507                   -0.85647        0.158409
1.508                  -0.856485         0.15916
1.509                  -0.856493        0.159918
1.51                   -0.856495        0.160681
1.511                  -0.856489         0.16145
1.512                  -0.856476        0.162224
1.513                  -0.856456        0.163003
1.514                  -0.856427        0.163786
1.515                   -0.85639        0.164574
1.516                  -0.856345        0.165365
1.517                  -0.856292         0.16616
1.518                  -0.856229        0.166957
1.519                  -0.856158        0.167758
1.52                   -0.856078         0.16856
1.521                  -0.855988        0.169364
1.522                   -0.85589        0.170169
1.523                  -0.855783        0.170974
1.524                  -0.855667        0.171781
1.525                  -0.855542        0.172587
1.526                  -0.855408        0.173392
1.527                  -0.855265        0.174197
1.528                  -0.855115        0.175001
1.529                  -0.854956        0.175802
1.53                   -0.854789        0.176603
1.531                  -0.854614        0.177401
1.532                  -0.854432        0.178196
1.533                  -0.854243        0.178988
1.534                  -0.854047        0.179778
1.535                  -0.853845        0.180565
1.536                  -0.853637        0.181348
1.537                  -0.853422        0.182128
1.538                  -0.853202        0.182905
1.539                  -0.852977        0.183679
1.54                   -0.852747        0.184449
1.541                  -0.852513        0.185215
1.542                  -0.852274        0.185978
1.543                  -0.852032        0.186738
1.544                  -0.851786        0.187494
1.545                  -0.851536        0.188248
1.546                  -0.851283        0.188999
1.547                  -0.851028        0.189747
1.548                  -0.850769        0.190493
1.549                  -0.850508        0.191236
1.55                   -0.850245        0.191978
1.551                  -0.849979        0.192718
1.552                   -0.84971        0.193456
1.553                  -0.849439        0.194193
1.554                  -0.849167        0.194929
1.555                  -0.848891        0.195665
1.556                  -0.848613        0.196401
1.557                  -0.848333        0.197136
1.558                   -0.84805        0.197871
1.559                  -0.847763        0.198607
1.56                   -0.847474        0.199343
1.561                  -0.847182         0.20008
1.562                  -0.846885        0.200818
1.563                  -0.846585        0.201557
1.564                  -0.846281        0.202297
1.565                  -0.845972        0.203039
1.566                  -0.845658        0.203782
1.567                  -0.845339        0.204526
1.568                  -0.845014        0.205271
1.569                  -0.844683        0.206018
1.57                   -0.844346        0.206765
1.571                  -0.844002        0.207514
1.572                  -0.843651        0.208263
1.573                  -0.843292        0.209013
1.574                  -0.842925        0.209763
1.575                  -0.842551        0.210514
1.576                  -0.842168        0.211263
1.577                  -0.841776        0.212013
1.578                  -0.841374        0.212761
1.579                  -0.840964        0.213508
1.58                   -0.840544        0.214253
1.581                  -0.840114        0.214995
1.582                  -0.839675        0.215735
1.583                  -0.839225        0.216472
1.584                  -0.838766        0.217204
1.585                  -0.838296        0.217932
1.586                  -0.837816        0.218655
1.587                  -0.837327        0.219373
1.588                  -0.836827        0.220085
1.589                  -0.836317        0.220789
1.59                   -0.835798        0.221487
1.591                   -0.83527        0.222178
1.592                  -0.834732        0.222859
1.593                  -0.834186        0.223533
1.594                  -0.833631        0.224197
1.595                  -0.833067        0.224852
1.596                  -0.832497        0.225496
1.597                  -0.831918        0.226131
1.598                  -0.831333        0.226754
1.599                  -0.830742        0.227367
1.6                    -0.830144        0.227968
1.601                  -0.829541        0.228557
1.602                  -0.828934        0.229135
1.603                  -0.828322        0.229701
1.604                  -0.827706        0.230254
1.605                  -0.827088        0.230795
1.606                  -0.826466        0.231325
1.607                  -0.825843        0.231841
1.608                  -0.825218        0.232346
1.609                  -0.824592        0.232838
1.61                   -0.823965        0.233319
1.611                  -0.823339        0.233787
1.612                  -0.822713        0.234244
1.613                  -0.822089        0.234689
1.614                  -0.821465        0.235123
1.615                  -0.820844        0.235546
1.616                  -0.820224        0.235958
1.617                  -0.819608         0.23636
1.618                  -0.818994        0.236751
1.619                  -0.818383        0.237134
1.62                   -0.817776        0.237506
1.621                  -0.817172         0.23787
1.622                  -0.816572        0.238225
1.623                  -0.815975        0.238572
1.624                  -0.815383        0.238911
1.625                  -0.814795        0.239243
1.626                   -0.81421        0.239567
1.627                   -0.81363        0.239885
1.628                  -0.813054        0.240195
1.629                  -0.812481          0.2405
1.63                   -0.811912        0.240799
1.631                  -0.811347        0.241092
1.632                  -0.810786         0.24138
1.633                  -0.810227        0.241662
1.634                  -0.809672        0.241939
1.635                   -0.80912         0.24221
1.636                   -0.80857        0.242477
1.637                  -0.808023        0.242739
1.638                  -0.807479        0.242997
1.639                  -0.806936        0.243249
1.64                   -0.806396        0.243495
1.641                  -0.805858        0.243738
1.642                  -0.805321        0.243974
1.643                  -0.804785        0.244206
1.644                  -0.804251        0.244432
1.645                  -0.803718        0.244652
1.646                  -0.803186        0.244867
1.647                  -0.802656        0.245075
1.648                  -0.802127        0.245276
1.649                  -0.801598        0.245471
1.65                   -0.801071        0.245659
1.651                  -0.800546         0.24584
1.652                  -0.800021        0.246012
1.653                  -0.799499        0.246177
1.654                  -0.798978        0.246334
1.655                   -0.79846        0.246482
1.656                  -0.797943        0.246621
1.657                   -0.79743        0.246751
1.658                   -0.79692        0.246872
1.659                  -0.796413        0.246983
1.66                    -0.79591        0.247084
1.661                  -0.795412        0.247176
1.662                  -0.794918        0.247257
1.663                   -0.79443        0.247328
1.664                  -0.793948         0.24739
1.665                  -0.793473         0.24744
1.666                  -0.793005        0.247481
1.667                  -0.792544        0.247512
1.668                  -0.792093        0.247533
1.669                  -0.791649        0.247544
1.67                   -0.791216        0.247546
1.671                  -0.790793        0.247538
1.672                   -0.79038        0.247522
1.673                  -0.789979        0.247497
1.674                   -0.78959        0.247464
1.675                  -0.789213        0.247424
1.676                  -0.788849        0.247376
1.677                  -0.788499        0.247322
1.678                  -0.788162        0.247263
1.679                  -0.787839        0.247198
1.68                   -0.787531        0.247128
1.681                  -0.787238        0.247055
1.682                   -0.78696        0.246979
1.683                  -0.786697          0.2469
1.684                  -0.786449         0.24682
1.685                  -0.786217        0.246739
1.686                  -0.786001        0.246658
1.687                  -0.785799        0.246578
1.688                  -0.785614          0.2465
1.689                  -0.785443        0.246424
1.69                   -0.785287        0.246352
1.691                  -0.785147        0.246284
1.692                   -0.78502         0.24622
1.693                  -0.784908        0.246162
1.694                  -0.784809         0.24611
1.695                  -0.784723        0.246065
1.696                   -0.78465        0.246028
1.697                  -0.784589        0.245998
1.698                  -0.784539        0.245977
1.699                    -0.7845        0.245965
1.7                    -0.784471        0.245963
1.701                  -0.784451        0.245971
1.702                  -0.784441        0.245988
1.703                  -0.784438        0.246017
1.704                  -0.784442        0.246055
1.705                  -0.784453        0.246105
1.706                  -0.784469        0.246165
1.707                  -0.784491        0.246236
1.708                  -0.784516        0.246318
1.709                  -0.784545        0.246411
1.71                   -0.784577        0.246514
1.711                  -0.784611        0.246628
1.712                  -0.784646        0.246752
1.713                  -0.784683        0.246885
1.714                  -0.784719        0.247028
1.715                  -0.784755         0.24718
1.716                  -0.784791        0.247341
1.717                  -0.784825        0.247509
1.718                  -0.784858        0.247685
1.719                  -0.784889        0.247868
1.72                   -0.784917        0.248058
1.721                  -0.784944        0.248254
1.722                  -0.784967        0.248455
1.723                  -0.784988        0.248661
1.724                  -0.785006        0.248872
1.725                  -0.785021        0.249086
1.726                  -0.785034        0.249303
1.727                  -0.785044        0.249523
1.728                  -0.785052        0.249745
1.729                  -0.785057        0.249969
1.73                    -0.78506        0.250194
1.731                  -0.785062         0.25042
1.732                  -0.785063        0.250646
1.733                  -0.785062        0.250873
1.734                  -0.785061        0.251099
1.735                   -0.78506        0.251325
1.736                  -0.785058         0.25155
1.737                  -0.785058        0.251775
1.738                  -0.785059        0.251999
1.739                  -0.785062        0.252222
1.74                   -0.785067        0.252445
1.741                  -0.785075        0.252667
1.742                  -0.785086        0.252888
1.743                    -0.7851        0.253109
1.744                  -0.785118         0.25333
1.745                  -0.785141        0.253552
1.746                  -0.785169        0.253774
1.747                  -0.785202        0.253996
1.748                   -0.78524        0.254221
1.749                  -0.785284        0.254447
1.75                   -0.785334        0.254675
1.751                   -0.78539        0.254906
1.752                  -0.785452        0.255141
1.753                   -0.78552        0.255379
1.754                  -0.785595        0.255622
1.755                  -0.785676         0.25587
1.756                  -0.785762        0.256124
1.757                  -0.785855        0.256384
1.758                  -0.785954        0.256651
1.759                  -0.786058        0.256925
1.76                   -0.786167        0.257207
1.761                  -0.786281        0.257497
1.762                  -0.786399        0.257796
1.763                  -0.786521        0.258105
1.764                  -0.786646        0.258423
1.765                  -0.786774        0.258751
1.766                  -0.786904        0.259089
1.767                  -0.787035        0.259438
1.768                  -0.787168        0.259798
1.769                  -0.787301        0.260169
1.77                   -0.787433         0.26055
1.771                  -0.787564        0.260943
1.772                  -0.787693        0.261347
1.773                   -0.78782        0.261761
1.774                  -0.787943        0.262187
1.775                  -0.788062        0.262622
1.776                  -0.788177        0.263068
1.777                  -0.788286        0.263525
1.778                   -0.78839         0.26399
1.779                  -0.788487        0.264465
1.78                   -0.788577        0.264948
1.781                   -0.78866         0.26544
1.782                  -0.788734        0.265938
1.783                  -0.788801        0.266444
1.784                  -0.788858        0.266957
1.785                  -0.788907        0.267474
1.786                  -0.788947        0.267997
1.787                  -0.788977        0.268524
1.788                  -0.788997        0.269055
1.789                  -0.789009        0.269587
1.79                    -0.78901        0.270123
1.791                  -0.789003        0.270659
1.792                  -0.788986        0.271197
1.793                   -0.78896        0.271734
1.794                  -0.788925        0.272271
1.795                  -0.788882        0.272806
1.796                  -0.788831        0.273339
1.797                  -0.788772         0.27387
1.798                  -0.788706        0.274398
1.799                  -0.788634        0.274923
1.8                    -0.788555        0.275443
1.801                  -0.788471         0.27596
1.802                  -0.788382        0.276473
1.803                  -0.788289         0.27698
1.804                  -0.788193        0.277483
1.805                  -0.788093        0.277981
1.806                  -0.787992        0.278474
1.807                  -0.787889        0.278962
1.808                  -0.787785        0.279446
1.809                  -0.787681        0.279925
1.81                   -0.787578        0.280399
1.811                  -0.787475         0.28087
1.812                  -0.787374        0.281337
1.813                  -0.787275          0.2818
1.814                  -0.787179        0.282261
1.815                  -0.787085         0.28272
1.816                  -0.786995        0.283176
1.817                  -0.786909        0.283632
1.818                  -0.786827        0.284087
1.819                  -0.786749        0.284542
1.82                   -0.786675        0.284998
1.821                  -0.786606        0.285455
1.822                  -0.786541        0.285915
1.823                  -0.786481        0.286377
1.824                  -0.786424        0.286843
1.825                  -0.786372        0.287313
1.826                  -0.786323        0.287788
1.827                  -0.786278        0.288268
1.828                  -0.786236        0.288755
1.829                  -0.786196        0.289248
1.83                   -0.786158        0.289748
1.831                  -0.786121        0.290257
1.832                  -0.786085        0.290773
1.833                  -0.786049        0.291297
1.834                  -0.786013        0.291831
1.835                  -0.785975        0.292373
1.836                  -0.785935        0.292924
1.837                  -0.785892        0.293485
1.838                  -0.785845        0.294055
1.839                  -0.785794        0.294634
1.84                   -0.785737        0.295222
1.841                  -0.785675        0.295819
1.842                  -0.785605        0.296425
1.843                  -0.785528        0.297039
1.844                  -0.785442        0.297661
1.845                  -0.785347         0.29829
1.846                  -0.785242        0.298926
1.847                  -0.785127        0.299568
1.848                  -0.785001        0.300215
1.849                  -0.784864        0.300868
1.85                   -0.784714        0.301525
1.851                  -0.784553        0.302184
1.852                  -0.784379        0.302846
1.853                  -0.784192         0.30351
1.854                  -0.783992        0.304175
1.855                  -0.783779        0.304839
1.856                  -0.783553        0.305502
1.857                  -0.783314        0.306163
1.858                  -0.783063        0.306821
1.859                  -0.782799        0.307475
1.86                   -0.782523        0.308125
1.861                  -0.782235        0.308769
1.862                  -0.781935        0.309407
1.863                  -0.781625        0.310037
1.864                  -0.781305         0.31066
1.865                  -0.780975        0.311275
1.866                  -0.780637        0.311881
1.867                   -0.78029        0.312477
1.868                  -0.779936        0.313064
1.869                  -0.779576         0.31364
1.87                    -0.77921        0.314206
1.871                   -0.77884        0.314761
1.872                  -0.778465        0.315305
1.873                  -0.778088        0.315839
1.874                  -0.777709        0.316361
1.875                  -0.777329        0.316873
1.876                  -0.776949        0.317374
1.877                  -0.776569        0.317866
1.878                  -0.776191        0.318347
1.879                  -0.775815        0.318819
1.88                   -0.775443        0.319282
1.881                  -0.775074        0.319736
1.882                  -0.774709        0.320183
1.883                  -0.774349        0.320623
1.884                  -0.773994        0.321057
1.885                  -0.773646        0.321485
1.886                  -0.773303        0.321909
1.887                  -0.772967        0.322328
1.888                  -0.772637        0.322745
1.889                  -0.772314         0.32316
1.89                   -0.771997        0.323574
1.891                  -0.771687        0.323987
1.892                  -0.771383        0.324402
1.893                  -0.771086        0.324817
1.894                  -0.770794        0.325235
1.895                  -0.770507        0.325656
1.896                  -0.770225        0.326081
1.897                  -0.769947         0.32651
1.898                  -0.769672        0.326944
1.899                  -0.769401        0.327384
1.9                    -0.769131        0.327831
1.901                  -0.768863        0.328284
1.902                  -0.768595        0.328743
1.903                  -0.768326         0.32921
1.904                  -0.768056        0.329685
1.905                  -0.767783        0.330166
1.906                  -0.767507        0.330656
1.907                  -0.767226        0.331152
1.908                  -0.766941        0.331656
1.909                  -0.766649        0.332166
1.91                   -0.766349        0.332683
1.911                  -0.766042        0.333205
1.912                  -0.765726        0.333733
1.913                    -0.7654        0.334266
1.914                  -0.765064        0.334802
1.915                  -0.764717        0.335342
1.916                  -0.764358        0.335884
1.917                  -0.763987        0.336428
1.918                  -0.763604        0.336972
1.919                  -0.763207        0.337515
1.92                   -0.762797        0.338056
1.921                  -0.762375        0.338595
1.922                  -0.761938         0.33913
1.923                  -0.761489         0.33966
1.924                  -0.761026        0.340184
1.925                   -0.76055        0.340701
1.926                  -0.760062        0.341209
1.927                  -0.759561        0.341708
1.928                   -0.75905        0.342197
1.929                  -0.758527        0.342674
1.93                   -0.757994        0.343139
1.931                  -0.757451        0.343591
1.932                    -0.7569        0.344029
1.933                  -0.756342        0.344453
1.934                  -0.755776        0.344861
1.935                  -0.755206        0.345254
1.936                  -0.754631         0.34563
1.937                  -0.754053         0.34599
1.938                  -0.753473        0.346333
1.939                  -0.752892        0.346659
1.94                   -0.752312        0.346968
1.941                  -0.751733         0.34726
1.942                  -0.751158        0.347536
1.943                  -0.750586        0.347795
1.944                   -0.75002        0.348038
1.945                   -0.74946        0.348266
1.946                  -0.748908        0.348479
1.947                  -0.748364        0.348677
1.948                   -0.74783        0.348862
1.949                  -0.747306        0.349035
1.95                   -0.746794        0.349197
1.951                  -0.746293        0.349347
1.952                  -0.745804        0.349489
1.953                  -0.745329        0.349622
1.954                  -0.744867        0.349747
1.955                  -0.744419        0.349867
1.956                  -0.743985        0.349982
1.957                  -0.743564        0.350094
1.958                  -0.743158        0.350203
1.959                  -0.742766        0.350311
1.96                   -0.742387        0.350419
1.961                  -0.742021        0.350528
1.962                  -0.741669         0.35064
1.963                  -0.741328        0.350756
1.964                  -0.740999        0.350875
1.965                   -0.74068           0.351
1.966                  -0.740371        0.351132
1.967                  -0.740071         0.35127
1.968                  -0.739779        0.351416
1.969                  -0.739494        0.351571
1.97                   -0.739215        0.351734
1.971                   -0.73894        0.351907
1.972                  -0.738669        0.352089
1.973                    -0.7384         0.35228
1.974                  -0.738132         0.35248
1.975                  -0.737864         0.35269
1.976                  -0.737594         0.35291
1.977                  -0.737322        0.353138
1.978                  -0.737046        0.353374
1.979                  -0.736765        0.353618
1.98                   -0.736479         0.35387
1.981                  -0.736186        0.354128
1.982                  -0.735885        0.354391
1.983                  -0.735576        0.354658
1.984                  -0.735258         0.35493
1.985                   -0.73493        0.355203
1.986                  -0.734592        0.355478
1.987                  -0.734243        0.355752
1.988                  -0.733884        0.356026
1.989                  -0.733514        0.356296
1.99                   -0.733133        0.356563
1.991                  -0.732741        0.356825
1.992                  -0.732338         0.35708
1.993                  -0.731926        0.357327
1.994                  -0.731504        0.357565
1.995                  -0.731073        0.357793
1.996                  -0.730634         0.35801
1.997                  -0.730188        0.358214
1.998                  -0.729735        0.358405
1.999                  -0.729277        0.358581
2                      -0.728815        0.358742
