! TOUCHSTONE file generated by CST MICROWAVE STUDIO
! Date and time: Sun Aug  2 21:23:19 2026
! Project name: Sonda-Coaxial_21mm_DisifixB_v2_Agua_Dest.cst
! Parameters = {h_recipiente=20; l_conector=5; r_arandela=35; r_ext=10.5; r_int=3; r_recipiente=50; z_recipiente=-25}
! Header version: 2018
! Port assignment regex: !\s*Touchstone port\s*([0-9]+)\s*=\s*(CST MWS port|CST DS port)\s*([0-9]+|Zmin|Zmax)\s*\(\"(.*)\"\)(\s*mode\s*([0-9]+))?.*
! Touchstone port assignment:
! Touchstone port 1 = CST MWS port 1 ("")
# GHz S RI R 50
0.001                   0.972281     -0.00327973
0.002                   0.972293      -0.0065579
0.003                   0.972312     -0.00983297
0.004                   0.972338      -0.0131034
0.005                   0.972371      -0.0163678
0.006                    0.97241      -0.0196248
0.007                   0.972455      -0.0228731
0.008                   0.972503      -0.0261114
0.009                   0.972555      -0.0293387
0.01                     0.97261       -0.032554
0.011                   0.972666      -0.0357565
0.012                   0.972722      -0.0389454
0.013                   0.972778      -0.0421201
0.014                   0.972831      -0.0452802
0.015                   0.972881      -0.0484251
0.016                   0.972927      -0.0515548
0.017                   0.972967       -0.054669
0.018                   0.973001      -0.0577677
0.019                   0.973028      -0.0608509
0.02                    0.973046      -0.0639187
0.021                   0.973054      -0.0669712
0.022                   0.973052      -0.0700088
0.023                   0.973039      -0.0730317
0.024                   0.973014      -0.0760403
0.025                   0.972976       -0.079035
0.026                   0.972926       -0.082016
0.027                   0.972861      -0.0849839
0.028                   0.972783      -0.0879392
0.029                   0.972689      -0.0908821
0.03                    0.972581      -0.0938133
0.031                   0.972458      -0.0967331
0.032                   0.972318       -0.099642
0.033                   0.972163        -0.10254
0.034                   0.971992       -0.105429
0.035                   0.971805       -0.108308
0.036                   0.971602       -0.111177
0.037                   0.971382       -0.114038
0.038                   0.971145        -0.11689
0.039                   0.970893       -0.119734
0.04                    0.970623        -0.12257
0.041                   0.970338       -0.125399
0.042                   0.970036       -0.128221
0.043                   0.969717       -0.131035
0.044                   0.969383       -0.133843
0.045                   0.969032       -0.136645
0.046                   0.968665        -0.13944
0.047                   0.968282        -0.14223
0.048                   0.967883       -0.145013
0.049                   0.967468       -0.147791
0.05                    0.967038       -0.150563
0.051                   0.966592        -0.15333
0.052                    0.96613       -0.156092
0.053                   0.965654       -0.158849
0.054                   0.965162         -0.1616
0.055                   0.964655       -0.164347
0.056                   0.964133       -0.167089
0.057                   0.963596       -0.169826
0.058                   0.963045       -0.172558
0.059                   0.962479       -0.175286
0.06                    0.961899       -0.178009
0.061                   0.961304       -0.180728
0.062                   0.960696       -0.183442
0.063                   0.960073       -0.186152
0.064                   0.959437       -0.188857
0.065                   0.958786       -0.191557
0.066                   0.958123       -0.194254
0.067                   0.957445       -0.196945
0.068                   0.956755       -0.199632
0.069                    0.95605       -0.202315
0.07                    0.955333       -0.204993
0.071                   0.954603       -0.207667
0.072                    0.95386       -0.210336
0.073                   0.953104       -0.213001
0.074                   0.952335       -0.215661
0.075                   0.951553       -0.218317
0.076                   0.950759       -0.220967
0.077                   0.949953       -0.223614
0.078                   0.949134       -0.226255
0.079                   0.948303       -0.228892
0.08                     0.94746       -0.231524
0.081                   0.946605       -0.234151
0.082                   0.945737       -0.236774
0.083                   0.944858       -0.239391
0.084                   0.943968       -0.242004
0.085                   0.943065       -0.244611
0.086                   0.942151       -0.247214
0.087                   0.941226       -0.249811
0.088                   0.940288       -0.252403
0.089                    0.93934       -0.254991
0.09                     0.93838       -0.257573
0.091                    0.93741       -0.260149
0.092                   0.936428       -0.262721
0.093                   0.935435       -0.265287
0.094                   0.934431       -0.267847
0.095                   0.933416       -0.270403
0.096                    0.93239       -0.272952
0.097                   0.931354       -0.275497
0.098                   0.930307       -0.278035
0.099                    0.92925       -0.280568
0.1                     0.928182       -0.283095
0.101                   0.927103       -0.285617
0.102                   0.926014       -0.288132
0.103                   0.924915       -0.290642
0.104                   0.923806       -0.293146
0.105                   0.922686       -0.295644
0.106                   0.921556       -0.298136
0.107                   0.920417       -0.300622
0.108                   0.919267       -0.303101
0.109                   0.918108       -0.305575
0.11                    0.916938       -0.308042
0.111                   0.915759       -0.310504
0.112                    0.91457       -0.312958
0.113                   0.913372       -0.315407
0.114                   0.912164       -0.317849
0.115                   0.910946       -0.320285
0.116                    0.90972       -0.322714
0.117                   0.908483       -0.325137
0.118                   0.907238       -0.327553
0.119                   0.905983       -0.329962
0.12                    0.904719       -0.332365
0.121                   0.903446       -0.334761
0.122                   0.902164        -0.33715
0.123                   0.900873       -0.339533
0.124                   0.899572       -0.341909
0.125                   0.898263       -0.344278
0.126                   0.896946       -0.346639
0.127                   0.895619       -0.348994
0.128                   0.894284       -0.351342
0.129                    0.89294       -0.353683
0.13                    0.891588       -0.356017
0.131                   0.890227       -0.358343
0.132                   0.888858       -0.360663
0.133                    0.88748       -0.362975
0.134                   0.886094        -0.36528
0.135                     0.8847       -0.367577
0.136                   0.883297       -0.369868
0.137                   0.881887       -0.372151
0.138                   0.880468       -0.374426
0.139                   0.879042       -0.376694
0.14                    0.877607       -0.378955
0.141                   0.876164       -0.381208
0.142                   0.874714       -0.383453
0.143                   0.873256       -0.385691
0.144                    0.87179       -0.387922
0.145                   0.870317       -0.390144
0.146                   0.868836       -0.392359
0.147                   0.867347       -0.394566
0.148                   0.865851       -0.396765
0.149                   0.864347       -0.398957
0.15                    0.862837       -0.401141
0.151                   0.861319       -0.403317
0.152                   0.859793       -0.405485
0.153                   0.858261       -0.407645
0.154                   0.856721       -0.409797
0.155                   0.855174       -0.411941
0.156                   0.853621       -0.414078
0.157                    0.85206       -0.416206
0.158                   0.850492       -0.418325
0.159                   0.848918       -0.420438
0.16                    0.847337       -0.422541
0.161                   0.845749       -0.424637
0.162                   0.844154       -0.426725
0.163                   0.842554       -0.428804
0.164                   0.840946       -0.430875
0.165                   0.839332       -0.432938
0.166                   0.837711       -0.434993
0.167                   0.836084       -0.437039
0.168                   0.834451       -0.439077
0.169                   0.832812       -0.441107
0.17                    0.831166       -0.443128
0.171                   0.829515       -0.445141
0.172                   0.827857       -0.447145
0.173                   0.826193       -0.449141
0.174                   0.824523       -0.451129
0.175                   0.822848       -0.453108
0.176                   0.821167       -0.455078
0.177                   0.819479        -0.45704
0.178                   0.817787       -0.458994
0.179                   0.816088       -0.460939
0.18                    0.814384       -0.462875
0.181                   0.812674       -0.464803
0.182                   0.810959       -0.466722
0.183                   0.809239       -0.468633
0.184                   0.807513       -0.470535
0.185                   0.805782       -0.472428
0.186                   0.804045       -0.474313
0.187                   0.802304       -0.476189
0.188                   0.800557       -0.478056
0.189                   0.798805       -0.479915
0.19                    0.797048       -0.481764
0.191                   0.795286       -0.483606
0.192                    0.79352       -0.485438
0.193                   0.791748       -0.487262
0.194                   0.789972       -0.489076
0.195                   0.788191       -0.490882
0.196                   0.786405        -0.49268
0.197                   0.784615       -0.494468
0.198                    0.78282       -0.496247
0.199                   0.781021       -0.498018
0.2                     0.779217        -0.49978
0.201                   0.777408       -0.501533
0.202                   0.775596       -0.503277
0.203                   0.773779       -0.505013
0.204                   0.771958       -0.506739
0.205                   0.770133       -0.508457
0.206                   0.768303       -0.510165
0.207                    0.76647       -0.511865
0.208                   0.764633       -0.513556
0.209                   0.762791       -0.515238
0.21                    0.760946       -0.516911
0.211                   0.759097       -0.518575
0.212                   0.757244       -0.520231
0.213                   0.755388       -0.521877
0.214                   0.753528       -0.523514
0.215                   0.751664       -0.525143
0.216                   0.749796       -0.526762
0.217                   0.747925       -0.528373
0.218                   0.746051       -0.529974
0.219                   0.744173       -0.531567
0.22                    0.742292       -0.533151
0.221                   0.740408       -0.534726
0.222                   0.738521       -0.536291
0.223                    0.73663       -0.537848
0.224                   0.734736       -0.539396
0.225                   0.732839       -0.540935
0.226                   0.730939       -0.542465
0.227                   0.729036       -0.543987
0.228                    0.72713       -0.545499
0.229                   0.725222       -0.547002
0.23                     0.72331       -0.548496
0.231                   0.721396       -0.549982
0.232                   0.719479       -0.551458
0.233                    0.71756       -0.552926
0.234                   0.715637       -0.554384
0.235                   0.713713       -0.555834
0.236                   0.711785       -0.557275
0.237                   0.709856       -0.558706
0.238                   0.707924       -0.560129
0.239                   0.705989       -0.561543
0.24                    0.704053       -0.562948
0.241                   0.702114       -0.564345
0.242                   0.700173       -0.565732
0.243                    0.69823        -0.56711
0.244                   0.696284        -0.56848
0.245                   0.694337       -0.569841
0.246                   0.692388       -0.571192
0.247                   0.690437       -0.572535
0.248                   0.688484        -0.57387
0.249                   0.686529       -0.575195
0.25                    0.684572       -0.576511
0.251                   0.682613       -0.577819
0.252                   0.680653       -0.579118
0.253                   0.678691       -0.580408
0.254                   0.676728       -0.581689
0.255                   0.674763       -0.582961
0.256                   0.672797       -0.584225
0.257                   0.670829        -0.58548
0.258                    0.66886       -0.586726
0.259                   0.666889       -0.587964
0.26                    0.664917       -0.589193
0.261                   0.662944       -0.590413
0.262                    0.66097       -0.591624
0.263                   0.658994       -0.592827
0.264                   0.657018       -0.594021
0.265                    0.65504       -0.595206
0.266                   0.653061       -0.596383
0.267                   0.651081       -0.597551
0.268                   0.649101        -0.59871
0.269                   0.647119       -0.599861
0.27                    0.645137       -0.601003
0.271                   0.643154       -0.602137
0.272                    0.64117       -0.603262
0.273                   0.639185       -0.604378
0.274                     0.6372       -0.605486
0.275                   0.635214       -0.606586
0.276                   0.633228       -0.607677
0.277                   0.631241       -0.608759
0.278                   0.629253       -0.609833
0.279                   0.627265       -0.610899
0.28                    0.625277       -0.611956
0.281                   0.623288       -0.613004
0.282                   0.621299       -0.614045
0.283                    0.61931       -0.615077
0.284                    0.61732         -0.6161
0.285                    0.61533       -0.617115
0.286                   0.613341       -0.618122
0.287                    0.61135       -0.619121
0.288                    0.60936       -0.620111
0.289                    0.60737       -0.621093
0.29                     0.60538       -0.622067
0.291                    0.60339       -0.623032
0.292                     0.6014       -0.623989
0.293                    0.59941       -0.624939
0.294                   0.597421       -0.625879
0.295                   0.595431       -0.626812
0.296                   0.593442       -0.627737
0.297                   0.591453       -0.628653
0.298                   0.589465       -0.629562
0.299                   0.587477       -0.630462
0.3                     0.585489       -0.631354
0.301                   0.583502       -0.632238
0.302                   0.581515       -0.633114
0.303                   0.579528       -0.633983
0.304                   0.577542       -0.634843
0.305                   0.575557       -0.635695
0.306                   0.573573       -0.636539
0.307                   0.571589       -0.637376
0.308                   0.569606       -0.638204
0.309                   0.567623       -0.639025
0.31                    0.565641       -0.639838
0.311                   0.563661       -0.640643
0.312                    0.56168        -0.64144
0.313                   0.559701       -0.642229
0.314                   0.557723       -0.643011
0.315                   0.555746       -0.643785
0.316                   0.553769       -0.644551
0.317                   0.551794        -0.64531
0.318                    0.54982       -0.646061
0.319                   0.547847       -0.646804
0.32                    0.545875        -0.64754
0.321                   0.543904       -0.648268
0.322                   0.541934       -0.648989
0.323                   0.539965       -0.649702
0.324                   0.537998       -0.650407
0.325                   0.536032       -0.651105
0.326                   0.534067       -0.651796
0.327                   0.532104       -0.652479
0.328                   0.530142       -0.653154
0.329                   0.528181       -0.653823
0.33                    0.526222       -0.654484
0.331                   0.524265       -0.655137
0.332                   0.522308       -0.655784
0.333                   0.520354       -0.656423
0.334                   0.518401       -0.657054
0.335                   0.516449       -0.657679
0.336                   0.514499       -0.658296
0.337                   0.512551       -0.658906
0.338                   0.510604       -0.659509
0.339                   0.508659       -0.660105
0.34                    0.506716       -0.660694
0.341                   0.504774       -0.661276
0.342                   0.502835        -0.66185
0.343                   0.500897       -0.662418
0.344                   0.498961       -0.662979
0.345                   0.497027       -0.663532
0.346                   0.495095       -0.664079
0.347                   0.493164       -0.664619
0.348                   0.491236       -0.665152
0.349                   0.489309       -0.665678
0.35                    0.487385       -0.666197
0.351                   0.485463       -0.666709
0.352                   0.483542       -0.667215
0.353                   0.481624       -0.667713
0.354                   0.479708       -0.668206
0.355                   0.477794       -0.668691
0.356                   0.475882        -0.66917
0.357                   0.473972       -0.669642
0.358                   0.472064       -0.670107
0.359                   0.470159       -0.670566
0.36                    0.468256       -0.671018
0.361                   0.466355       -0.671464
0.362                   0.464456       -0.671903
0.363                    0.46256       -0.672336
0.364                   0.460666       -0.672762
0.365                   0.458775       -0.673182
0.366                   0.456886       -0.673596
0.367                   0.454999       -0.674003
0.368                   0.453114       -0.674404
0.369                   0.451232       -0.674798
0.37                    0.449353       -0.675186
0.371                   0.447476       -0.675568
0.372                   0.445601       -0.675944
0.373                   0.443729       -0.676313
0.374                    0.44186       -0.676677
0.375                   0.439993       -0.677034
0.376                   0.438129       -0.677385
0.377                   0.436267        -0.67773
0.378                   0.434408       -0.678069
0.379                   0.432551       -0.678401
0.38                    0.430698       -0.678728
0.381                   0.428847       -0.679049
0.382                   0.426998       -0.679364
0.383                   0.425152       -0.679673
0.384                   0.423309       -0.679976
0.385                   0.421469       -0.680273
0.386                   0.419632       -0.680565
0.387                   0.417797        -0.68085
0.388                   0.415965        -0.68113
0.389                   0.414136       -0.681404
0.39                     0.41231       -0.681672
0.391                   0.410486       -0.681935
0.392                   0.408666       -0.682192
0.393                   0.406848       -0.682443
0.394                   0.405034       -0.682689
0.395                   0.403222       -0.682929
0.396                   0.401413       -0.683163
0.397                   0.399607       -0.683393
0.398                   0.397804       -0.683616
0.399                   0.396004       -0.683834
0.4                     0.394207       -0.684047
0.401                   0.392413       -0.684254
0.402                   0.390622       -0.684456
0.403                   0.388834       -0.684652
0.404                   0.387049       -0.684843
0.405                   0.385267       -0.685029
0.406                   0.383488        -0.68521
0.407                   0.381712       -0.685385
0.408                    0.37994       -0.685555
0.409                    0.37817        -0.68572
0.41                    0.376404        -0.68588
0.411                    0.37464       -0.686034
0.412                    0.37288       -0.686184
0.413                   0.371123       -0.686328
0.414                   0.369369       -0.686467
0.415                   0.367619       -0.686602
0.416                   0.365871       -0.686731
0.417                   0.364127       -0.686855
0.418                   0.362386       -0.686975
0.419                   0.360648       -0.687089
0.42                    0.358913       -0.687199
0.421                   0.357182       -0.687304
0.422                   0.355454       -0.687404
0.423                   0.353729       -0.687499
0.424                   0.352007       -0.687589
0.425                   0.350289       -0.687675
0.426                   0.348574       -0.687756
0.427                   0.346862       -0.687832
0.428                   0.345154       -0.687903
0.429                   0.343449        -0.68797
0.43                    0.341747       -0.688032
0.431                   0.340049        -0.68809
0.432                   0.338353       -0.688143
0.433                   0.336662       -0.688192
0.434                   0.334973       -0.688236
0.435                   0.333288       -0.688276
0.436                   0.331607       -0.688311
0.437                   0.329929       -0.688341
0.438                   0.328254       -0.688368
0.439                   0.326582        -0.68839
0.44                    0.324914       -0.688407
0.441                   0.323249       -0.688421
0.442                   0.321588        -0.68843
0.443                    0.31993       -0.688435
0.444                   0.318276       -0.688435
0.445                   0.316625       -0.688431
0.446                   0.314977       -0.688424
0.447                   0.313333       -0.688411
0.448                   0.311693       -0.688395
0.449                   0.310055       -0.688375
0.45                    0.308422       -0.688351
0.451                   0.306792       -0.688322
0.452                   0.305165        -0.68829
0.453                   0.303541       -0.688253
0.454                   0.301922       -0.688213
0.455                   0.300305       -0.688169
0.456                   0.298693        -0.68812
0.457                   0.297083       -0.688068
0.458                   0.295477       -0.688012
0.459                   0.293875       -0.687952
0.46                    0.292276       -0.687888
0.461                   0.290681       -0.687821
0.462                   0.289089       -0.687749
0.463                   0.287501       -0.687674
0.464                   0.285916       -0.687596
0.465                   0.284335       -0.687513
0.466                   0.282757       -0.687427
0.467                   0.281183       -0.687337
0.468                   0.279612       -0.687244
0.469                   0.278045       -0.687146
0.47                    0.276481       -0.687046
0.471                   0.274921       -0.686942
0.472                   0.273364       -0.686834
0.473                   0.271812       -0.686723
0.474                   0.270262       -0.686608
0.475                   0.268716        -0.68649
0.476                   0.267174       -0.686368
0.477                   0.265635       -0.686243
0.478                     0.2641       -0.686115
0.479                   0.262568       -0.685983
0.48                     0.26104       -0.685848
0.481                   0.259515       -0.685709
0.482                   0.257994       -0.685568
0.483                   0.256477       -0.685423
0.484                   0.254963       -0.685275
0.485                   0.253452       -0.685123
0.486                   0.251945       -0.684969
0.487                   0.250442       -0.684811
0.488                   0.248942        -0.68465
0.489                   0.247446       -0.684486
0.49                    0.245953       -0.684319
0.491                   0.244465       -0.684148
0.492                   0.242979       -0.683975
0.493                   0.241497       -0.683799
0.494                   0.240019       -0.683619
0.495                   0.238544       -0.683437
0.496                   0.237072       -0.683251
0.497                   0.235605       -0.683063
0.498                    0.23414       -0.682872
0.499                    0.23268       -0.682678
0.5                     0.231223       -0.682481
0.501                   0.229769       -0.682281
0.502                   0.228319       -0.682078
0.503                   0.226873       -0.681873
0.504                   0.225429       -0.681664
0.505                    0.22399       -0.681453
0.506                   0.222554       -0.681239
0.507                   0.221122       -0.681023
0.508                   0.219693       -0.680803
0.509                   0.218268       -0.680581
0.51                    0.216846       -0.680357
0.511                   0.215428       -0.680129
0.512                   0.214013       -0.679899
0.513                   0.212602       -0.679667
0.514                   0.211194       -0.679432
0.515                    0.20979       -0.679194
0.516                    0.20839       -0.678954
0.517                   0.206992       -0.678711
0.518                   0.205599       -0.678466
0.519                   0.204209       -0.678218
0.52                    0.202822       -0.677968
0.521                   0.201439       -0.677715
0.522                   0.200059        -0.67746
0.523                   0.198683       -0.677202
0.524                   0.197311       -0.676942
0.525                   0.195941        -0.67668
0.526                   0.194576       -0.676415
0.527                   0.193213       -0.676149
0.528                   0.191855       -0.675879
0.529                     0.1905       -0.675608
0.53                    0.189148       -0.675334
0.531                   0.187799       -0.675058
0.532                   0.186455        -0.67478
0.533                   0.185113       -0.674499
0.534                   0.183775       -0.674216
0.535                   0.182441       -0.673931
0.536                    0.18111       -0.673644
0.537                   0.179782       -0.673355
0.538                   0.178457       -0.673064
0.539                   0.177137       -0.672771
0.54                    0.175819       -0.672475
0.541                   0.174505       -0.672177
0.542                   0.173195       -0.671878
0.543                   0.171888       -0.671576
0.544                   0.170584       -0.671272
0.545                   0.169284       -0.670967
0.546                   0.167987       -0.670659
0.547                   0.166693        -0.67035
0.548                   0.165403       -0.670038
0.549                   0.164116       -0.669725
0.55                    0.162833       -0.669409
0.551                   0.161552       -0.669092
0.552                   0.160276       -0.668773
0.553                   0.159003       -0.668452
0.554                   0.157733       -0.668129
0.555                   0.156466       -0.667804
0.556                   0.155203       -0.667478
0.557                   0.153942       -0.667149
0.558                   0.152686       -0.666819
0.559                   0.151432       -0.666487
0.56                    0.150183       -0.666154
0.561                   0.148936       -0.665819
0.562                   0.147692       -0.665481
0.563                   0.146452       -0.665143
0.564                   0.145215       -0.664802
0.565                   0.143982        -0.66446
0.566                   0.142752       -0.664117
0.567                   0.141525       -0.663771
0.568                   0.140301       -0.663424
0.569                    0.13908       -0.663076
0.57                    0.137863       -0.662726
0.571                   0.136649       -0.662374
0.572                   0.135438       -0.662021
0.573                   0.134231       -0.661666
0.574                   0.133027       -0.661309
0.575                   0.131826       -0.660952
0.576                   0.130628       -0.660592
0.577                   0.129433       -0.660231
0.578                   0.128242       -0.659869
0.579                   0.127054       -0.659505
0.58                    0.125869        -0.65914
0.581                   0.124687       -0.658773
0.582                   0.123508       -0.658405
0.583                   0.122333       -0.658036
0.584                    0.12116       -0.657665
0.585                   0.119991       -0.657293
0.586                   0.118825       -0.656919
0.587                   0.117662       -0.656544
0.588                   0.116503       -0.656168
0.589                   0.115346       -0.655791
0.59                    0.114192       -0.655412
0.591                   0.113042       -0.655032
0.592                   0.111895        -0.65465
0.593                   0.110751       -0.654267
0.594                    0.10961       -0.653884
0.595                   0.108472       -0.653498
0.596                   0.107336       -0.653112
0.597                   0.106205       -0.652724
0.598                   0.105076       -0.652336
0.599                    0.10395       -0.651946
0.6                     0.102828       -0.651554
0.601                   0.101708       -0.651162
0.602                   0.100591       -0.650769
0.603                   0.099478       -0.650374
0.604                  0.0983676       -0.649978
0.605                  0.0972598       -0.649581
0.606                  0.0961553       -0.649184
0.607                  0.0950541       -0.648785
0.608                  0.0939551       -0.648384
0.609                  0.0928597       -0.647983
0.61                   0.0917669       -0.647581
0.611                  0.0906776       -0.647178
0.612                   0.089591       -0.646774
0.613                  0.0885072       -0.646368
0.614                  0.0874267       -0.645962
0.615                  0.0863485       -0.645555
0.616                  0.0852738       -0.645146
0.617                   0.084202       -0.644737
0.618                   0.083133       -0.644327
0.619                  0.0820667       -0.643916
0.62                   0.0810035       -0.643504
0.621                  0.0799432       -0.643091
0.622                  0.0788858       -0.642677
0.623                  0.0778313       -0.642262
0.624                  0.0767796       -0.641846
0.625                  0.0757308       -0.641429
0.626                  0.0746846       -0.641012
0.627                  0.0736415       -0.640593
0.628                  0.0726015       -0.640174
0.629                  0.0715641       -0.639754
0.63                   0.0705292       -0.639333
0.631                  0.0694972       -0.638911
0.632                  0.0684683       -0.638489
0.633                  0.0674422       -0.638065
0.634                   0.066419       -0.637641
0.635                  0.0653982       -0.637216
0.636                  0.0643806       -0.636791
0.637                  0.0633655       -0.636364
0.638                  0.0623531       -0.635937
0.639                  0.0613436       -0.635509
0.64                   0.0603369        -0.63508
0.641                  0.0593326       -0.634651
0.642                  0.0583312        -0.63422
0.643                  0.0573328        -0.63379
0.644                  0.0563369       -0.633358
0.645                  0.0553438       -0.632926
0.646                  0.0543534       -0.632493
0.647                  0.0533655       -0.632059
0.648                  0.0523803       -0.631625
0.649                  0.0513979        -0.63119
0.65                   0.0504186       -0.630754
0.651                  0.0494411       -0.630318
0.652                  0.0484669       -0.629881
0.653                  0.0474952       -0.629443
0.654                  0.0465259       -0.629005
0.655                  0.0455596       -0.628567
0.656                  0.0445955       -0.628127
0.657                  0.0436343       -0.627687
0.658                  0.0426759       -0.627247
0.659                  0.0417196       -0.626806
0.66                   0.0407666       -0.626364
0.661                  0.0398153       -0.625922
0.662                  0.0388671       -0.625479
0.663                  0.0379216       -0.625036
0.664                  0.0369784       -0.624592
0.665                  0.0360379       -0.624148
0.666                  0.0350995       -0.623703
0.667                  0.0341641       -0.623257
0.668                  0.0332313       -0.622812
0.669                  0.0323009       -0.622365
0.67                   0.0313731       -0.621918
0.671                  0.0304474       -0.621471
0.672                  0.0295247       -0.621023
0.673                  0.0286043       -0.620575
0.674                  0.0276865       -0.620126
0.675                   0.026771       -0.619677
0.676                  0.0258579       -0.619227
0.677                  0.0249474       -0.618777
0.678                  0.0240393       -0.618326
0.679                  0.0231337       -0.617875
0.68                   0.0222307       -0.617424
0.681                  0.0213301       -0.616972
0.682                  0.0204318        -0.61652
0.683                   0.019536       -0.616067
0.684                  0.0186426       -0.615614
0.685                  0.0177514       -0.615161
0.686                  0.0168628       -0.614707
0.687                  0.0159765       -0.614253
0.688                  0.0150925       -0.613799
0.689                  0.0142111       -0.613344
0.69                   0.0133319       -0.612889
0.691                  0.0124549       -0.612433
0.692                  0.0115806       -0.611977
0.693                  0.0107084       -0.611521
0.694                 0.00983887       -0.611064
0.695                 0.00897124       -0.610607
0.696                 0.00810644        -0.61015
0.697                 0.00724359       -0.609693
0.698                 0.00638326       -0.609235
0.699                 0.00552516       -0.608776
0.7                   0.00466928       -0.608318
0.701                 0.00381591       -0.607859
0.702                 0.00296446         -0.6074
0.703                 0.00211523       -0.606941
0.704                 0.00126849       -0.606481
0.705                0.000424241       -0.606021
0.706               -0.000418099       -0.605561
0.707                -0.00125796       -0.605101
0.708                -0.00209592        -0.60464
0.709                -0.00293112       -0.604179
0.71                 -0.00376442       -0.603718
0.711                -0.00459556       -0.603257
0.712                -0.00542423       -0.602795
0.713                -0.00625132       -0.602333
0.714                -0.00707537       -0.601871
0.715                -0.00789785       -0.601409
0.716                -0.00871789       -0.600946
0.717                -0.00953606       -0.600484
0.718                 -0.0103515       -0.600021
0.719                 -0.0111654       -0.599558
0.72                  -0.0119769       -0.599094
0.721                 -0.0127861       -0.598631
0.722                 -0.0135933       -0.598167
0.723                 -0.0143982       -0.597703
0.724                 -0.0152012       -0.597239
0.725                 -0.0160019       -0.596775
0.726                 -0.0168005       -0.596311
0.727                 -0.0175971       -0.595846
0.728                 -0.0183917       -0.595381
0.729                 -0.0191839       -0.594916
0.73                  -0.0199741       -0.594451
0.731                 -0.0207624       -0.593986
0.732                 -0.0215486       -0.593521
0.733                 -0.0223326       -0.593055
0.734                 -0.0231145        -0.59259
0.735                 -0.0238945       -0.592124
0.736                 -0.0246723       -0.591658
0.737                 -0.0254483       -0.591192
0.738                  -0.026222       -0.590726
0.739                 -0.0269937        -0.59026
0.74                  -0.0277636       -0.589794
0.741                 -0.0285314       -0.589327
0.742                 -0.0292971       -0.588861
0.743                 -0.0300609       -0.588394
0.744                 -0.0308226       -0.587927
0.745                 -0.0315823        -0.58746
0.746                 -0.0323402       -0.586993
0.747                  -0.033096       -0.586526
0.748                 -0.0338498       -0.586059
0.749                 -0.0346016       -0.585592
0.75                  -0.0353515       -0.585125
0.751                 -0.0360996       -0.584658
0.752                 -0.0368456        -0.58419
0.753                 -0.0375897       -0.583723
0.754                 -0.0383317       -0.583255
0.755                 -0.0390719       -0.582788
0.756                 -0.0398103        -0.58232
0.757                 -0.0405467       -0.581852
0.758                 -0.0412812       -0.581384
0.759                 -0.0420138       -0.580917
0.76                  -0.0427444       -0.580449
0.761                 -0.0434733       -0.579981
0.762                 -0.0442002       -0.579513
0.763                 -0.0449252       -0.579045
0.764                 -0.0456484       -0.578577
0.765                 -0.0463696       -0.578109
0.766                 -0.0470892       -0.577641
0.767                 -0.0478068       -0.577173
0.768                 -0.0485224       -0.576705
0.769                 -0.0492364       -0.576237
0.77                  -0.0499484       -0.575769
0.771                 -0.0506587       -0.575301
0.772                  -0.051367       -0.574832
0.773                 -0.0520736       -0.574364
0.774                 -0.0527783       -0.573896
0.775                 -0.0534813       -0.573428
0.776                 -0.0541825        -0.57296
0.777                 -0.0548818       -0.572492
0.778                 -0.0555796       -0.572024
0.779                 -0.0562751       -0.571555
0.78                  -0.0569694       -0.571087
0.781                 -0.0576616       -0.570619
0.782                 -0.0583519       -0.570151
0.783                 -0.0590407       -0.569683
0.784                 -0.0597277       -0.569215
0.785                 -0.0604129       -0.568747
0.786                 -0.0610962       -0.568279
0.787                  -0.061778       -0.567811
0.788                  -0.062458       -0.567343
0.789                 -0.0631364       -0.566875
0.79                  -0.0638128       -0.566407
0.791                 -0.0644877        -0.56594
0.792                 -0.0651607       -0.565472
0.793                 -0.0658322       -0.565004
0.794                 -0.0665018       -0.564536
0.795                 -0.0671698       -0.564069
0.796                 -0.0678362       -0.563601
0.797                 -0.0685007       -0.563133
0.798                 -0.0691637       -0.562666
0.799                 -0.0698248       -0.562199
0.8                   -0.0704844       -0.561731
0.801                 -0.0711424       -0.561264
0.802                 -0.0717987       -0.560796
0.803                 -0.0724531       -0.560329
0.804                 -0.0731061       -0.559862
0.805                 -0.0737575       -0.559395
0.806                 -0.0744072       -0.558928
0.807                 -0.0750552       -0.558461
0.808                 -0.0757014       -0.557994
0.809                 -0.0763461       -0.557527
0.81                  -0.0769894       -0.557061
0.811                 -0.0776309       -0.556594
0.812                 -0.0782708       -0.556127
0.813                 -0.0789091       -0.555661
0.814                 -0.0795459       -0.555194
0.815                 -0.0801809       -0.554728
0.816                 -0.0808145       -0.554262
0.817                 -0.0814464       -0.553796
0.818                 -0.0820768        -0.55333
0.819                 -0.0827054       -0.552864
0.82                  -0.0833327       -0.552398
0.821                 -0.0839583       -0.551932
0.822                 -0.0845825       -0.551466
0.823                 -0.0852049       -0.551001
0.824                 -0.0858259       -0.550535
0.825                 -0.0864451        -0.55007
0.826                 -0.0870631       -0.549605
0.827                 -0.0876794        -0.54914
0.828                 -0.0882941       -0.548674
0.829                 -0.0889075       -0.548209
0.83                  -0.0895192       -0.547745
0.831                 -0.0901293        -0.54728
0.832                  -0.090738       -0.546815
0.833                 -0.0913452       -0.546351
0.834                 -0.0919509       -0.545886
0.835                 -0.0925549       -0.545422
0.836                 -0.0931577       -0.544958
0.837                 -0.0937588       -0.544494
0.838                 -0.0943585        -0.54403
0.839                 -0.0949567       -0.543566
0.84                  -0.0955533       -0.543102
0.841                 -0.0961486       -0.542639
0.842                 -0.0967423       -0.542175
0.843                 -0.0973346       -0.541712
0.844                 -0.0979255       -0.541249
0.845                 -0.0985147       -0.540786
0.846                 -0.0991026       -0.540323
0.847                 -0.0996891        -0.53986
0.848                  -0.100274       -0.539397
0.849                  -0.100858       -0.538935
0.85                    -0.10144       -0.538473
0.851                   -0.10202        -0.53801
0.852                    -0.1026       -0.537548
0.853                  -0.103177       -0.537086
0.854                  -0.103754       -0.536624
0.855                  -0.104329       -0.536163
0.856                  -0.104902       -0.535701
0.857                  -0.105474        -0.53524
0.858                  -0.106045       -0.534778
0.859                  -0.106614       -0.534317
0.86                   -0.107182       -0.533856
0.861                  -0.107749       -0.533395
0.862                  -0.108314       -0.532935
0.863                  -0.108878       -0.532474
0.864                   -0.10944       -0.532014
0.865                  -0.110001       -0.531554
0.866                  -0.110561       -0.531094
0.867                  -0.111119       -0.530634
0.868                  -0.111676       -0.530174
0.869                  -0.112231       -0.529714
0.87                   -0.112785       -0.529255
0.871                  -0.113338       -0.528796
0.872                   -0.11389       -0.528336
0.873                   -0.11444       -0.527878
0.874                  -0.114988       -0.527419
0.875                  -0.115536        -0.52696
0.876                  -0.116082       -0.526502
0.877                  -0.116626       -0.526043
0.878                   -0.11717       -0.525585
0.879                  -0.117712       -0.525127
0.88                   -0.118253       -0.524669
0.881                  -0.118792       -0.524212
0.882                   -0.11933       -0.523754
0.883                  -0.119867       -0.523297
0.884                  -0.120402        -0.52284
0.885                  -0.120936       -0.522383
0.886                  -0.121469       -0.521926
0.887                  -0.122001       -0.521469
0.888                  -0.122531       -0.521013
0.889                   -0.12306       -0.520557
0.89                   -0.123588       -0.520101
0.891                  -0.124114       -0.519645
0.892                  -0.124639       -0.519189
0.893                  -0.125163       -0.518733
0.894                  -0.125685       -0.518278
0.895                  -0.126207       -0.517823
0.896                  -0.126726       -0.517368
0.897                  -0.127245       -0.516913
0.898                  -0.127763       -0.516458
0.899                  -0.128279       -0.516004
0.9                    -0.128794        -0.51555
0.901                  -0.129307       -0.515096
0.902                   -0.12982       -0.514642
0.903                  -0.130331       -0.514188
0.904                  -0.130841       -0.513734
0.905                   -0.13135       -0.513281
0.906                  -0.131857       -0.512828
0.907                  -0.132363       -0.512375
0.908                  -0.132868       -0.511922
0.909                  -0.133372        -0.51147
0.91                   -0.133875       -0.511017
0.911                  -0.134376       -0.510565
0.912                  -0.134876       -0.510113
0.913                  -0.135375       -0.509661
0.914                  -0.135873        -0.50921
0.915                  -0.136369       -0.508758
0.916                  -0.136864       -0.508307
0.917                  -0.137358       -0.507856
0.918                  -0.137851       -0.507405
0.919                  -0.138343       -0.506955
0.92                   -0.138833       -0.506504
0.921                  -0.139323       -0.506054
0.922                  -0.139811       -0.505604
0.923                  -0.140298       -0.505155
0.924                  -0.140783       -0.504705
0.925                  -0.141268       -0.504255
0.926                  -0.141751       -0.503806
0.927                  -0.142234       -0.503357
0.928                  -0.142715       -0.502909
0.929                  -0.143194        -0.50246
0.93                   -0.143673       -0.502012
0.931                  -0.144151       -0.501564
0.932                  -0.144627       -0.501116
0.933                  -0.145102       -0.500668
0.934                  -0.145576        -0.50022
0.935                  -0.146049       -0.499773
0.936                  -0.146521       -0.499326
0.937                  -0.146992       -0.498879
0.938                  -0.147461       -0.498433
0.939                  -0.147929       -0.497986
0.94                   -0.148397        -0.49754
0.941                  -0.148863       -0.497094
0.942                  -0.149328       -0.496648
0.943                  -0.149792       -0.496203
0.944                  -0.150254       -0.495757
0.945                  -0.150716       -0.495312
0.946                  -0.151176       -0.494867
0.947                  -0.151636       -0.494422
0.948                  -0.152094       -0.493978
0.949                  -0.152551       -0.493534
0.95                   -0.153007        -0.49309
0.951                  -0.153462       -0.492646
0.952                  -0.153916       -0.492202
0.953                  -0.154368       -0.491759
0.954                   -0.15482       -0.491316
0.955                   -0.15527       -0.490873
0.956                   -0.15572        -0.49043
0.957                  -0.156168       -0.489988
0.958                  -0.156615       -0.489546
0.959                  -0.157061       -0.489104
0.96                   -0.157506       -0.488662
0.961                   -0.15795        -0.48822
0.962                  -0.158393       -0.487779
0.963                  -0.158835       -0.487338
0.964                  -0.159276       -0.486897
0.965                  -0.159716       -0.486456
0.966                  -0.160154       -0.486016
0.967                  -0.160592       -0.485576
0.968                  -0.161028       -0.485136
0.969                  -0.161464       -0.484696
0.97                   -0.161898       -0.484257
0.971                  -0.162331       -0.483818
0.972                  -0.162764       -0.483379
0.973                  -0.163195        -0.48294
0.974                  -0.163625       -0.482502
0.975                  -0.164054       -0.482063
0.976                  -0.164482       -0.481625
0.977                   -0.16491       -0.481187
0.978                  -0.165335        -0.48075
0.979                   -0.16576       -0.480313
0.98                   -0.166184       -0.479876
0.981                  -0.166607       -0.479439
0.982                  -0.167029       -0.479002
0.983                   -0.16745       -0.478566
0.984                   -0.16787        -0.47813
0.985                  -0.168289       -0.477694
0.986                  -0.168707       -0.477258
0.987                  -0.169124       -0.476823
0.988                  -0.169539       -0.476388
0.989                  -0.169954       -0.475953
0.99                   -0.170368       -0.475519
0.991                  -0.170781       -0.475084
0.992                  -0.171193        -0.47465
0.993                  -0.171603       -0.474216
0.994                  -0.172013       -0.473783
0.995                  -0.172422       -0.473349
0.996                   -0.17283       -0.472916
0.997                  -0.173236       -0.472483
0.998                  -0.173642       -0.472051
0.999                  -0.174047       -0.471619
1                      -0.174451       -0.471186
1.001                  -0.174854       -0.470755
1.002                  -0.175256       -0.470323
1.003                  -0.175657       -0.469892
1.004                  -0.176056       -0.469461
1.005                  -0.176455        -0.46903
1.006                  -0.176853       -0.468599
1.007                   -0.17725       -0.468169
1.008                  -0.177647       -0.467739
1.009                  -0.178042       -0.467309
1.01                   -0.178436        -0.46688
1.011                  -0.178829       -0.466451
1.012                  -0.179221       -0.466022
1.013                  -0.179612       -0.465593
1.014                  -0.180003       -0.465164
1.015                  -0.180392       -0.464736
1.016                   -0.18078       -0.464308
1.017                  -0.181168       -0.463881
1.018                  -0.181554       -0.463453
1.019                   -0.18194       -0.463026
1.02                   -0.182325       -0.462599
1.021                  -0.182708       -0.462173
1.022                  -0.183091       -0.461747
1.023                  -0.183473        -0.46132
1.024                  -0.183854       -0.460895
1.025                  -0.184234       -0.460469
1.026                  -0.184613       -0.460044
1.027                  -0.184991       -0.459619
1.028                  -0.185368       -0.459194
1.029                  -0.185745        -0.45877
1.03                    -0.18612       -0.458346
1.031                  -0.186495       -0.457922
1.032                  -0.186868       -0.457498
1.033                  -0.187241       -0.457075
1.034                  -0.187613       -0.456652
1.035                  -0.187984       -0.456229
1.036                  -0.188354       -0.455807
1.037                  -0.188723       -0.455384
1.038                  -0.189091       -0.454962
1.039                  -0.189458       -0.454541
1.04                   -0.189824       -0.454119
1.041                   -0.19019       -0.453698
1.042                  -0.190554       -0.453277
1.043                  -0.190918       -0.452857
1.044                  -0.191281       -0.452437
1.045                  -0.191643       -0.452017
1.046                  -0.192004       -0.451597
1.047                  -0.192364       -0.451177
1.048                  -0.192723       -0.450758
1.049                  -0.193082       -0.450339
1.05                   -0.193439       -0.449921
1.051                  -0.193796       -0.449503
1.052                  -0.194152       -0.449085
1.053                  -0.194507       -0.448667
1.054                  -0.194861       -0.448249
1.055                  -0.195214       -0.447832
1.056                  -0.195567       -0.447415
1.057                  -0.195918       -0.446999
1.058                  -0.196269       -0.446583
1.059                  -0.196619       -0.446167
1.06                   -0.196967       -0.445751
1.061                  -0.197316       -0.445335
1.062                  -0.197663        -0.44492
1.063                  -0.198009       -0.444505
1.064                  -0.198355       -0.444091
1.065                    -0.1987       -0.443677
1.066                  -0.199043       -0.443263
1.067                  -0.199386       -0.442849
1.068                  -0.199729       -0.442436
1.069                   -0.20007       -0.442023
1.07                   -0.200411        -0.44161
1.071                   -0.20075       -0.441197
1.072                  -0.201089       -0.440785
1.073                  -0.201427       -0.440373
1.074                  -0.201765       -0.439962
1.075                  -0.202101        -0.43955
1.076                  -0.202437       -0.439139
1.077                  -0.202772       -0.438729
1.078                  -0.203106       -0.438318
1.079                  -0.203439       -0.437908
1.08                   -0.203771       -0.437498
1.081                  -0.204103       -0.437089
1.082                  -0.204433        -0.43668
1.083                  -0.204763       -0.436271
1.084                  -0.205093       -0.435862
1.085                  -0.205421       -0.435454
1.086                  -0.205749       -0.435046
1.087                  -0.206075       -0.434638
1.088                  -0.206401       -0.434231
1.089                  -0.206727       -0.433824
1.09                   -0.207051       -0.433417
1.091                  -0.207375       -0.433011
1.092                  -0.207698       -0.432604
1.093                  -0.208019       -0.432199
1.094                  -0.208341       -0.431793
1.095                  -0.208661       -0.431388
1.096                  -0.208981       -0.430983
1.097                    -0.2093       -0.430578
1.098                  -0.209618       -0.430174
1.099                  -0.209936        -0.42977
1.1                    -0.210252       -0.429366
1.101                  -0.210568       -0.428963
1.102                  -0.210883        -0.42856
1.103                  -0.211198       -0.428157
1.104                  -0.211511       -0.427755
1.105                  -0.211824       -0.427352
1.106                  -0.212136       -0.426951
1.107                  -0.212448       -0.426549
1.108                  -0.212758       -0.426148
1.109                  -0.213068       -0.425747
1.11                   -0.213377       -0.425346
1.111                  -0.213686       -0.424946
1.112                  -0.213993       -0.424546
1.113                    -0.2143       -0.424146
1.114                  -0.214606       -0.423747
1.115                  -0.214912       -0.423348
1.116                  -0.215216       -0.422949
1.117                   -0.21552       -0.422551
1.118                  -0.215823       -0.422153
1.119                  -0.216126       -0.421755
1.12                   -0.216428       -0.421358
1.121                  -0.216729       -0.420961
1.122                  -0.217029       -0.420564
1.123                  -0.217328       -0.420167
1.124                  -0.217627       -0.419771
1.125                  -0.217926       -0.419375
1.126                  -0.218223        -0.41898
1.127                   -0.21852       -0.418585
1.128                  -0.218816        -0.41819
1.129                  -0.219111       -0.417795
1.13                   -0.219406       -0.417401
1.131                    -0.2197       -0.417007
1.132                  -0.219993       -0.416613
1.133                  -0.220285        -0.41622
1.134                  -0.220577       -0.415827
1.135                  -0.220868       -0.415435
1.136                  -0.221159       -0.415042
1.137                  -0.221448        -0.41465
1.138                  -0.221738       -0.414259
1.139                  -0.222026       -0.413867
1.14                   -0.222314       -0.413476
1.141                  -0.222601       -0.413086
1.142                  -0.222887       -0.412695
1.143                  -0.223173       -0.412305
1.144                  -0.223458       -0.411915
1.145                  -0.223742       -0.411526
1.146                  -0.224025       -0.411137
1.147                  -0.224308       -0.410748
1.148                  -0.224591        -0.41036
1.149                  -0.224872       -0.409972
1.15                   -0.225153       -0.409584
1.151                  -0.225433       -0.409196
1.152                  -0.225713       -0.408809
1.153                  -0.225992       -0.408423
1.154                   -0.22627       -0.408036
1.155                  -0.226548        -0.40765
1.156                  -0.226825       -0.407264
1.157                  -0.227101       -0.406879
1.158                  -0.227377       -0.406493
1.159                  -0.227652       -0.406109
1.16                   -0.227926       -0.405724
1.161                    -0.2282        -0.40534
1.162                  -0.228473       -0.404956
1.163                  -0.228746       -0.404573
1.164                  -0.229018       -0.404189
1.165                  -0.229289       -0.403806
1.166                  -0.229559       -0.403424
1.167                   -0.22983       -0.403042
1.168                  -0.230099        -0.40266
1.169                  -0.230367       -0.402278
1.17                   -0.230635       -0.401897
1.171                  -0.230903       -0.401516
1.172                   -0.23117       -0.401136
1.173                  -0.231436       -0.400755
1.174                  -0.231701       -0.400375
1.175                  -0.231967       -0.399996
1.176                  -0.232231       -0.399617
1.177                  -0.232495       -0.399238
1.178                  -0.232758       -0.398859
1.179                   -0.23302       -0.398481
1.18                   -0.233282       -0.398103
1.181                  -0.233544       -0.397725
1.182                  -0.233804       -0.397348
1.183                  -0.234064       -0.396971
1.184                  -0.234324       -0.396594
1.185                  -0.234583       -0.396218
1.186                  -0.234841       -0.395842
1.187                  -0.235099       -0.395467
1.188                  -0.235356       -0.395091
1.189                  -0.235612       -0.394716
1.19                   -0.235869       -0.394342
1.191                  -0.236124       -0.393967
1.192                  -0.236379       -0.393594
1.193                  -0.236633        -0.39322
1.194                  -0.236887       -0.392846
1.195                   -0.23714       -0.392473
1.196                  -0.237392       -0.392101
1.197                  -0.237644       -0.391729
1.198                  -0.237896       -0.391357
1.199                  -0.238146       -0.390985
1.2                    -0.238397       -0.390614
1.201                  -0.238646       -0.390243
1.202                  -0.238895       -0.389872
1.203                  -0.239144       -0.389502
1.204                  -0.239392       -0.389132
1.205                  -0.239639       -0.388762
1.206                  -0.239886       -0.388393
1.207                  -0.240133       -0.388023
1.208                  -0.240378       -0.387655
1.209                  -0.240623       -0.387286
1.21                   -0.240868       -0.386918
1.211                  -0.241112       -0.386551
1.212                  -0.241356       -0.386183
1.213                  -0.241599       -0.385816
1.214                  -0.241841        -0.38545
1.215                  -0.242083       -0.385083
1.216                  -0.242325       -0.384717
1.217                  -0.242566       -0.384351
1.218                  -0.242806       -0.383986
1.219                  -0.243046       -0.383621
1.22                   -0.243285       -0.383256
1.221                  -0.243524       -0.382892
1.222                  -0.243762       -0.382528
1.223                     -0.244       -0.382164
1.224                  -0.244237         -0.3818
1.225                  -0.244474       -0.381437
1.226                   -0.24471       -0.381074
1.227                  -0.244946       -0.380712
1.228                  -0.245181        -0.38035
1.229                  -0.245415       -0.379988
1.23                    -0.24565       -0.379627
1.231                  -0.245883       -0.379265
1.232                  -0.246116       -0.378905
1.233                  -0.246349       -0.378544
1.234                  -0.246581       -0.378184
1.235                  -0.246812       -0.377824
1.236                  -0.247043       -0.377464
1.237                  -0.247274       -0.377105
1.238                  -0.247504       -0.376746
1.239                  -0.247734       -0.376388
1.24                   -0.247963       -0.376029
1.241                  -0.248192       -0.375671
1.242                   -0.24842       -0.375314
1.243                  -0.248647       -0.374957
1.244                  -0.248874         -0.3746
1.245                  -0.249101       -0.374243
1.246                  -0.249327       -0.373887
1.247                  -0.249553       -0.373531
1.248                  -0.249778       -0.373175
1.249                  -0.250003        -0.37282
1.25                   -0.250227       -0.372465
1.251                  -0.250451        -0.37211
1.252                  -0.250674       -0.371755
1.253                  -0.250897       -0.371401
1.254                   -0.25112       -0.371048
1.255                  -0.251342       -0.370694
1.256                  -0.251563       -0.370341
1.257                  -0.251784       -0.369988
1.258                  -0.252005       -0.369636
1.259                  -0.252225       -0.369284
1.26                   -0.252444       -0.368932
1.261                  -0.252663        -0.36858
1.262                  -0.252882       -0.368229
1.263                    -0.2531       -0.367878
1.264                  -0.253318       -0.367527
1.265                  -0.253536       -0.367177
1.266                  -0.253752       -0.366827
1.267                  -0.253969       -0.366477
1.268                  -0.254185       -0.366128
1.269                    -0.2544       -0.365779
1.27                   -0.254616        -0.36543
1.271                   -0.25483       -0.365082
1.272                  -0.255045       -0.364734
1.273                  -0.255258       -0.364386
1.274                  -0.255472       -0.364038
1.275                  -0.255685       -0.363691
1.276                  -0.255897       -0.363344
1.277                  -0.256109       -0.362998
1.278                  -0.256321       -0.362651
1.279                  -0.256532       -0.362306
1.28                   -0.256743        -0.36196
1.281                  -0.256953       -0.361614
1.282                  -0.257163       -0.361269
1.283                  -0.257373       -0.360925
1.284                  -0.257582        -0.36058
1.285                  -0.257791       -0.360236
1.286                  -0.257999       -0.359892
1.287                  -0.258207       -0.359549
1.288                  -0.258414       -0.359206
1.289                  -0.258621       -0.358863
1.29                   -0.258828        -0.35852
1.291                  -0.259034       -0.358178
1.292                   -0.25924       -0.357836
1.293                  -0.259445       -0.357494
1.294                   -0.25965       -0.357152
1.295                  -0.259855       -0.356811
1.296                  -0.260059       -0.356471
1.297                  -0.260263        -0.35613
1.298                  -0.260466        -0.35579
1.299                  -0.260669        -0.35545
1.3                    -0.260872        -0.35511
1.301                  -0.261074       -0.354771
1.302                  -0.261276       -0.354432
1.303                  -0.261477       -0.354093
1.304                  -0.261678       -0.353754
1.305                  -0.261879       -0.353416
1.306                  -0.262079       -0.353078
1.307                  -0.262279       -0.352741
1.308                  -0.262479       -0.352403
1.309                  -0.262678       -0.352066
1.31                   -0.262876        -0.35173
1.311                  -0.263075       -0.351393
1.312                  -0.263273       -0.351057
1.313                   -0.26347       -0.350721
1.314                  -0.263667       -0.350386
1.315                  -0.263864        -0.35005
1.316                  -0.264061       -0.349715
1.317                  -0.264257        -0.34938
1.318                  -0.264453       -0.349046
1.319                  -0.264648       -0.348712
1.32                   -0.264843       -0.348378
1.321                  -0.265038       -0.348044
1.322                  -0.265232       -0.347711
1.323                  -0.265426       -0.347378
1.324                  -0.265619       -0.347045
1.325                  -0.265813       -0.346712
1.326                  -0.266005        -0.34638
1.327                  -0.266198       -0.346048
1.328                   -0.26639       -0.345717
1.329                  -0.266582       -0.345385
1.33                   -0.266773       -0.345054
1.331                  -0.266964       -0.344723
1.332                  -0.267155       -0.344393
1.333                  -0.267345       -0.344062
1.334                  -0.267535       -0.343732
1.335                  -0.267724       -0.343402
1.336                  -0.267914       -0.343073
1.337                  -0.268103       -0.342744
1.338                  -0.268291       -0.342415
1.339                  -0.268479       -0.342086
1.34                   -0.268667       -0.341758
1.341                  -0.268855       -0.341429
1.342                  -0.269042       -0.341102
1.343                  -0.269229       -0.340774
1.344                  -0.269415       -0.340447
1.345                  -0.269602       -0.340119
1.346                  -0.269787       -0.339793
1.347                  -0.269973       -0.339466
1.348                  -0.270158        -0.33914
1.349                  -0.270343       -0.338814
1.35                   -0.270527       -0.338488
1.351                  -0.270712       -0.338162
1.352                  -0.270895       -0.337837
1.353                  -0.271079       -0.337512
1.354                  -0.271262       -0.337187
1.355                  -0.271445       -0.336862
1.356                  -0.271627       -0.336538
1.357                   -0.27181       -0.336214
1.358                  -0.271992        -0.33589
1.359                  -0.272173       -0.335567
1.36                   -0.272354       -0.335244
1.361                  -0.272535       -0.334921
1.362                  -0.272716       -0.334598
1.363                  -0.272896       -0.334275
1.364                  -0.273076       -0.333953
1.365                  -0.273256       -0.333631
1.366                  -0.273435       -0.333309
1.367                  -0.273614       -0.332987
1.368                  -0.273793       -0.332666
1.369                  -0.273971       -0.332345
1.37                   -0.274149       -0.332024
1.371                  -0.274327       -0.331704
1.372                  -0.274504       -0.331383
1.373                  -0.274681       -0.331063
1.374                  -0.274858       -0.330743
1.375                  -0.275035       -0.330424
1.376                  -0.275211       -0.330104
1.377                  -0.275387       -0.329785
1.378                  -0.275562       -0.329466
1.379                  -0.275737       -0.329148
1.38                   -0.275913       -0.328829
1.381                  -0.276087       -0.328511
1.382                  -0.276262       -0.328193
1.383                  -0.276436       -0.327875
1.384                  -0.276609       -0.327558
1.385                  -0.276783        -0.32724
1.386                  -0.276956       -0.326923
1.387                  -0.277129       -0.326606
1.388                  -0.277301        -0.32629
1.389                  -0.277474       -0.325973
1.39                   -0.277646       -0.325657
1.391                  -0.277817       -0.325341
1.392                  -0.277989       -0.325025
1.393                   -0.27816        -0.32471
1.394                   -0.27833       -0.324395
1.395                  -0.278501        -0.32408
1.396                  -0.278671       -0.323765
1.397                  -0.278841        -0.32345
1.398                  -0.279011       -0.323136
1.399                   -0.27918       -0.322822
1.4                    -0.279349       -0.322508
1.401                  -0.279518       -0.322194
1.402                  -0.279686        -0.32188
1.403                  -0.279854       -0.321567
1.404                  -0.280022       -0.321254
1.405                   -0.28019       -0.320941
1.406                  -0.280357       -0.320628
1.407                  -0.280524       -0.320316
1.408                  -0.280691       -0.320004
1.409                  -0.280857       -0.319691
1.41                   -0.281023        -0.31938
1.411                  -0.281189       -0.319068
1.412                  -0.281355       -0.318756
1.413                   -0.28152       -0.318445
1.414                  -0.281685       -0.318134
1.415                   -0.28185       -0.317823
1.416                  -0.282015       -0.317513
1.417                  -0.282179       -0.317202
1.418                  -0.282343       -0.316892
1.419                  -0.282506       -0.316582
1.42                    -0.28267       -0.316272
1.421                  -0.282833       -0.315963
1.422                  -0.282995       -0.315653
1.423                  -0.283158       -0.315344
1.424                   -0.28332       -0.315035
1.425                  -0.283482       -0.314726
1.426                  -0.283644       -0.314418
1.427                  -0.283805       -0.314109
1.428                  -0.283966       -0.313801
1.429                  -0.284127       -0.313493
1.43                   -0.284288       -0.313185
1.431                  -0.284448       -0.312877
1.432                  -0.284608        -0.31257
1.433                  -0.284768       -0.312262
1.434                  -0.284927       -0.311955
1.435                  -0.285086       -0.311648
1.436                  -0.285245       -0.311342
1.437                  -0.285404       -0.311035
1.438                  -0.285562       -0.310729
1.439                  -0.285721       -0.310423
1.44                   -0.285878       -0.310117
1.441                  -0.286036       -0.309811
1.442                  -0.286193       -0.309505
1.443                   -0.28635         -0.3092
1.444                  -0.286507       -0.308894
1.445                  -0.286664       -0.308589
1.446                   -0.28682       -0.308284
1.447                  -0.286976        -0.30798
1.448                  -0.287131       -0.307675
1.449                  -0.287287       -0.307371
1.45                   -0.287442       -0.307067
1.451                  -0.287597       -0.306763
1.452                  -0.287751       -0.306459
1.453                  -0.287906       -0.306155
1.454                   -0.28806       -0.305852
1.455                  -0.288214       -0.305548
1.456                  -0.288367       -0.305245
1.457                   -0.28852       -0.304942
1.458                  -0.288673       -0.304639
1.459                  -0.288826       -0.304337
1.46                   -0.288979       -0.304034
1.461                  -0.289131       -0.303732
1.462                  -0.289283        -0.30343
1.463                  -0.289434       -0.303128
1.464                  -0.289586       -0.302826
1.465                  -0.289737       -0.302524
1.466                  -0.289888       -0.302223
1.467                  -0.290038       -0.301922
1.468                  -0.290189        -0.30162
1.469                  -0.290339       -0.301319
1.47                   -0.290489       -0.301019
1.471                  -0.290638       -0.300718
1.472                  -0.290788       -0.300417
1.473                  -0.290936       -0.300117
1.474                  -0.291085       -0.299817
1.475                  -0.291234       -0.299517
1.476                  -0.291382       -0.299217
1.477                   -0.29153       -0.298917
1.478                  -0.291678       -0.298618
1.479                  -0.291825       -0.298319
1.48                   -0.291972       -0.298019
1.481                  -0.292119        -0.29772
1.482                  -0.292266       -0.297421
1.483                  -0.292412       -0.297123
1.484                  -0.292558       -0.296824
1.485                  -0.292704       -0.296526
1.486                  -0.292849       -0.296227
1.487                  -0.292995       -0.295929
1.488                   -0.29314       -0.295631
1.489                  -0.293284       -0.295334
1.49                   -0.293429       -0.295036
1.491                  -0.293573       -0.294738
1.492                  -0.293717       -0.294441
1.493                  -0.293861       -0.294144
1.494                  -0.294004       -0.293847
1.495                  -0.294147        -0.29355
1.496                   -0.29429       -0.293253
1.497                  -0.294433       -0.292956
1.498                  -0.294575        -0.29266
1.499                  -0.294717       -0.292364
1.5                    -0.294859       -0.292068
1.501                  -0.295001       -0.291771
1.502                  -0.295142       -0.291476
1.503                  -0.295283        -0.29118
1.504                  -0.295424       -0.290884
1.505                  -0.295565       -0.290589
1.506                  -0.295705       -0.290293
1.507                  -0.295845       -0.289998
1.508                  -0.295984       -0.289703
1.509                  -0.296124       -0.289408
1.51                   -0.296263       -0.289114
1.511                  -0.296402       -0.288819
1.512                  -0.296541       -0.288525
1.513                  -0.296679        -0.28823
1.514                  -0.296817       -0.287936
1.515                  -0.296955       -0.287642
1.516                  -0.297093       -0.287348
1.517                   -0.29723       -0.287055
1.518                  -0.297367       -0.286761
1.519                  -0.297504       -0.286468
1.52                    -0.29764       -0.286174
1.521                  -0.297776       -0.285881
1.522                  -0.297912       -0.285588
1.523                  -0.298048       -0.285295
1.524                  -0.298183       -0.285003
1.525                  -0.298319        -0.28471
1.526                  -0.298453       -0.284417
1.527                  -0.298588       -0.284125
1.528                  -0.298722       -0.283833
1.529                  -0.298856       -0.283541
1.53                    -0.29899       -0.283249
1.531                  -0.299124       -0.282957
1.532                  -0.299257       -0.282665
1.533                   -0.29939       -0.282374
1.534                  -0.299523       -0.282083
1.535                  -0.299655       -0.281791
1.536                  -0.299787         -0.2815
1.537                  -0.299919       -0.281209
1.538                  -0.300051       -0.280918
1.539                  -0.300182       -0.280628
1.54                   -0.300313       -0.280337
1.541                  -0.300444       -0.280047
1.542                  -0.300575       -0.279757
1.543                  -0.300705       -0.279466
1.544                  -0.300835       -0.279176
1.545                  -0.300965       -0.278886
1.546                  -0.301094       -0.278597
1.547                  -0.301223       -0.278307
1.548                  -0.301352       -0.278018
1.549                  -0.301481       -0.277728
1.55                   -0.301609       -0.277439
1.551                  -0.301737        -0.27715
1.552                  -0.301865       -0.276861
1.553                  -0.301993       -0.276572
1.554                   -0.30212       -0.276284
1.555                  -0.302247       -0.275995
1.556                  -0.302374       -0.275707
1.557                    -0.3025       -0.275419
1.558                  -0.302626        -0.27513
1.559                  -0.302752       -0.274842
1.56                   -0.302878       -0.274555
1.561                  -0.303003       -0.274267
1.562                  -0.303128       -0.273979
1.563                  -0.303253       -0.273692
1.564                  -0.303377       -0.273405
1.565                  -0.303501       -0.273117
1.566                  -0.303625        -0.27283
1.567                  -0.303749       -0.272544
1.568                  -0.303872       -0.272257
1.569                  -0.303995        -0.27197
1.57                   -0.304118       -0.271684
1.571                  -0.304241       -0.271397
1.572                  -0.304363       -0.271111
1.573                  -0.304485       -0.270825
1.574                  -0.304607       -0.270539
1.575                  -0.304728       -0.270253
1.576                  -0.304849       -0.269968
1.577                   -0.30497       -0.269682
1.578                  -0.305091       -0.269397
1.579                  -0.305211       -0.269111
1.58                   -0.305331       -0.268826
1.581                  -0.305451       -0.268541
1.582                   -0.30557       -0.268256
1.583                  -0.305689       -0.267972
1.584                  -0.305808       -0.267687
1.585                  -0.305927       -0.267403
1.586                  -0.306045       -0.267119
1.587                  -0.306163       -0.266834
1.588                  -0.306281        -0.26655
1.589                  -0.306398       -0.266267
1.59                   -0.306516       -0.265983
1.591                  -0.306632       -0.265699
1.592                  -0.306749       -0.265416
1.593                  -0.306865       -0.265133
1.594                  -0.306981       -0.264849
1.595                  -0.307097       -0.264566
1.596                  -0.307213       -0.264284
1.597                  -0.307328       -0.264001
1.598                  -0.307443       -0.263718
1.599                  -0.307557       -0.263436
1.6                    -0.307672       -0.263154
1.601                  -0.307786       -0.262871
1.602                  -0.307899       -0.262589
1.603                  -0.308013       -0.262308
1.604                  -0.308126       -0.262026
1.605                  -0.308239       -0.261744
1.606                  -0.308352       -0.261463
1.607                  -0.308464       -0.261182
1.608                  -0.308576         -0.2609
1.609                  -0.308688       -0.260619
1.61                   -0.308799       -0.260339
1.611                   -0.30891       -0.260058
1.612                  -0.309021       -0.259778
1.613                  -0.309132       -0.259497
1.614                  -0.309242       -0.259217
1.615                  -0.309352       -0.258937
1.616                  -0.309462       -0.258657
1.617                  -0.309572       -0.258377
1.618                  -0.309681       -0.258098
1.619                   -0.30979       -0.257818
1.62                   -0.309898       -0.257539
1.621                  -0.310006        -0.25726
1.622                  -0.310115       -0.256981
1.623                  -0.310222       -0.256702
1.624                   -0.31033       -0.256423
1.625                  -0.310437       -0.256145
1.626                  -0.310544       -0.255866
1.627                   -0.31065       -0.255588
1.628                  -0.310757        -0.25531
1.629                  -0.310863       -0.255032
1.63                   -0.310968       -0.254754
1.631                  -0.311074       -0.254477
1.632                  -0.311179       -0.254199
1.633                  -0.311284       -0.253922
1.634                  -0.311388       -0.253645
1.635                  -0.311493       -0.253368
1.636                  -0.311597       -0.253091
1.637                    -0.3117       -0.252815
1.638                  -0.311804       -0.252538
1.639                  -0.311907       -0.252262
1.64                    -0.31201       -0.251986
1.641                  -0.312112        -0.25171
1.642                  -0.312215       -0.251434
1.643                  -0.312317       -0.251159
1.644                  -0.312418       -0.250883
1.645                   -0.31252       -0.250608
1.646                  -0.312621       -0.250333
1.647                  -0.312722       -0.250058
1.648                  -0.312822       -0.249783
1.649                  -0.312923       -0.249509
1.65                   -0.313023       -0.249235
1.651                  -0.313122        -0.24896
1.652                  -0.313222       -0.248686
1.653                  -0.313321       -0.248412
1.654                   -0.31342       -0.248139
1.655                  -0.313518       -0.247865
1.656                  -0.313617       -0.247592
1.657                  -0.313715       -0.247319
1.658                  -0.313812       -0.247046
1.659                   -0.31391       -0.246773
1.66                   -0.314007         -0.2465
1.661                  -0.314104       -0.246228
1.662                    -0.3142       -0.245956
1.663                  -0.314297       -0.245684
1.664                  -0.314393       -0.245412
1.665                  -0.314488        -0.24514
1.666                  -0.314584       -0.244869
1.667                  -0.314679       -0.244597
1.668                  -0.314774       -0.244326
1.669                  -0.314868       -0.244055
1.67                   -0.314963       -0.243785
1.671                  -0.315057       -0.243514
1.672                   -0.31515       -0.243244
1.673                  -0.315244       -0.242973
1.674                  -0.315337       -0.242703
1.675                   -0.31543       -0.242434
1.676                  -0.315523       -0.242164
1.677                  -0.315615       -0.241895
1.678                  -0.315707       -0.241626
1.679                  -0.315799       -0.241357
1.68                   -0.315891       -0.241088
1.681                  -0.315982       -0.240819
1.682                  -0.316073       -0.240551
1.683                  -0.316163       -0.240283
1.684                  -0.316254       -0.240015
1.685                  -0.316344       -0.239747
1.686                  -0.316434       -0.239479
1.687                  -0.316523       -0.239212
1.688                  -0.316613       -0.238945
1.689                  -0.316702       -0.238678
1.69                   -0.316791       -0.238411
1.691                  -0.316879       -0.238144
1.692                  -0.316967       -0.237878
1.693                  -0.317055       -0.237612
1.694                  -0.317143       -0.237346
1.695                  -0.317231        -0.23708
1.696                  -0.317318       -0.236815
1.697                  -0.317405       -0.236549
1.698                  -0.317491       -0.236284
1.699                  -0.317578        -0.23602
1.7                    -0.317664       -0.235755
1.701                   -0.31775        -0.23549
1.702                  -0.317835       -0.235226
1.703                  -0.317921       -0.234962
1.704                  -0.318006       -0.234698
1.705                   -0.31809       -0.234435
1.706                  -0.318175       -0.234172
1.707                  -0.318259       -0.233909
1.708                  -0.318343       -0.233646
1.709                  -0.318427       -0.233383
1.71                   -0.318511       -0.233121
1.711                  -0.318594       -0.232858
1.712                  -0.318677       -0.232596
1.713                  -0.318759       -0.232335
1.714                  -0.318842       -0.232073
1.715                  -0.318924       -0.231812
1.716                  -0.319006       -0.231551
1.717                  -0.319088        -0.23129
1.718                  -0.319169       -0.231029
1.719                  -0.319251       -0.230769
1.72                   -0.319332       -0.230509
1.721                  -0.319412       -0.230249
1.722                  -0.319493       -0.229989
1.723                  -0.319573        -0.22973
1.724                  -0.319653       -0.229471
1.725                  -0.319733       -0.229212
1.726                  -0.319812       -0.228953
1.727                  -0.319892       -0.228695
1.728                  -0.319971       -0.228436
1.729                  -0.320049       -0.228178
1.73                   -0.320128       -0.227921
1.731                  -0.320206       -0.227663
1.732                  -0.320284       -0.227406
1.733                  -0.320362       -0.227149
1.734                   -0.32044       -0.226892
1.735                  -0.320517       -0.226635
1.736                  -0.320594       -0.226379
1.737                  -0.320671       -0.226123
1.738                  -0.320748       -0.225867
1.739                  -0.320824       -0.225612
1.74                     -0.3209       -0.225357
1.741                  -0.320976       -0.225101
1.742                  -0.321052       -0.224847
1.743                  -0.321128       -0.224592
1.744                  -0.321203       -0.224338
1.745                  -0.321278       -0.224084
1.746                  -0.321353        -0.22383
1.747                  -0.321428       -0.223577
1.748                  -0.321502       -0.223323
1.749                  -0.321576        -0.22307
1.75                    -0.32165       -0.222818
1.751                  -0.321724       -0.222565
1.752                  -0.321798       -0.222313
1.753                  -0.321871       -0.222061
1.754                  -0.321944       -0.221809
1.755                  -0.322017       -0.221558
1.756                   -0.32209       -0.221307
1.757                  -0.322162       -0.221056
1.758                  -0.322235       -0.220805
1.759                  -0.322307       -0.220555
1.76                   -0.322379       -0.220305
1.761                  -0.322451       -0.220055
1.762                  -0.322522       -0.219805
1.763                  -0.322593       -0.219556
1.764                  -0.322665       -0.219307
1.765                  -0.322735       -0.219058
1.766                  -0.322806        -0.21881
1.767                  -0.322877       -0.218561
1.768                  -0.322947       -0.218313
1.769                  -0.323017       -0.218066
1.77                   -0.323087       -0.217818
1.771                  -0.323157       -0.217571
1.772                  -0.323227       -0.217324
1.773                  -0.323296       -0.217078
1.774                  -0.323365       -0.216831
1.775                  -0.323434       -0.216585
1.776                  -0.323503       -0.216339
1.777                  -0.323572       -0.216094
1.778                  -0.323641       -0.215849
1.779                  -0.323709       -0.215604
1.78                   -0.323777       -0.215359
1.781                  -0.323845       -0.215115
1.782                  -0.323913        -0.21487
1.783                  -0.323981       -0.214627
1.784                  -0.324049       -0.214383
1.785                  -0.324116        -0.21414
1.786                  -0.324183       -0.213897
1.787                   -0.32425       -0.213654
1.788                  -0.324317       -0.213411
1.789                  -0.324384       -0.213169
1.79                    -0.32445       -0.212927
1.791                  -0.324517       -0.212686
1.792                  -0.324583       -0.212444
1.793                  -0.324649       -0.212203
1.794                  -0.324715       -0.211962
1.795                  -0.324781       -0.211722
1.796                  -0.324847       -0.211482
1.797                  -0.324913       -0.211241
1.798                  -0.324978       -0.211002
1.799                  -0.325043       -0.210762
1.8                    -0.325108       -0.210523
1.801                  -0.325173       -0.210284
1.802                  -0.325238       -0.210046
1.803                  -0.325303       -0.209808
1.804                  -0.325368        -0.20957
1.805                  -0.325432       -0.209332
1.806                  -0.325497       -0.209095
1.807                  -0.325561       -0.208857
1.808                  -0.325625        -0.20862
1.809                  -0.325689       -0.208384
1.81                   -0.325753       -0.208148
1.811                  -0.325817       -0.207912
1.812                   -0.32588       -0.207676
1.813                  -0.325944        -0.20744
1.814                  -0.326008       -0.207205
1.815                  -0.326071        -0.20697
1.816                  -0.326134       -0.206736
1.817                  -0.326197       -0.206501
1.818                   -0.32626       -0.206267
1.819                  -0.326323       -0.206033
1.82                   -0.326386         -0.2058
1.821                  -0.326449       -0.205567
1.822                  -0.326512       -0.205334
1.823                  -0.326574       -0.205101
1.824                  -0.326637       -0.204869
1.825                  -0.326699       -0.204637
1.826                  -0.326761       -0.204405
1.827                  -0.326824       -0.204173
1.828                  -0.326886       -0.203942
1.829                  -0.326948       -0.203711
1.83                    -0.32701        -0.20348
1.831                  -0.327072        -0.20325
1.832                  -0.327134        -0.20302
1.833                  -0.327195        -0.20279
1.834                  -0.327257        -0.20256
1.835                  -0.327319       -0.202331
1.836                   -0.32738       -0.202102
1.837                  -0.327442       -0.201873
1.838                  -0.327503       -0.201645
1.839                  -0.327565       -0.201417
1.84                   -0.327626       -0.201189
1.841                  -0.327687       -0.200961
1.842                  -0.327748       -0.200734
1.843                   -0.32781       -0.200507
1.844                  -0.327871        -0.20028
1.845                  -0.327932       -0.200053
1.846                  -0.327993       -0.199827
1.847                  -0.328054       -0.199601
1.848                  -0.328115       -0.199375
1.849                  -0.328176       -0.199149
1.85                   -0.328237       -0.198924
1.851                  -0.328298       -0.198699
1.852                  -0.328358       -0.198475
1.853                  -0.328419        -0.19825
1.854                   -0.32848       -0.198026
1.855                  -0.328541       -0.197802
1.856                  -0.328601       -0.197578
1.857                  -0.328662       -0.197355
1.858                  -0.328723       -0.197132
1.859                  -0.328783       -0.196909
1.86                   -0.328844       -0.196686
1.861                  -0.328905       -0.196464
1.862                  -0.328965       -0.196242
1.863                  -0.329026        -0.19602
1.864                  -0.329087       -0.195798
1.865                  -0.329147       -0.195577
1.866                  -0.329208       -0.195356
1.867                  -0.329268       -0.195135
1.868                  -0.329329       -0.194914
1.869                   -0.32939       -0.194694
1.87                    -0.32945       -0.194474
1.871                  -0.329511       -0.194254
1.872                  -0.329571       -0.194034
1.873                  -0.329632       -0.193815
1.874                  -0.329693       -0.193596
1.875                  -0.329753       -0.193377
1.876                  -0.329814       -0.193158
1.877                  -0.329875        -0.19294
1.878                  -0.329936       -0.192722
1.879                  -0.329996       -0.192504
1.88                   -0.330057       -0.192286
1.881                  -0.330118       -0.192068
1.882                  -0.330179       -0.191851
1.883                   -0.33024       -0.191634
1.884                    -0.3303       -0.191417
1.885                  -0.330361       -0.191201
1.886                  -0.330422       -0.190984
1.887                  -0.330483       -0.190768
1.888                  -0.330544       -0.190552
1.889                  -0.330606       -0.190337
1.89                   -0.330667       -0.190121
1.891                  -0.330728       -0.189906
1.892                  -0.330789       -0.189691
1.893                   -0.33085       -0.189476
1.894                  -0.330912       -0.189261
1.895                  -0.330973       -0.189047
1.896                  -0.331035       -0.188833
1.897                  -0.331096       -0.188619
1.898                  -0.331158       -0.188405
1.899                  -0.331219       -0.188191
1.9                    -0.331281       -0.187978
1.901                  -0.331343       -0.187764
1.902                  -0.331405       -0.187551
1.903                  -0.331466       -0.187339
1.904                  -0.331529       -0.187126
1.905                  -0.331591       -0.186913
1.906                  -0.331653       -0.186701
1.907                  -0.331715       -0.186489
1.908                  -0.331777       -0.186277
1.909                  -0.331839       -0.186065
1.91                   -0.331902       -0.185854
1.911                  -0.331964       -0.185643
1.912                  -0.332027       -0.185431
1.913                   -0.33209        -0.18522
1.914                  -0.332152       -0.185009
1.915                  -0.332215       -0.184799
1.916                  -0.332278       -0.184588
1.917                  -0.332341       -0.184378
1.918                  -0.332404       -0.184168
1.919                  -0.332467       -0.183958
1.92                   -0.332531       -0.183748
1.921                  -0.332594       -0.183538
1.922                  -0.332658       -0.183328
1.923                  -0.332721       -0.183119
1.924                  -0.332785        -0.18291
1.925                  -0.332849         -0.1827
1.926                  -0.332913       -0.182491
1.927                  -0.332977       -0.182282
1.928                  -0.333041       -0.182074
1.929                  -0.333105       -0.181865
1.93                   -0.333169       -0.181657
1.931                  -0.333234       -0.181448
1.932                  -0.333298        -0.18124
1.933                  -0.333363       -0.181032
1.934                  -0.333428       -0.180824
1.935                  -0.333493       -0.180616
1.936                  -0.333558       -0.180408
1.937                  -0.333623       -0.180201
1.938                  -0.333688       -0.179993
1.939                  -0.333753       -0.179786
1.94                   -0.333819       -0.179578
1.941                  -0.333885       -0.179371
1.942                   -0.33395       -0.179164
1.943                  -0.334016       -0.178957
1.944                  -0.334082        -0.17875
1.945                  -0.334148       -0.178543
1.946                  -0.334215       -0.178336
1.947                  -0.334281       -0.178129
1.948                  -0.334347       -0.177923
1.949                  -0.334414       -0.177716
1.95                   -0.334481        -0.17751
1.951                  -0.334548       -0.177303
1.952                  -0.334615       -0.177097
1.953                  -0.334682       -0.176891
1.954                  -0.334749       -0.176684
1.955                  -0.334816       -0.176478
1.956                  -0.334884       -0.176272
1.957                  -0.334952       -0.176066
1.958                  -0.335019        -0.17586
1.959                  -0.335087       -0.175654
1.96                   -0.335155       -0.175448
1.961                  -0.335223       -0.175242
1.962                  -0.335292       -0.175036
1.963                   -0.33536       -0.174831
1.964                  -0.335429       -0.174625
1.965                  -0.335498       -0.174419
1.966                  -0.335566       -0.174213
1.967                  -0.335635       -0.174008
1.968                  -0.335705       -0.173802
1.969                  -0.335774       -0.173596
1.97                   -0.335843       -0.173391
1.971                  -0.335913       -0.173185
1.972                  -0.335982       -0.172979
1.973                  -0.336052       -0.172774
1.974                  -0.336122       -0.172568
1.975                  -0.336192       -0.172362
1.976                  -0.336263       -0.172156
1.977                  -0.336333       -0.171951
1.978                  -0.336403       -0.171745
1.979                  -0.336474       -0.171539
1.98                   -0.336545       -0.171334
1.981                  -0.336616       -0.171128
1.982                  -0.336687       -0.170922
1.983                  -0.336758       -0.170716
1.984                  -0.336829        -0.17051
1.985                  -0.336901       -0.170304
1.986                  -0.336972       -0.170098
1.987                  -0.337044       -0.169892
1.988                  -0.337116       -0.169686
1.989                  -0.337188        -0.16948
1.99                    -0.33726       -0.169274
1.991                  -0.337332       -0.169067
1.992                  -0.337405       -0.168861
1.993                  -0.337477       -0.168654
1.994                   -0.33755       -0.168448
1.995                  -0.337623       -0.168241
1.996                  -0.337695       -0.168035
1.997                  -0.337768       -0.167828
1.998                  -0.337842       -0.167621
1.999                  -0.337915       -0.167414
2                      -0.337988       -0.167207
